#  HZ   S   RI   R     50.00 
! Rohde & Schwarz Vector Network Analyzer 
! Rohde-Schwarz,ZNLE6-2Port,1323001256200024,1.71.1.10-23.02.1.238
! Created: UTC 4/11/2025, 8:18:19 AM
! freq[Hz]                re:S11                  im:S11                  re:S21                  im:S21                  re:S12                  im:S12                  re:S22                  im:S22
 1.000000000000000E5     3.805167746721503E-2    3.084820036051071E-2    9.624998144735226E-1   -3.098252970021291E-2    9.626328838081731E-1   -3.092482903182955E-2    3.800667629575886E-2    3.084221784651639E-2
 1.007629862646662E5     3.820126329134320E-2    3.088445762918483E-2    9.623666498076506E-1   -3.102781810384633E-2    9.624842029110049E-1   -3.099212877813271E-2    3.815082281176570E-2    3.088011232786844E-2
 1.015317940097331E5     3.831245606956599E-2    3.093188037605453E-2    9.622106204426099E-1   -3.106821993587545E-2    9.623642365392662E-1   -3.103083835980591E-2    3.829157406233125E-2    3.092145452062869E-2
 1.023064676522963E5     3.846901150948989E-2    3.097455537136845E-2    9.620817266659438E-1   -3.112782930500759E-2    9.622097599023133E-1   -3.108800811848746E-2    3.842303555674944E-2    3.096743124866688E-2
 1.030870519483485E5     3.859363384858981E-2    3.102249673216368E-2    9.619393044465099E-1   -3.117478949387805E-2    9.620680700617060E-1   -3.113344585585354E-2    3.855572084693584E-2    3.101001933911406E-2
 1.038735919953636E5     3.874036190300378E-2    3.105928810698441E-2    9.617900096716537E-1   -3.122440812966651E-2    9.619178786450565E-1   -3.116908145346760E-2    3.868381222707459E-2    3.106094527349788E-2
 1.046661332349037E5     3.886908896498099E-2    3.111217176316852E-2    9.616447665784165E-1   -3.126881715298958E-2    9.617833881580896E-1   -3.122391907827064E-2    3.883546291828192E-2    3.110957235520206E-2
 1.054647214552430E5     3.900020260851557E-2    3.115548068361401E-2    9.615111922053159E-1   -3.131722836111965E-2    9.616479908241571E-1   -3.127685820703158E-2    3.897396173906115E-2    3.115089535004413E-2
 1.062694027940149E5     3.913827853792070E-2    3.119944563879120E-2    9.613669925390681E-1   -3.137729191882563E-2    9.614983261225916E-1   -3.130955184488741E-2    3.909855160015764E-2    3.120922590846589E-2
 1.070802237408760E5     3.928454887051022E-2    3.126094334457820E-2    9.612405197228390E-1   -3.140702720738343E-2    9.613770546375376E-1   -3.137194767567785E-2    3.923942955839470E-2    3.125132604362264E-2
 1.078972311401927E5     3.942674655788690E-2    3.131258842952057E-2    9.611098291356308E-1   -3.145854731607692E-2    9.612510191337440E-1   -3.141499739083336E-2    3.938911895981044E-2    3.129496800464242E-2
 1.087204721937475E5     3.956865820797895E-2    3.135020927609413E-2    9.609706721343982E-1   -3.151561109386737E-2    9.610994384161485E-1   -3.146983910327654E-2    3.952196733043443E-2    3.134444190304720E-2
 1.095499944634658E5     3.968474664217488E-2    3.139651432965194E-2    9.608190474267901E-1   -3.156291517961229E-2    9.609456248563072E-1   -3.151655886351075E-2    3.964610332455373E-2    3.138892895981625E-2
 1.103858458741646E5     3.983936609493158E-2    3.144929151753998E-2    9.606946916498849E-1   -3.161293366920356E-2    9.608383064875297E-1   -3.156535528287015E-2    3.980403253331818E-2    3.144084302131869E-2
 1.112280747163201E5     3.998054204724516E-2    3.150073817184008E-2    9.605651918746539E-1   -3.164934667132106E-2    9.606862907871284E-1   -3.162819438059482E-2    3.993977003361202E-2    3.149345818168801E-2
 1.120767296488583E5     4.011719099727077E-2    3.155305308193222E-2    9.604092427741314E-1   -3.170010036530101E-2    9.605545174146305E-1   -3.167395153917376E-2    4.006702970926403E-2    3.154385285972107E-2
 1.129318597019661E5     4.026969948660182E-2    3.161050200970602E-2    9.603003473340148E-1   -3.174893419725629E-2    9.604187826795819E-1   -3.171880684469375E-2    4.020901468943457E-2    3.159045748729407E-2
 1.137935142799240E5     4.039678145494166E-2    3.165838916236048E-2    9.601433012304595E-1   -3.180717386716109E-2    9.602650223603427E-1   -3.176528033859256E-2    4.033308262496843E-2    3.164392512141698E-2
 1.146617431639607E5     4.052578791417598E-2    3.169701688182634E-2    9.600121681421503E-1   -3.186262735631751E-2    9.601427900776679E-1   -3.182310729041348E-2    4.047123082770988E-2    3.170237752396642E-2
 1.155365965151286E5     4.067079699987727E-2    3.175087058903407E-2    9.598795824069557E-1   -3.191006346257938E-2    9.600260498766440E-1   -3.187680069540370E-2    4.060722700989614E-2    3.175340338682316E-2
 1.164181248772018E5     4.082672369123462E-2    3.180236042764567E-2    9.597714865859071E-1   -3.194961273153802E-2    9.598842223010762E-1   -3.193053089641702E-2    4.075871053087050E-2    3.179845543200198E-2
 1.173063791795965E5     4.096264104825449E-2    3.184927585452093E-2    9.596343281075271E-1   -3.200959349272083E-2    9.597252200126429E-1   -3.200362086455465E-2    4.090548977608009E-2    3.184281612755253E-2
 1.182014107403141E5     4.109877135184779E-2    3.190107958110529E-2    9.595003153832983E-1   -3.206076657665346E-2    9.595868809544373E-1   -3.204990902584318E-2    4.103994776475568E-2    3.189829531989836E-2
 1.191032712689044E5     4.124624531736296E-2    3.195632544781543E-2    9.593481091735520E-1   -3.212229206193577E-2    9.594557966606487E-1   -3.210391849965488E-2    4.118997601455751E-2    3.194763287077947E-2
 1.200120128694542E5     4.137116293580649E-2    3.201159960058535E-2    9.591978650697274E-1   -3.217551077425970E-2    9.593046209565093E-1   -3.214654485822509E-2    4.130154390714372E-2    3.201179632110715E-2
 1.209276880435975E5     4.149934441160127E-2    3.206698303670499E-2    9.590408448068575E-1   -3.223111255899432E-2    9.591911603979740E-1   -3.220597205758431E-2    4.146471669470622E-2    3.205800579720545E-2
 1.218503496935483E5     4.164485261608027E-2    3.211548414415293E-2    9.589239153922940E-1   -3.228402624316223E-2    9.590378146851424E-1   -3.225938570617770E-2    4.159877785876503E-2    3.211129500236708E-2
 1.227800511251578E5     4.178391104152758E-2    3.218278273908361E-2    9.587797917795671E-1   -3.232745748128608E-2    9.588990976922690E-1   -3.232254253727476E-2    4.174417305140529E-2    3.216524120493434E-2
 1.237168460509929E5     4.192133966596922E-2    3.222979596553927E-2    9.586420192332039E-1   -3.238789308604826E-2    9.587583850256253E-1   -3.236790239937166E-2    4.187022004138320E-2    3.222599702499424E-2
 1.246607885934402E5     4.205397205619438E-2    3.227991172286457E-2    9.584927243807850E-1   -3.246165460996386E-2    9.586001185372112E-1   -3.244556823001995E-2    4.201287871464377E-2    3.227185741451269E-2
 1.256119332878327E5     4.219710698727441E-2    3.233525571572693E-2    9.583530825322248E-1   -3.252079514195163E-2    9.584695477571250E-1   -3.250064463050018E-2    4.215993566692563E-2    3.232850080371548E-2
 1.265703350856002E5     4.234488365391179E-2    3.238476191010985E-2    9.582275634216016E-1   -3.257818729593382E-2    9.583250266714166E-1   -3.255427388126165E-2    4.229451446426623E-2    3.237582426317161E-2
 1.275360493574453E5     4.248233332913260E-2    3.245091810340381E-2    9.580921359283059E-1   -3.262328803710963E-2    9.581861678443301E-1   -3.260413685880927E-2    4.243516460430695E-2    3.244018784606115E-2
 1.285091318965405E5     4.261635951897723E-2    3.251329610481517E-2    9.579561838412898E-1   -3.266825884424251E-2    9.580664847441087E-1   -3.266239545476683E-2    4.258123437926421E-2    3.250094731483805E-2
 1.294896389217529E5     4.275850773664978E-2    3.256598745457570E-2    9.578033503586529E-1   -3.273670302077563E-2    9.579104068375712E-1   -3.272848071979442E-2    4.271492419569410E-2    3.255547392782430E-2
 1.304776270808914E5     4.290343597193075E-2    3.262207066479468E-2    9.576706939090742E-1   -3.279904036329439E-2    9.577542046265355E-1   -3.279180012616937E-2    4.285346319206038E-2    3.261128161496391E-2
 1.314731534539810E5     4.304912955689993E-2    3.267235617971854E-2    9.575400629159027E-1   -3.286512738273162E-2    9.576132797384718E-1   -3.284766582335202E-2    4.298658926209704E-2    3.266949445605631E-2
 1.324762755565583E5     4.318862705606483E-2    3.272984453430768E-2    9.573904633899917E-1   -3.291751435465651E-2    9.574982869718874E-1   -3.290083990552835E-2    4.313338111431584E-2    3.273315022962143E-2
 1.334870513429962E5     4.333611009458273E-2    3.278209107229334E-2    9.572414209327855E-1   -3.300270548720719E-2    9.573668831685465E-1   -3.295500791585826E-2    4.328997453141796E-2    3.278430702135356E-2
 1.345055392098512E5     4.346414694124890E-2    3.285474913907341E-2    9.570831533134627E-1   -3.304636935769469E-2    9.571987372887920E-1   -3.302577369031633E-2    4.341459124720742E-2    3.284440404142991E-2
 1.355317979992373E5     4.360229969246220E-2    3.291733443947188E-2    9.569473384261468E-1   -3.310695896480496E-2    9.570611521185416E-1   -3.308685430266767E-2    4.356351446303713E-2    3.291079390093843E-2
 1.365658870022265E5     4.374638639828790E-2    3.297985294645882E-2    9.567968855971389E-1   -3.316099911502610E-2    9.569156394920934E-1   -3.314829521988720E-2    4.371497079817027E-2    3.296884425406707E-2
 1.376078659622731E5     4.389022252282846E-2    3.302850787522971E-2    9.566552660317137E-1   -3.323856188333031E-2    9.567554899228368E-1   -3.321982350247115E-2    4.384223997953234E-2    3.301979663531460E-2
 1.386577950786655E5     4.403876493479683E-2    3.309442800291525E-2    9.565173942577782E-1   -3.329469361255444E-2    9.565978931953801E-1   -3.327787436921899E-2    4.397603943529235E-2    3.308997614391127E-2
 1.397157350100044E5     4.418626408894351E-2    3.315398926881982E-2    9.563857681087812E-1   -3.335432893172335E-2    9.564766770926214E-1   -3.333790245644064E-2    4.412939395205114E-2    3.315436391342595E-2
 1.407817468777081E5     4.432136187673167E-2    3.320897871052517E-2    9.562463318513437E-1   -3.342524633806360E-2    9.563225476812321E-1   -3.340591594328112E-2    4.424936569484230E-2    3.320561696556780E-2
 1.418558922695422E5     4.446760807572561E-2    3.327012944513728E-2    9.560931628135712E-1   -3.348782286431189E-2    9.561951821578387E-1   -3.346994094863541E-2    4.440585453547560E-2    3.327238810739020E-2
 1.429382332431784E5     4.461190880237797E-2    3.334033478245219E-2    9.559653079968967E-1   -3.354468239400631E-2    9.560429746313914E-1   -3.351927840775402E-2    4.454633996764391E-2    3.333574637285689E-2
 1.440288323297804E5     4.475710247030579E-2    3.340186028155261E-2    9.558019485034648E-1   -3.362497958329669E-2    9.559066251465906E-1   -3.359688013370304E-2    4.469257204749905E-2    3.339497747255465E-2
 1.451277525376154E5     4.491097860602773E-2    3.346358524623967E-2    9.556905467331164E-1   -3.368541292269811E-2    9.557754946153342E-1   -3.366683179877239E-2    4.484825644431550E-2    3.345144225857979E-2
 1.462350573556962E5     4.505041039122268E-2    3.352953475217658E-2    9.555308782296011E-1   -3.375652200254818E-2    9.556500201207594E-1   -3.372874109584680E-2    4.500825477554865E-2    3.352097027914040E-2
 1.473508107574468E5     4.519313359923034E-2    3.358832184327475E-2    9.553888609804678E-1   -3.381495935790363E-2    9.554735106005134E-1   -3.379888317028937E-2    4.513840584777723E-2    3.358337077109400E-2
 1.484750772044004E5     4.534166236116641E-2    3.365480520971925E-2    9.552544882602624E-1   -3.389012567976580E-2    9.553393663167299E-1   -3.387098860661153E-2    4.528287310628358E-2    3.364789626820357E-2
 1.496079216499225E5     4.548517214987335E-2    3.372061956507060E-2    9.550884132675278E-1   -3.395928602710559E-2    9.552003935034232E-1   -3.393151616457937E-2    4.542579824265580E-2    3.371285877839406E-2
 1.507494095429637E5     4.563163541223164E-2    3.378509107241523E-2    9.549550115791605E-1   -3.401131238774097E-2    9.550437715974353E-1   -3.400910742844706E-2    4.557121046970301E-2    3.378392150599114E-2
 1.518996068318418E5     4.577909994489255E-2    3.385058522213697E-2    9.548118631371827E-1   -3.408812233663954E-2    9.549081453063480E-1   -3.406319269823423E-2    4.572242004685825E-2    3.385380165313571E-2
 1.530585799680507E5     4.593224038403239E-2    3.392726399645921E-2    9.546801016988821E-1   -3.414474006226944E-2    9.547675925452462E-1   -3.413494605825636E-2    4.587250115134949E-2    3.392382157988904E-2
 1.542263959101001E5     4.606083541177883E-2    3.398534795707960E-2    9.545239524095398E-1   -3.422206519070265E-2    9.546258393258430E-1   -3.420905961165331E-2    4.600994777049101E-2    3.397546815177938E-2
 1.554031221273835E5     4.621010318766907E-2    3.405304745685475E-2    9.543802172657131E-1   -3.429152721328782E-2    9.544733513583169E-1   -3.427429454498197E-2    4.617133265769900E-2    3.405383707086701E-2
 1.565888266040779E5     4.636987098591395E-2    3.411534977059112E-2    9.542494910752756E-1   -3.435745638436207E-2    9.543374116076506E-1   -3.433953413085711E-2    4.631064367524014E-2    3.411190997502398E-2
 1.577835778430689E5     4.649646376530710E-2    3.419019107912199E-2    9.540914443759008E-1   -3.442406445468076E-2    9.541577343760674E-1   -3.442277511044192E-2    4.645831646845511E-2    3.418198390779409E-2
 1.589874448699104E5     4.665656796791318E-2    3.426208080179886E-2    9.539456157096510E-1   -3.449118083022822E-2    9.540047953592284E-1   -3.448383626652855E-2    4.660289845308840E-2    3.425296590361720E-2
 1.602004972368116E5     4.680225432709408E-2    3.432895032611548E-2    9.538055477906083E-1   -3.456184454040542E-2    9.538839836170139E-1   -3.455154853125320E-2    4.675028663053191E-2    3.432548325185712E-2
 1.614228050266550E5     4.694803459264128E-2    3.438984502268587E-2    9.536563992215522E-1   -3.463296250236498E-2    9.537302796518456E-1   -3.462421124210668E-2    4.690241931959741E-2    3.438467346856124E-2
 1.626544388570473E5     4.708950224258947E-2    3.446908755988045E-2    9.534875168037986E-1   -3.470171248246549E-2    9.535810657756054E-1   -3.470707021807112E-2    4.705291950009047E-2    3.445316780322052E-2
 1.638954698843964E5     4.723182904698432E-2    3.453320229405933E-2    9.533294728921554E-1   -3.477508739595415E-2    9.534387193600412E-1   -3.477474668527408E-2    4.720509902553389E-2    3.452808638265469E-2
 1.651459698080244E5     4.739414676432942E-2    3.460301134652931E-2    9.531824705232228E-1   -3.485171586283885E-2    9.532742702491663E-1   -3.485112603945935E-2    4.735605174154012E-2    3.459852510290413E-2
 1.664060108743095E5     4.752992786631843E-2    3.467932317296921E-2    9.530338644919122E-1   -3.492560802634607E-2    9.531205765653427E-1   -3.492044222322678E-2    4.749901308564079E-2    3.467304835248878E-2
 1.676756658808590E5     4.767416335366859E-2    3.474689612731267E-2    9.528777439896879E-1   -3.501230883150407E-2    9.529854272477895E-1   -3.499610005655820E-2    4.763983609700360E-2    3.474049975966638E-2
 1.689550081807175E5     4.785215515411170E-2    3.482170292979019E-2    9.527374062847649E-1   -3.508129208819308E-2    9.528604854832700E-1   -3.506785562116242E-2    4.781585177588810E-2    3.481856046616345E-2
 1.702441116866020E5     4.800593580109711E-2    3.489645019392082E-2    9.525916472877957E-1   -3.515636764844464E-2    9.526787032263556E-1   -3.514384480284576E-2    4.794684877291411E-2    3.488181382981810E-2
 1.715430508751738E5     4.815406782787819E-2    3.496539912620115E-2    9.524336195869421E-1   -3.523751476633850E-2    9.525303338548214E-1   -3.521269931766302E-2    4.809382465861758E-2    3.495591377250430E-2
 1.728519007913403E5     4.831969645684080E-2    3.503654482126625E-2    9.522965855823079E-1   -3.531027655720563E-2    9.523757088580940E-1   -3.529033017208096E-2    4.824890685053336E-2    3.503551629510580E-2
 1.741707370525927E5     4.847521324631904E-2    3.511927183517137E-2    9.521400407879136E-1   -3.536960059609918E-2    9.522199108502960E-1   -3.537087127811279E-2    4.841037654590515E-2    3.510381823986065E-2
 1.754996358533718E5     4.859777379951258E-2    3.519520664869704E-2    9.519813276427970E-1   -3.544204776651421E-2    9.520787924497468E-1   -3.544686590559484E-2    4.855040477887187E-2    3.517743063584376E-2
 1.768386739694722E5     4.876138555961258E-2    3.526686037927651E-2    9.518399821809146E-1   -3.553134490081573E-2    9.519193289659659E-1   -3.552213303747096E-2    4.871034024394835E-2    3.525299694557023E-2
 1.781879287624771E5     4.890675047024414E-2    3.533622696123531E-2    9.516538725850023E-1   -3.561195070029545E-2    9.517875784700501E-1   -3.559366344938851E-2    4.886113985099450E-2    3.532634811346818E-2
 1.795474781842276E5     4.904495668873757E-2    3.541558918535619E-2    9.514887638532574E-1   -3.568201460763015E-2    9.516151340438526E-1   -3.567770293810966E-2    4.901345663842565E-2    3.540053626200301E-2
 1.809174007813277E5     4.921416637894265E-2    3.548879161993389E-2    9.513600013535431E-1   -3.575914293030555E-2    9.514702223386410E-1   -3.575589169913965E-2    4.917343853315036E-2    3.547210413413678E-2
 1.822977756996804E5     4.938333597415106E-2    3.556360687165885E-2    9.512303560843559E-1   -3.583586638848598E-2    9.513205639628358E-1   -3.581994087414543E-2    4.933751901624809E-2    3.555800418883871E-2
 1.836886826890609E5     4.952243632794735E-2    3.563982678675851E-2    9.510582676120659E-1   -3.591826246751066E-2    9.511769865317000E-1   -3.591488433027164E-2    4.948849069411537E-2    3.562272213328602E-2
 1.850902021077247E5     4.969459643051096E-2    3.571221896112016E-2    9.509205330267905E-1   -3.599673548521552E-2    9.510207136466935E-1   -3.599602058308426E-2    4.964124059097107E-2    3.569763979084023E-2
 1.865024149270491E5     4.984897980084310E-2    3.578368759132432E-2    9.507514559176583E-1   -3.609439992764624E-2    9.508621796362048E-1   -3.607126257697280E-2    4.979017418163122E-2    3.577792780720968E-2
 1.879254027362132E5     5.000328087998268E-2    3.586755440692989E-2    9.505910065248190E-1   -3.616012640352866E-2    9.507192939203980E-1   -3.614282106179746E-2    4.995828731306128E-2    3.586086315326506E-2
 1.893592477469092E5     5.017358486173941E-2    3.593083943395253E-2    9.504597936741631E-1   -3.624645706211552E-2    9.505839725385281E-1   -3.625185977163133E-2    5.014023645643163E-2    3.592562462842860E-2
 1.908040327980933E5     5.031517619890871E-2    3.602452091704433E-2    9.502832318442099E-1   -3.631741998046567E-2    9.504083945130499E-1   -3.630913404452778E-2    5.026540787652521E-2    3.602013634330496E-2
 1.922598413607715E5     5.047888431960960E-2    3.611072921005255E-2    9.501149036062329E-1   -3.639219427508920E-2    9.502437329788890E-1   -3.638565251671312E-2    5.042883394726948E-2    3.609627694942624E-2
 1.937267575428232E5     5.064478840127996E-2    3.617746188211547E-2    9.499648319500740E-1   -3.647789837814416E-2    9.500746701263939E-1   -3.646830920806294E-2    5.058708671605418E-2    3.617204290139904E-2
 1.952048660938581E5     5.079860922989701E-2    3.625759039855161E-2    9.497999724095340E-1   -3.656413241700762E-2    9.499214107894683E-1   -3.655662718798636E-2    5.075110003545139E-2    3.624504903040970E-2
 1.966942524101142E5     5.095931721165937E-2    3.633739129381215E-2    9.496355567982399E-1   -3.665692028516751E-2    9.497862396845302E-1   -3.662223736579906E-2    5.091930255523801E-2    3.633124518969452E-2
 1.981950025393913E5     5.114273335841127E-2    3.642091865990585E-2    9.494744422662401E-1   -3.674119381446172E-2    9.495963010268672E-1   -3.670698547488513E-2    5.108374513706296E-2    3.641640555235731E-2
 1.997072031860212E5     5.130311745492391E-2    3.649509088820511E-2    9.493263026378022E-1   -3.681050641555102E-2    9.494507600687845E-1   -3.678965884794674E-2    5.124510652427006E-2    3.649179385282889E-2
 2.012309417158795E5     5.145399508076281E-2    3.658116515956181E-2    9.491503752745571E-1   -3.689263574282769E-2    9.492931482618003E-1   -3.687715827239631E-2    5.140346631222543E-2    3.657431392958573E-2
 2.027663061614301E5     5.162231581617500E-2    3.666546285910979E-2    9.490175064749273E-1   -3.697197797720713E-2    9.491236230492722E-1   -3.696719983148017E-2    5.156712212706924E-2    3.664507071789463E-2
 2.043133852268128E5     5.178302890714973E-2    3.674266038021680E-2    9.488355120114977E-1   -3.706547890261999E-2    9.489592839040932E-1   -3.704835174612723E-2    5.173927727089292E-2    3.673593085850656E-2
 2.058722682929675E5     5.194477668415985E-2    3.682104824019408E-2    9.486638718038753E-1   -3.715005567961911E-2    9.487882756868666E-1   -3.712138290461124E-2    5.190941334820553E-2    3.682086251933685E-2
 2.074430454227995E5     5.211195724236212E-2    3.690260938355461E-2    9.485343751961628E-1   -3.721904568377554E-2    9.486279012174437E-1   -3.720893799878049E-2    5.206164801906137E-2    3.688768152158160E-2
 2.090258073663807E5     5.228301244202493E-2    3.699017000204539E-2    9.483599393060645E-1   -3.730724617053965E-2    9.484651121512974E-1   -3.729633477810150E-2    5.223146306122965E-2    3.698064070341349E-2
 2.106206455661938E5     5.243982908023242E-2    3.706426270529063E-2    9.481882225080573E-1   -3.740098437998258E-2    9.482947055325069E-1   -3.737604162487702E-2    5.238526494996934E-2    3.706566769357129E-2
 2.122276521624151E5     5.262082750115129E-2    3.715061486718127E-2    9.480571003083300E-1   -3.747983445226295E-2    9.481243747212540E-1   -3.746731666303367E-2    5.256011438037220E-2    3.714011292028324E-2
 2.138469199982374E5     5.278949851698871E-2    3.722977057062986E-2    9.478783962523857E-1   -3.757421220468516E-2    9.479605949551659E-1   -3.755497199317979E-2    5.272276137100971E-2    3.721783465703453E-2
 2.154785426252357E5     5.295354213234012E-2    3.731587910779986E-2    9.477180495363651E-1   -3.765119739285102E-2    9.477766254760850E-1   -3.763802848885668E-2    5.288171845636466E-2    3.730861067829577E-2
 2.171226143087691E5     5.312178487699759E-2    3.739980717120911E-2    9.475325946738299E-1   -3.773437660094882E-2    9.476034756538940E-1   -3.772579670244501E-2    5.305891687105828E-2    3.739106564302555E-2
 2.187792300334291E5     5.329884235641387E-2    3.748558729756527E-2    9.473682920373162E-1   -3.782348220480167E-2    9.474642957806297E-1   -3.780933357398734E-2    5.323160129915179E-2    3.746987271903482E-2
 2.204484855085266E5     5.345625393240788E-2    3.756654928666176E-2    9.472003500280046E-1   -3.790716825488626E-2    9.473047153494070E-1   -3.790508425076115E-2    5.341076022176764E-2    3.755351897290858E-2
 2.221304771736209E5     5.362570105157609E-2    3.765060561289398E-2    9.470178717840088E-1   -3.800418930255633E-2    9.471548868032699E-1   -3.798115848501109E-2    5.358106995458585E-2    3.764006204658435E-2
 2.238253022040931E5     5.380108181420040E-2    3.773653232667778E-2    9.468408513812716E-1   -3.809140052164614E-2    9.469965278977110E-1   -3.807527023496887E-2    5.375153524300559E-2    3.772224019624343E-2
 2.255330585167579E5     5.396786318822554E-2    3.781628644040841E-2    9.466623912336186E-1   -3.818847060661461E-2    9.468058712793805E-1   -3.816475426472413E-2    5.392151390325918E-2    3.780797728587952E-2
 2.272538447755223E5     5.413598337313142E-2    3.790662253808293E-2    9.464636726414515E-1   -3.826715583881996E-2    9.466086899731065E-1   -3.825380700280282E-2    5.407825533123851E-2    3.788968391371969E-2
 2.289877603970853E5     5.430722920547308E-2    3.799055158483979E-2    9.462886312261655E-1   -3.836386447205026E-2    9.464488932075292E-1   -3.834327786493184E-2    5.426179047152693E-2    3.797509933693739E-2
 2.307349055566813E5     5.447268634575661E-2    3.807087285018741E-2    9.461227113731981E-1   -3.844856162686520E-2    9.462633605637223E-1   -3.843584616865535E-2    5.442517552900489E-2    3.805771585063485E-2
 2.324953811938693E5     5.465167537737739E-2    3.816485940003278E-2    9.459742799396085E-1   -3.852030170091368E-2    9.460924283552966E-1   -3.851819749355208E-2    5.461284903833333E-2    3.813978967223011E-2
 2.342692890183618E5     5.482193047362895E-2    3.824540478931860E-2    9.457889495258690E-1   -3.862299298463420E-2    9.459123472902715E-1   -3.860861132334844E-2    5.477778784669100E-2    3.822650957060085E-2
 2.360567315159030E5     5.501269108632951E-2    3.833358727580118E-2    9.456128835020224E-1   -3.869965652546573E-2    9.457307319455180E-1   -3.869834825565639E-2    5.495354784217216E-2    3.831628862734624E-2
 2.378578119541888E5     5.518446933129133E-2    3.841783943662561E-2    9.454414816385932E-1   -3.878474792648361E-2    9.455746007650512E-1   -3.879785937764520E-2    5.513624222416137E-2    3.839795586410871E-2
 2.396726343888348E5     5.536797287220596E-2    3.851038507362251E-2    9.452760829821306E-1   -3.886753816041830E-2    9.453986484174677E-1   -3.888824383084085E-2    5.530866743533730E-2    3.848289656983286E-2
 2.415013036693852E5     5.555522650362408E-2    3.859231058740893E-2    9.450886025216994E-1   -3.896251147787638E-2    9.452325087161940E-1   -3.896605704623143E-2    5.548887971289138E-2    3.856139152444295E-2
 2.433439254453724E5     5.572447900838948E-2    3.868127275030430E-2    9.449339229877476E-1   -3.904508489976111E-2    9.450415759943407E-1   -3.905315179632974E-2    5.566666663725722E-2    3.865502053822097E-2
 2.452006061724201E5     5.591807151018126E-2    3.875967133103109E-2    9.447729086975615E-1   -3.913398142558794E-2    9.448518341380258E-1   -3.915425009342859E-2    5.585513347444217E-2    3.873675888556004E-2
 2.470714531183934E5     5.610595496153325E-2    3.885321825089388E-2    9.445713822724450E-1   -3.922219262900319E-2    9.446318558362585E-1   -3.924943491596622E-2    5.602682027161866E-2    3.881903708232669E-2
 2.489565743695979E5     5.628052673978131E-2    3.893450045359333E-2    9.443650090479287E-1   -3.931735390874962E-2    9.444608197913189E-1   -3.933791279833011E-2    5.620073865535492E-2    3.890644274144199E-2
 2.508560788370214E5     5.646203677018802E-2    3.902197212770177E-2    9.441795098512433E-1   -3.941388852853497E-2    9.442785775006545E-1   -3.942586255735880E-2    5.639002918229909E-2    3.899469521337813E-2
 2.527700762626280E5     5.664473141037882E-2    3.910489123091972E-2    9.440031893846765E-1   -3.949529772809982E-2    9.440997630322669E-1   -3.952884778582709E-2    5.657654124705298E-2    3.908319673400031E-2
 2.546986772256976E5     5.682772889046410E-2    3.919048010117025E-2    9.438162666000490E-1   -3.958628096963583E-2    9.439242151268673E-1   -3.961846814741474E-2    5.677371974505178E-2    3.917018114509089E-2
 2.566419931492161E5     5.701563854736489E-2    3.927955166249673E-2    9.436408998997344E-1   -3.967712628788268E-2    9.437623598914318E-1   -3.970120524251701E-2    5.695064443664662E-2    3.925907116172302E-2
 2.586001363063102E5     5.721684894848150E-2    3.936356450735985E-2    9.434598528521537E-1   -3.976940956437726E-2    9.435711391956594E-1   -3.978102479947969E-2    5.713485736786455E-2    3.934498359698408E-2
 2.605732198267354E5     5.739436288871540E-2    3.944501725682202E-2    9.432691345011508E-1   -3.986457792892609E-2    9.433936552001815E-1   -3.986550268718743E-2    5.732507865206739E-2    3.943101544354341E-2
 2.625613577034118E5     5.757298401988480E-2    3.954005233506778E-2    9.430785824581364E-1   -3.994297567245629E-2    9.432345322227368E-1   -3.996120493732716E-2    5.751149773264991E-2    3.951782533981212E-2
 2.645646647990093E5     5.775353853050869E-2    3.961926246972416E-2    9.428893748202017E-1   -4.004755643792195E-2    9.430521674070967E-1   -4.003992754783729E-2    5.770094878680043E-2    3.960761446665681E-2
 2.665832568525859E5     5.794509009130214E-2    3.970578944750140E-2    9.426821195446129E-1   -4.013497815403009E-2    9.428558807036890E-1   -4.013682137943075E-2    5.788686690035896E-2    3.968928613353959E-2
 2.686172504862709E5     5.813237820544211E-2    3.979038780802452E-2    9.425196171155851E-1   -4.022046967822909E-2    9.426446524476430E-1   -4.022117801376608E-2    5.806730994025069E-2    3.977553906694502E-2
 2.706667632120051E5     5.833067190190448E-2    3.987714660064422E-2    9.423353968702601E-1   -4.031838592884030E-2    9.424484798501747E-1   -4.030899211461067E-2    5.825047695576065E-2    3.986547735779845E-2
 2.727319134383292E5     5.852855961162724E-2    3.996597283909462E-2    9.421420539878081E-1   -4.039954879867925E-2    9.422647330745594E-1   -4.039784678389412E-2    5.844932176420761E-2    3.994561094004842E-2
 2.748128204772244E5     5.870493918527576E-2    4.005344141232566E-2    9.419498582868543E-1   -4.048688796387059E-2    9.420946656974093E-1   -4.048430055215474E-2    5.863732947194500E-2    4.003933213796974E-2
 2.769096045510074E5     5.889501263103283E-2    4.014294559413412E-2    9.417802187187184E-1   -4.057660483100210E-2    9.418825094748811E-1   -4.057504082515650E-2    5.881699440891370E-2    4.012085740240726E-2
 2.790223867992730E5     5.908701372740576E-2    4.021689321729345E-2    9.415936326953297E-1   -4.066758808371194E-2    9.417474126631569E-1   -4.066407380146444E-2    5.902509998700511E-2    4.020846264420748E-2
 2.811512892858952E5     5.928641207831550E-2    4.030899459394842E-2    9.413904383593544E-1   -4.075964200614218E-2    9.415181119571737E-1   -4.075572625589212E-2    5.920445434487674E-2    4.029366329625125E-2
 2.832964350060779E5     5.946523698846048E-2    4.039247010101434E-2    9.411830803320801E-1   -4.085112679612492E-2    9.413413747192454E-1   -4.083852687180381E-2    5.940907983569246E-2    4.038056050374389E-2
 2.854579478934632E5     5.964247890564339E-2    4.048020012821291E-2    9.409761851346577E-1   -4.093424676381169E-2    9.411478794605185E-1   -4.093599590486067E-2    5.958856430520990E-2    4.047187733729395E-2
 2.876359528272883E5     5.984203492681392E-2    4.056537001149159E-2    9.407967245298571E-1   -4.103125773797143E-2    9.409708448329349E-1   -4.102363226555343E-2    5.979549068624591E-2    4.055346143728492E-2
 2.898305756396023E5     6.003875365787633E-2    4.064898009225154E-2    9.406153536146210E-1   -4.111298116979891E-2    9.407867741212305E-1   -4.111400130366642E-2    5.998965043078630E-2    4.064311158753195E-2
 2.920419431225354E5     6.024556900628984E-2    4.073600528299156E-2    9.404302103691263E-1   -4.120720099978533E-2    9.405743174993543E-1   -4.119317459775438E-2    6.016389568952801E-2    4.073175526036624E-2
 2.942701830356239E5     6.044682858030814E-2    4.082078469722496E-2    9.402796305267546E-1   -4.130081476677960E-2    9.403920965952250E-1   -4.127725828900405E-2    6.036082729486307E-2    4.081393288079126E-2
 2.965154241131938E5     6.062812663351175E-2    4.090648127528513E-2    9.400433668521856E-1   -4.138523111140979E-2    9.401679621288971E-1   -4.136493560293215E-2    6.054916899538335E-2    4.090422321594019E-2
 2.987777960717941E5     6.082328096606567E-2    4.099479459248886E-2    9.398703722034962E-1   -4.147489936722060E-2    9.399719306932339E-1   -4.146065658986450E-2    6.073699686274836E-2    4.098448637645410E-2
 3.010574296176943E5     6.103503055349833E-2    4.108130900584038E-2    9.396799024978160E-1   -4.155974980080094E-2    9.397748700345911E-1   -4.154973182804816E-2    6.092837046511132E-2    4.107724592122330E-2
 3.033544564544337E5     6.122829159989822E-2    4.116438059066177E-2    9.394905642335263E-1   -4.164848543614724E-2    9.396187438214259E-1   -4.162938826505028E-2    6.113631319148711E-2    4.115805673547095E-2
 3.056690092904338E5     6.143188785740671E-2    4.124961837198633E-2    9.393033381827952E-1   -4.173873771542807E-2    9.394390900246571E-1   -4.172070761597913E-2    6.133799187139915E-2    4.124394020997556E-2
 3.080012218466610E5     6.163229681930826E-2    4.134779165480904E-2    9.390988212948644E-1   -4.182623352379637E-2    9.392274097449802E-1   -4.180596163252828E-2    6.153191387673954E-2    4.132789881993899E-2
 3.103512288643551E5     6.182878758761610E-2    4.142457410314650E-2    9.388928880455955E-1   -4.191280008189263E-2    9.390132671425580E-1   -4.190652591286895E-2    6.174582664909654E-2    4.141333374258335E-2
 3.127191661128128E5     6.201917105264758E-2    4.150694738128421E-2    9.386731803580936E-1   -4.201451111337064E-2    9.388331754900584E-1   -4.198968291345243E-2    6.194148642513396E-2    4.149955707259316E-2
 3.151051703972316E5     6.223099076980163E-2    4.159583754904335E-2    9.385163505178116E-1   -4.208887014804988E-2    9.386085859960117E-1   -4.207592326347147E-2    6.214372621885726E-2    4.158560457174153E-2
 3.175093795666154E5     6.243885532406236E-2    4.166911664184546E-2    9.383036819010838E-1   -4.219471358827934E-2    9.384133041910633E-1   -4.217440104439520E-2    6.234118042220201E-2    4.167177595848513E-2
 3.199319325217355E5     6.263229274058225E-2    4.175427761997796E-2    9.381051419444267E-1   -4.227664684354208E-2    9.381810478222626E-1   -4.226333960749708E-2    6.253940679171316E-2    4.175412267863672E-2
 3.223729692231574E5     6.284063580342435E-2    4.184641990706701E-2    9.378920466979486E-1   -4.236155916513359E-2    9.379841341129567E-1   -4.234892895391613E-2    6.273805018541705E-2    4.183320821033590E-2
 3.248326306993267E5     6.304917205640066E-2    4.192632404643861E-2    9.376920074850782E-1   -4.246092224399810E-2    9.378024892219315E-1   -4.243972888092835E-2    6.293621865585290E-2    4.192459812174377E-2
 3.273110590547157E5     6.324217155917217E-2    4.200852071352974E-2    9.374793682431469E-1   -4.255108169876495E-2    9.376238723757384E-1   -4.252962087636484E-2    6.314246087554981E-2    4.200987127979158E-2
 3.298083974780366E5     6.344892415112063E-2    4.210041524023620E-2    9.372708416198804E-1   -4.263189748434867E-2    9.374291645833971E-1   -4.260703749740315E-2    6.335064501750233E-2    4.209215822033446E-2
 3.323247902505097E5     6.365028341222000E-2    4.218102138321344E-2    9.370696631227723E-1   -4.272785373889525E-2    9.372372636533989E-1   -4.269822417477777E-2    6.355626012127145E-2    4.217929777027648E-2
 3.348603827542018E5     6.384481126930394E-2    4.226314890028514E-2    9.368915112534962E-1   -4.280631294136205E-2    9.370191560355856E-1   -4.278885655370489E-2    6.376363292828503E-2    4.226017276959108E-2
 3.374153214804250E5     6.405095429407301E-2    4.234727665455038E-2    9.367024852075467E-1   -4.290391925516673E-2    9.368233050842135E-1   -4.288485430498674E-2    6.397695697655718E-2    4.235008211274572E-2
 3.399897540381991E5     6.425539234754414E-2    4.242997750631972E-2    9.364850946708532E-1   -4.299062273888817E-2    9.366162313133670E-1   -4.296502258303538E-2    6.418445477085377E-2    4.242713175479255E-2
 3.425838291627830E5     6.445199051575339E-2    4.251532252554823E-2    9.362867799308866E-1   -4.307865274850049E-2    9.364003166752118E-1   -4.305885858204764E-2    6.438994473420168E-2    4.251263183144387E-2
 3.451976967242625E5     6.466008027489939E-2    4.260006202916248E-2    9.360764447922317E-1   -4.316597282198073E-2    9.362179004945865E-1   -4.314162905588736E-2    6.460351287139889E-2    4.260168824531042E-2
 3.478315077362126E5     6.488029809014240E-2    4.268271520419990E-2    9.358787921762900E-1   -4.325648873443180E-2    9.360026162866245E-1   -4.322456367852610E-2    6.481885867488696E-2    4.269046474773961E-2
 3.504854143644205E5     6.508239508300399E-2    4.277068682863874E-2    9.356753594791156E-1   -4.334470476458000E-2    9.357538777485103E-1   -4.331725860092981E-2    6.500409505823088E-2    4.276484492252432E-2
 3.531595699356794E5     6.528722907529397E-2    4.285294348782442E-2    9.354866598920208E-1   -4.343248608688210E-2    9.355709220624613E-1   -4.341193459344463E-2    6.522899395111845E-2    4.285367636325133E-2
 3.558541289466428E5     6.549357346738147E-2    4.293600059349308E-2    9.352609089360251E-1   -4.352610709217832E-2    9.353472359743270E-1   -4.350460348864262E-2    6.541935138603534E-2    4.293095812633790E-2
 3.585692470727532E5     6.570594641382174E-2    4.302269736825253E-2    9.350656153578349E-1   -4.360555728021395E-2    9.351349639142000E-1   -4.359178064544827E-2    6.563455585648917E-2    4.301777796687686E-2
 3.613050811772345E5     6.592071815785934E-2    4.310425787890926E-2    9.348553593267566E-1   -4.370101748898069E-2    9.349265189526391E-1   -4.367285017416588E-2    6.584008004186412E-2    4.310764328267465E-2
 3.640617893201578E5     6.613207269798141E-2    4.319445397550604E-2    9.346365548197996E-1   -4.379753954158773E-2    9.347468601256322E-1   -4.376031200368649E-2    6.604706492498030E-2    4.319507429986603E-2
 3.668395307675686E5     6.633100925139920E-2    4.327941117332876E-2    9.344067259203801E-1   -4.387566999465972E-2    9.345395378513910E-1   -4.385679904035120E-2    6.625705259015008E-2    4.327460550700315E-2
 3.696384660006910E5     6.653957677156790E-2    4.336238231594970E-2    9.342116946669291E-1   -4.396423914808063E-2    9.343264604742704E-1   -4.394695692223070E-2    6.645743228104055E-2    4.335152161265610E-2
 3.724587567251991E5     6.674863835310973E-2    4.344969075186635E-2    9.339970553233707E-1   -4.405706727812933E-2    9.341462468414878E-1   -4.403955163518787E-2    6.667447130650700E-2    4.344406758024903E-2
 3.753005658805580E5     6.696373111554479E-2    4.352859033253501E-2    9.338178210317380E-1   -4.414917531308845E-2    9.339155458437487E-1   -4.412375210130578E-2    6.688302918348585E-2    4.352857943863062E-2
 3.781640576494411E5     6.716696748840818E-2    4.361702040434402E-2    9.336272927473723E-1   -4.423323001017148E-2    9.336992295802885E-1   -4.420918954557065E-2    6.709838593526316E-2    4.361642529929266E-2
 3.810493974672107E5     6.737480606437550E-2    4.370508287132775E-2    9.334146044643548E-1   -4.431726429176080E-2    9.335118751373405E-1   -4.430372506938318E-2    6.730549521738650E-2    4.370020231725386E-2
 3.839567520314787E5     6.758357391934167E-2    4.378080498624308E-2    9.331601400973927E-1   -4.441252873657014E-2    9.333121201433745E-1   -4.439469548437168E-2    6.754238212871473E-2    4.377645630033855E-2
 3.868862893117373E5     6.778818604674153E-2    4.386805532547243E-2    9.329773210357390E-1   -4.449811709475170E-2    9.331042828520499E-1   -4.447885493954909E-2    6.773869691351396E-2    4.386564374488290E-2
 3.898381785590618E5     6.801707225183276E-2    4.395769371248005E-2    9.327609138225489E-1   -4.459821983044318E-2    9.329055437821512E-1   -4.456987200059085E-2    6.796407430729955E-2    4.394940584097935E-2
 3.928125903158922E5     6.822735912953563E-2    4.403798614749282E-2    9.325647329767697E-1   -4.469449627932132E-2    9.326867495424509E-1   -4.466583896709553E-2    6.817767713305645E-2    4.403144614295865E-2
 3.958096964258819E5     6.842912750915690E-2    4.412562666078154E-2    9.323077950486750E-1   -4.477624318123868E-2    9.324641533908231E-1   -4.475235665523637E-2    6.837857391440921E-2    4.411113797899979E-2
 3.988296700438284E5     6.865086089667766E-2    4.421287901210370E-2    9.321194016107894E-1   -4.486623587009842E-2    9.322708181756451E-1   -4.484698562497125E-2    6.859942118423300E-2    4.419410809354961E-2
 4.018726856456762E5     6.887271491058462E-2    4.430411220487804E-2    9.319304417541650E-1   -4.494276995040185E-2    9.320512971168896E-1   -4.492994566648126E-2    6.881604272457928E-2    4.428215641347594E-2
 4.049389190385970E5     6.909673339699239E-2    4.438350102800838E-2    9.317392540448941E-1   -4.504696923584083E-2    9.318293104768709E-1   -4.501526317617927E-2    6.902714093623372E-2    4.437323763749650E-2
 4.080285473711492E5     6.929151020017206E-2    4.446329883216814E-2    9.314845375139997E-1   -4.513399343449334E-2    9.316017981287322E-1   -4.510653727270154E-2    6.923917714688158E-2    4.445494584296145E-2
 4.111417491435081E5     6.950293096588650E-2    4.455729857018684E-2    9.312577604079770E-1   -4.522965162864542E-2    9.313719707277650E-1   -4.520650337433646E-2    6.945188579831477E-2    4.454293064539457E-2
 4.142787042177814E5     6.972645780797360E-2    4.463960328996627E-2    9.310800109104992E-1   -4.532375560892964E-2    9.311752375318595E-1   -4.529269140218981E-2    6.967583021811156E-2    4.462050555418794E-2
 4.174395938283992E5     6.995076522959570E-2    4.472641474176267E-2    9.308499158110891E-1   -4.540618434508155E-2    9.309797024601132E-1   -4.538329737819975E-2    6.990524465986436E-2    4.470746315437097E-2
 4.206246005925882E5     7.017178230053288E-2    4.480750740054758E-2    9.306461967928822E-1   -4.550328619252289E-2    9.307838834943152E-1   -4.547922373588971E-2    7.012792745813062E-2    4.479058388512270E-2
 4.238339085209167E5     7.037680937950935E-2    4.489584496300136E-2    9.304090863176038E-1   -4.560374394384575E-2    9.305361725857338E-1   -4.557630088918805E-2    7.033178091631022E-2    4.487837812437844E-2
 4.270677030279291E5     7.060316926489521E-2    4.497769487944564E-2    9.302075937909502E-1   -4.568898253038275E-2    9.303288649075587E-1   -4.567071302852110E-2    7.053815599310059E-2    4.496004736736705E-2
 4.303261709428567E5     7.082250309981930E-2    4.506487377445540E-2    9.299688578452771E-1   -4.578167099388092E-2    9.301156810874237E-1   -4.576315282295474E-2    7.076938293003489E-2    4.504231555000366E-2
 4.336095005204146E5     7.105870439721197E-2    4.515184423532865E-2    9.297699389195374E-1   -4.587886568137371E-2    9.299144368022040E-1   -4.585896125372955E-2    7.100178181694956E-2    4.513326438062336E-2
 4.369178814516730E5     7.126977618127472E-2    4.523901994470082E-2    9.295208907326069E-1   -4.596261732660377E-2    9.296842854601902E-1   -4.594637149580919E-2    7.121950018960617E-2    4.521327903305501E-2
 4.402515048750198E5     7.149230924137386E-2    4.532322106191808E-2    9.293115770137805E-1   -4.605824606517801E-2    9.294451181013788E-1   -4.603327301228702E-2    7.144283003668560E-2    4.529621654035842E-2
 4.436105633872023E5     7.172438986780749E-2    4.541255147739100E-2    9.291213998286471E-1   -4.615258565878776E-2    9.292467409284059E-1   -4.612287176337054E-2    7.166182407104557E-2    4.538361858947661E-2
 4.469952510544541E5     7.194249879413318E-2    4.548860682665611E-2    9.288864590232443E-1   -4.624096374278886E-2    9.290376015316568E-1   -4.622072647196931E-2    7.188345304978748E-2    4.547269526949404E-2
 4.504057634237097E5     7.217728151857908E-2    4.557514191877408E-2    9.286534745341969E-1   -4.634138924960114E-2    9.288028291145211E-1   -4.631480039242677E-2    7.209993161496350E-2    4.555429801459580E-2
 4.538422975338975E5     7.239512822016282E-2    4.566555848337601E-2    9.284097132929982E-1   -4.642054420850193E-2    9.285902609271647E-1   -4.640932545866250E-2    7.232377145625128E-2    4.563802281849227E-2
 4.573050519273265E5     7.261939826006411E-2    4.575515636921048E-2    9.282244608518072E-1   -4.651830951582537E-2    9.283683707110829E-1   -4.650149744529627E-2    7.255517807412575E-2    4.572408710155464E-2
 4.607942266611566E5     7.284247992548011E-2    4.583696009819545E-2    9.279940714008802E-1   -4.661089630717537E-2    9.281537519824188E-1   -4.659356574555518E-2    7.278516283903509E-2    4.580824488009490E-2
 4.643100233189550E5     7.308402958751874E-2    4.592039820156169E-2    9.278227367143775E-1   -4.671294558519801E-2    9.278940541355847E-1   -4.668470658927713E-2    7.299951823056511E-2    4.589234267386439E-2
 4.678526450223470E5     7.331536448764893E-2    4.600314064957702E-2    9.275869366601508E-1   -4.680657562747820E-2    9.277027710511866E-1   -4.678736620593323E-2    7.324134971775417E-2    4.597502150845097E-2
 4.714222964427450E5     7.354534455932957E-2    4.608623840667492E-2    9.273441197432842E-1   -4.689747444280110E-2    9.274564889732392E-1   -4.687318241035143E-2    7.346080587722686E-2    4.606015766145306E-2
 4.750191838131770E5     7.376320431673268E-2    4.616649685090769E-2    9.271045745845496E-1   -4.698995081138016E-2    9.272406934443010E-1   -4.696004509595836E-2    7.368272802660952E-2    4.614621407898303E-2
 4.786435149402010E5     7.398084159130440E-2    4.625531333656697E-2    9.268934002466040E-1   -4.707809585757537E-2    9.270185503857865E-1   -4.705514977147694E-2    7.392263034197431E-2    4.623170889300218E-2
 4.822954992159092E5     7.422075166338479E-2    4.634250207003941E-2    9.266503113855918E-1   -4.716326255128006E-2    9.267936547471795E-1   -4.715055419283574E-2    7.414702695453286E-2    4.630977853660138E-2
 4.859753476300298E5     7.444746854175918E-2    4.642508930354311E-2    9.264307038942131E-1   -4.726383242328278E-2    9.265525689965632E-1   -4.723974122873840E-2    7.436256997352789E-2    4.638835273654687E-2
 4.896832727821107E5     7.467536593429140E-2    4.650655405412703E-2    9.262297005835735E-1   -4.736582873214421E-2    9.263107553587538E-1   -4.733930825652089E-2    7.460113968473805E-2    4.647185439795883E-2
 4.934194888938060E5     7.491784901860868E-2    4.658301533052141E-2    9.259763400484082E-1   -4.744969539004443E-2    9.260836990016745E-1   -4.742562610009201E-2    7.483732585829302E-2    4.655885750469507E-2
 4.971842118212518E5     7.514348035440463E-2    4.667153465335885E-2    9.257666607538896E-1   -4.753596931891312E-2    9.258613722800325E-1   -4.751225686059773E-2    7.506952923179067E-2    4.664292745413737E-2
 5.009776590675358E5     7.537363811622574E-2    4.675141265086794E-2    9.255310158225317E-1   -4.763730151853383E-2    9.256003681394953E-1   -4.759560132809250E-2    7.529570285863019E-2    4.671944971225071E-2
 5.048000497952673E5     7.560492002374225E-2    4.682832249562738E-2    9.252741276580928E-1   -4.772055325731114E-2    9.254045127957222E-1   -4.770060112982382E-2    7.554428374999289E-2    4.680185182460372E-2
 5.086516048392332E5     7.585378151789103E-2    4.691768104070947E-2    9.250716600833113E-1   -4.781535867396663E-2    9.251573665125852E-1   -4.778144011330113E-2    7.576119657781878E-2    4.688444374890303E-2
 5.125325467191607E5     7.608209136709475E-2    4.699024841631997E-2    9.248384815429821E-1   -4.790567751419915E-2    9.249371222914541E-1   -4.787201878585051E-2    7.600363005803044E-2    4.697432530543230E-2
 5.164430996525706E5     7.632312264992953E-2    4.707227418513446E-2    9.245662903773439E-1   -4.799736020363948E-2    9.246826187584437E-1   -4.795629175739692E-2    7.623830325460589E-2    4.704612997905875E-2
 5.203834895677360E5     7.655855883117668E-2    4.715257711254919E-2    9.243994256043417E-1   -4.809810025117756E-2    9.244800262556565E-1   -4.805555040389768E-2    7.646705110528977E-2    4.712946816524695E-2
 5.243539441167285E5     7.676524142079440E-2    4.723179045280202E-2    9.241347585965948E-1   -4.817737839694586E-2    9.242274416266548E-1   -4.815375026115745E-2    7.670255073105700E-2    4.721393778591836E-2
 5.283546926885745E5     7.701321888126769E-2    4.731197139747099E-2    9.239204556455114E-1   -4.829021821017460E-2    9.239945902522235E-1   -4.822979606416075E-2    7.694138163412785E-2    4.729385011630980E-2
 5.323859664225065E5     7.724061147882545E-2    4.738910917482501E-2    9.236424432153635E-1   -4.835955928838299E-2    9.237524313674831E-1   -4.831736694118199E-2    7.716048432380480E-2    4.736941985123323E-2
 5.364479982213206E5     7.747743781761196E-2    4.747015376401385E-2    9.234124363933522E-1   -4.845222463589616E-2    9.234957004903029E-1   -4.841393429730243E-2    7.740384012781223E-2    4.744417339312524E-2
 5.405410227648258E5     7.773523088692071E-2    4.755044774842394E-2    9.231910662476697E-1   -4.854156870070177E-2    9.232790949407775E-1   -4.849229072084531E-2    7.765121882677170E-2    4.752521820522748E-2
 5.446652765234077E5     7.797407623522166E-2    4.762327039385344E-2    9.229651513888134E-1   -4.862513498013650E-2    9.230281999964252E-1   -4.857934991371929E-2    7.789237101535565E-2    4.760902243393066E-2
 5.488209977716873E5     7.821189003296021E-2    4.770813962808162E-2    9.227196726444162E-1   -4.871620103185740E-2    9.228170471813939E-1   -4.867356543318296E-2    7.812318797352942E-2    4.768730337226656E-2
 5.530084266022880E5     7.846112906661058E-2    4.777487787345722E-2    9.224746245479519E-1   -4.880786649511968E-2    9.226036280565438E-1   -4.876562452348657E-2    7.836790049203184E-2    4.776424445099828E-2
 5.572278049397101E5     7.870146928645533E-2    4.786163643072254E-2    9.222628800153240E-1   -4.888619631435983E-2    9.223794220183575E-1   -4.885968580199259E-2    7.861034194119935E-2    4.784578762067646E-2
 5.614793765543010E5     7.892654703183168E-2    4.793077433693610E-2    9.220052776720928E-1   -4.897724535196944E-2    9.221729592289089E-1   -4.895336028953461E-2    7.886267744878167E-2    4.791701787792260E-2
 5.657633870763436E5     7.916466263454239E-2    4.800839722214022E-2    9.217480421667835E-1   -4.906216210892496E-2    9.219278950841836E-1   -4.904365892559844E-2    7.908646969878141E-2    4.798946751430130E-2
 5.700800840102463E5     7.938955707848459E-2    4.808833131129835E-2    9.214985679089037E-1   -4.914762529541891E-2    9.216396529832922E-1   -4.911585425882545E-2    7.932053157157425E-2    4.806570818868913E-2
 5.744297167488408E5     7.964883676036638E-2    4.816664100348488E-2    9.212926048140401E-1   -4.923270888737874E-2    9.214272089030968E-1   -4.920357643020928E-2    7.956192759613022E-2    4.814905051718101E-2
 5.788125365877954E5     7.989890153754488E-2    4.823394487354540E-2    9.210668901916963E-1   -4.933255818999978E-2    9.211699213333634E-1   -4.929291486726908E-2    7.980688054478806E-2    4.822242377188170E-2
 5.832287967401261E5     8.011934891608308E-2    4.830908024280422E-2    9.208387178832936E-1   -4.942611770088742E-2    9.209402808905844E-1   -4.936531996287510E-2    8.005114618711814E-2    4.829881658083682E-2
 5.876787523508312E5     8.037069615520059E-2    4.838091242920592E-2    9.205649402845614E-1   -4.950038800595376E-2    9.206985690548992E-1   -4.946532981407675E-2    8.027323703658849E-2    4.836899502746390E-2
 5.921626605116295E5     8.061107955016947E-2    4.845696315199315E-2    9.203656537292034E-1   -4.959068327265029E-2    9.204867198749407E-1   -4.955689237331676E-2    8.052129976272708E-2    4.844768481838625E-2
 5.966807802758140E5     8.085765076334051E-2    4.852863047767044E-2    9.201396453687058E-1   -4.969056036198388E-2    9.202234940514588E-1   -4.962558253416348E-2    8.076208853797649E-2    4.851693780133398E-2
 6.012333726732214E5     8.109977360068422E-2    4.860342040595498E-2    9.199091099988451E-1   -4.976857967766928E-2    9.200137582394342E-1   -4.973264218779369E-2    8.098993113820274E-2    4.859458446737337E-2
 6.058207007253073E5     8.133025812691871E-2    4.868201197495853E-2    9.196075767020464E-1   -4.984098320360979E-2    9.197223940759736E-1   -4.979261856269358E-2    8.122467864692523E-2    4.867028314093098E-2
 6.104430294603459E5     8.156761142000278E-2    4.875848507468108E-2    9.193783759339881E-1   -4.992136980369961E-2    9.195078011387294E-1   -4.988989767906481E-2    8.147358986718739E-2    4.873975739069576E-2
 6.151006259287392E5     8.179398807965078E-2    4.883486594880865E-2    9.191225723879938E-1   -5.000434034513814E-2    9.192598620250767E-1   -4.997559062250610E-2    8.170898467729530E-2    4.881662046728969E-2
 6.197937592184512E5     8.205001455229714E-2    4.890464840027364E-2    9.188796365535942E-1   -5.008646060430880E-2    9.190218198611950E-1   -5.006067140346784E-2    8.193974938611827E-2    4.888713818877866E-2
 6.245227004705463E5     8.229258139894313E-2    4.897127992816536E-2    9.186991923817310E-1   -5.020344434779912E-2    9.188079211710015E-1   -5.013985747889693E-2    8.220550726345779E-2    4.896298846251546E-2
 6.292877228948588E5     8.253216929633850E-2    4.904723271672880E-2    9.184681164294929E-1   -5.029182161958333E-2    9.185395045889825E-1   -5.022915502309415E-2    8.242757176271322E-2    4.903688739773986E-2
 6.340891017857760E5     8.278729496226260E-2    4.912216410590151E-2    9.182296039646464E-1   -5.037603260700964E-2    9.183013693414029E-1   -5.032284334144050E-2    8.265600064762287E-2    4.911720417688290E-2
 6.389271145381465E5     8.301837961755815E-2    4.919824426201696E-2    9.179735730403853E-1   -5.046361606535320E-2    9.180777240652068E-1   -5.040655050248379E-2    8.290394907892251E-2    4.918766994856568E-2
 6.438020406633007E5     8.325975460098710E-2    4.927083028730857E-2    9.177351732128488E-1   -5.054545161625004E-2    9.178241184420303E-1   -5.049073473858830E-2    8.313531425657304E-2    4.926780756256554E-2
 6.487141618052023E5     8.349522682194246E-2    4.934473444069047E-2    9.174848724331371E-1   -5.061779583954484E-2    9.175946911069444E-1   -5.058322879078975E-2    8.338728615127984E-2    4.933799150562187E-2
 6.536637617567203E5     8.371953239975392E-2    4.942141333399622E-2    9.172295914181472E-1   -5.071205010422013E-2    9.173540362749705E-1   -5.066808390986323E-2    8.361832768297228E-2    4.941815097562033E-2
 6.586511264760230E5     8.395719590120318E-2    4.949683083725317E-2    9.169889801025549E-1   -5.080453870770319E-2    9.170882436142272E-1   -5.073510855782162E-2    8.385806158655686E-2    4.949772600530147E-2
 6.636765441031042E5     8.421010958293815E-2    4.957038760694851E-2    9.167710155865088E-1   -5.088770761987548E-2    9.168440323081731E-1   -5.081958663928349E-2    8.410772353256547E-2    4.956679305629494E-2
 6.687403049764220E5     8.444990161379108E-2    4.964139782239028E-2    9.165021009411227E-1   -5.097175506215480E-2    9.166140109507493E-1   -5.092260149410298E-2    8.434501928644525E-2    4.963842587127077E-2
 6.738427016496789E5     8.468770751558054E-2    4.972744255908052E-2    9.162621602003757E-1   -5.104984281320720E-2    9.163843073383794E-1   -5.101586177837429E-2    8.457706544435513E-2    4.971964921519718E-2
 6.789840289087215E5     8.493341349491751E-2    4.980038555771443E-2    9.159713941165302E-1   -5.112047461736650E-2    9.161515283031313E-1   -5.110059928759209E-2    8.483290474891628E-2    4.979383419402882E-2
 6.841645837885707E5     8.517997385648010E-2    4.987436591247529E-2    9.157465698534843E-1   -5.122436083432388E-2    9.159091470037718E-1   -5.119032289261039E-2    8.508215351032665E-2    4.987874415997510E-2
 6.893846655905881E5     8.542044464015897E-2    4.995099249824115E-2    9.155159336418501E-1   -5.131644418352224E-2    9.157101039866644E-1   -5.130892662915725E-2    8.533339294529620E-2    4.995390282419009E-2
 6.946445758997592E5     8.565728315586998E-2    5.002899618550673E-2    9.152914851916115E-1   -5.142004391692034E-2    9.153934363688160E-1   -5.135316135919041E-2    8.555802100173356E-2    5.002549923230568E-2
 6.999446186021230E5     8.591198550370338E-2    5.010358665596996E-2    9.150233707591694E-1   -5.148939670510543E-2    9.151701885821980E-1   -5.145886501421346E-2    8.580830372630568E-2    5.010652161845080E-2
 7.052850999023273E5     8.615716469640522E-2    5.019062336526856E-2    9.147817997934653E-1   -5.158816442286283E-2    9.149278407249006E-1   -5.154261065104056E-2    8.604787782831531E-2    5.018114403201366E-2
 7.106663283413178E5     8.637895637800780E-2    5.026553553644428E-2    9.145468135932403E-1   -5.169230700635881E-2    9.146922169247585E-1   -5.163244128158538E-2    8.630477704204398E-2    5.025789962203109E-2
 7.160886148141696E5     8.661762970100496E-2    5.034009197033277E-2    9.142728923230118E-1   -5.177962074873750E-2    9.144724430545856E-1   -5.174840726731778E-2    8.654684453517768E-2    5.033752405603888E-2
 7.215522725880400E5     8.686736522515791E-2    5.041953539944165E-2    9.140590956010977E-1   -5.189174865934379E-2    9.141955812969231E-1   -5.181318644318868E-2    8.678297039089317E-2    5.041556563104586E-2
 7.270576173202734E5     8.712754468037882E-2    5.049734445670465E-2    9.137967867185232E-1   -5.197306928413746E-2    9.139975305226501E-1   -5.193899604702661E-2    8.703336370593415E-2    5.049794800958804E-2
 7.326049670766364E5     8.737871767074613E-2    5.056679201298171E-2    9.135584832548590E-1   -5.206912361852213E-2    9.137402717367620E-1   -5.202834543246102E-2    8.727769950100502E-2    5.057111333384577E-2
 7.381946423496918E5     8.760929568642492E-2    5.065638536023563E-2    9.133263645972400E-1   -5.218082692108537E-2    9.134954443134875E-1   -5.213677918594461E-2    8.753556753593028E-2    5.064918481518720E-2
 7.438269660773217E5     8.787155569221768E-2    5.073160917170880E-2    9.130869079946882E-1   -5.227189801571321E-2    9.132464807295378E-1   -5.223121278859884E-2    8.778115665039805E-2    5.073646160308440E-2
 7.495022636613748E5     8.812143358692390E-2    5.081419570871083E-2    9.128357095038352E-1   -5.237540224567349E-2    9.129496232073284E-1   -5.229509548482528E-2    8.800852763066566E-2    5.081259605637074E-2
 7.552208629864733E5     8.837057782997887E-2    5.089070689740300E-2    9.125754750767365E-1   -5.245885337539605E-2    9.126992748148969E-1   -5.236231193264674E-2    8.827903659537865E-2    5.089864844563677E-2
 7.609830944389519E5     8.862612170879142E-2    5.097531767444234E-2    9.123318098731775E-1   -5.254810104898689E-2    9.124536832473688E-1   -5.247070241156754E-2    8.851869934796674E-2    5.097548393307457E-2
 7.667892909259528E5     8.886856653472003E-2    5.105446706363617E-2    9.120759992047135E-1   -5.264583548070106E-2    9.122254805386109E-1   -5.258248535916114E-2    8.876984085018509E-2    5.105181910871461E-2
 7.726397878946491E5     8.913101741257601E-2    5.113448537414139E-2    9.118208529888585E-1   -5.273393098918631E-2    9.119529617453572E-1   -5.266951696634776E-2    8.902332973588017E-2    5.113646251613623E-2
 7.785349233516312E5     8.938395726205924E-2    5.121672993805664E-2    9.115508735282334E-1   -5.283027697230101E-2    9.116901672875568E-1   -5.273386220274355E-2    8.928012713180884E-2    5.121853417894050E-2
 7.844750378824320E5     8.963614768180556E-2    5.129384946953632E-2    9.112977090888558E-1   -5.291301495040480E-2    9.114305120282828E-1   -5.285291745293375E-2    8.952704500412104E-2    5.130117343575993E-2
 7.904604746712097E5     8.989796473967940E-2    5.137239816970927E-2    9.110632362014315E-1   -5.302670582882826E-2    9.112273422714163E-1   -5.297876461877055E-2    8.978784070686940E-2    5.138093629751776E-2
 7.964915795205662E5     9.014650641984538E-2    5.144312766783120E-2    9.107918273692032E-1   -5.310926575002348E-2    9.109727915948925E-1   -5.305280193060029E-2    9.005029986230539E-2    5.145469121259595E-2
 8.025687008715309E5     9.039846799157167E-2    5.152525104237184E-2    9.105209161963352E-1   -5.321450834703390E-2    9.107212415242514E-1   -5.314846603386379E-2    9.031644083020936E-2    5.153119999852786E-2
 8.086921898236905E5     9.066346348014492E-2    5.160281702169451E-2    9.102784822806622E-1   -5.331649917955544E-2    9.104410035374825E-1   -5.323679048621839E-2    9.057112017791977E-2    5.161493181691568E-2
 8.148624001554718E5     9.091562510360843E-2    5.168283391247905E-2    9.099936571213042E-1   -5.338039636508347E-2    9.101647473274435E-1   -5.330633267251009E-2    9.083010512131570E-2    5.169684196641178E-2
 8.210796883445872E5     9.116778567929312E-2    5.175865310599018E-2    9.097125115484506E-1   -5.346193203053230E-2    9.099208858817770E-1   -5.344408569980879E-2    9.108210588928792E-2    5.176760825544423E-2
 8.273444135886204E5     9.144225115699650E-2    5.183710853980494E-2    9.094795152596253E-1   -5.358699410964474E-2    9.096608796396979E-1   -5.352243718250814E-2    9.133686992811728E-2    5.185136653199785E-2
 8.336569378257846E5     9.169477187464301E-2    5.191155213589833E-2    9.092202581051392E-1   -5.369055641831637E-2    9.094017440848076E-1   -5.361976859663685E-2    9.160897159480819E-2    5.192858648245316E-2
 8.400176257558319E5     9.196759334853997E-2    5.198713273395729E-2    9.089482804711846E-1   -5.374370671874873E-2    9.091600549534070E-1   -5.372244116240116E-2    9.187918899157155E-2    5.200962703014540E-2
 8.464268448611222E5     9.221997927740265E-2    5.206501680879108E-2    9.086645218313388E-1   -5.381489013231162E-2    9.088963362985084E-1   -5.380753263408305E-2    9.214567074732348E-2    5.207437497781829E-2
 8.528849654278599E5     9.248893228797250E-2    5.214705157786404E-2    9.084234949147576E-1   -5.393527807871615E-2    9.086131995252140E-1   -5.389189185496912E-2    9.238555944232060E-2    5.215635112310724E-2
 8.593923605674774E5     9.274960902404575E-2    5.221529210730672E-2    9.081584066381987E-1   -5.401587765126406E-2    9.083308024262302E-1   -5.394312314297161E-2    9.265540169860290E-2    5.222587306948603E-2
 8.659494062381978E5     9.301862438185909E-2    5.228840889922780E-2    9.078793485793895E-1   -5.411203706519716E-2    9.080814890524926E-1   -5.405956327483390E-2    9.291052347274101E-2    5.230679887907741E-2
 8.725564812667536E5     9.326684318801307E-2    5.235478505390932E-2    9.076191574610633E-1   -5.421207862128742E-2    9.078290286191945E-1   -5.414875320505197E-2    9.319518216031805E-2    5.238751792168287E-2
 8.792139673702718E5     9.354663836176284E-2    5.242870647493467E-2    9.073764492487911E-1   -5.430470115809182E-2    9.075634255708955E-1   -5.425752206727925E-2    9.344470741306320E-2    5.245977544458708E-2
 8.859222491783336E5     9.381048551836425E-2    5.250474074962493E-2    9.071079241480993E-1   -5.437537092494688E-2    9.072834360183596E-1   -5.434424342422133E-2    9.369278491160613E-2    5.252793890165790E-2
 8.926817142551860E5     9.407875678576678E-2    5.257197516704070E-2    9.068433280107719E-1   -5.447061334858909E-2    9.070431541285436E-1   -5.446197692030622E-2    9.396454637974375E-2    5.259962886402952E-2
 8.994927531221397E5     9.432034705596488E-2    5.264578142853152E-2    9.065564008797315E-1   -5.456522821570119E-2    9.067835771087942E-1   -5.454102910951833E-2    9.424795010279151E-2    5.266384613953113E-2
 9.063557592801275E5     9.460313460704554E-2    5.271437745905917E-2    9.062889036744798E-1   -5.463177853886536E-2    9.065047908142433E-1   -5.462895244231231E-2    9.449757239327385E-2    5.273542694688912E-2
 9.132711292324457E5     9.486663017883211E-2    5.277767050755316E-2    9.060348203673371E-1   -5.474724329587349E-2    9.062473521774518E-1   -5.470760753348512E-2    9.477029335671558E-2    5.280830791797522E-2
 9.202392625076511E5     9.513041937005315E-2    5.284078907798639E-2    9.057510388574413E-1   -5.482552826672978E-2    9.059699620200051E-1   -5.479358041733536E-2    9.502111161306497E-2    5.287988762591264E-2
 9.272605616826499E5     9.539276909334433E-2    5.291033600430625E-2    9.054986236915398E-1   -5.492741786616294E-2    9.057182557949955E-1   -5.489319572365219E-2    9.529588260113227E-2    5.294226545538969E-2
 9.343354324059531E5     9.565596461401334E-2    5.297650968339351E-2    9.052303248781276E-1   -5.502305585613507E-2    9.054460081193773E-1   -5.498840160579566E-2    9.556233229449780E-2    5.301229626758205E-2
 9.414642834211199E5     9.592811534689059E-2    5.304998057712422E-2    9.049653871351224E-1   -5.510047685224875E-2    9.051853805799531E-1   -5.506004192701387E-2    9.583035683066254E-2    5.308298480284909E-2
 9.486475265903610E5     9.618832132386052E-2    5.311397745387146E-2    9.046943404260400E-1   -5.519003037967359E-2    9.049105722258793E-1   -5.512531250197913E-2    9.608812454868190E-2    5.315611718013742E-2
 9.558855769183410E5     9.645229645863948E-2    5.318463759927042E-2    9.044207161182898E-1   -5.526629408457504E-2    9.046417922509570E-1   -5.522606579875037E-2    9.634599188971588E-2    5.322127990034003E-2
 9.631788525761530E5     9.672254520946386E-2    5.325052379215225E-2    9.041600123331947E-1   -5.533197385651343E-2    9.043821160614584E-1   -5.533755660615661E-2    9.660646990027746E-2    5.329871607952805E-2
 9.705277749254764E5     9.697397250365758E-2    5.331992626998821E-2    9.038754744430796E-1   -5.543657631104176E-2    9.041195984035362E-1   -5.540749470461277E-2    9.688187464430333E-2    5.336074670579429E-2
 9.779327685429282E5     9.723850793508519E-2    5.339142517652249E-2    9.036209616242944E-1   -5.552517094291132E-2    9.038380451953921E-1   -5.547648638425391E-2    9.714050772828134E-2    5.342386303958163E-2
 9.853942612445805E5     9.750365254255279E-2    5.345054176712643E-2    9.033436188719076E-1   -5.554789837092181E-2    9.035805171023256E-1   -5.557729305441426E-2    9.740744316694613E-2    5.349729552872067E-2
 9.929126841106854E5     9.776334655773458E-2    5.352290740271513E-2    9.030772509851045E-1   -5.565174814231145E-2    9.033013923408426E-1   -5.564127434312457E-2    9.767058073404464E-2    5.356342458015282E-2
 1.000488471510578E6     9.804068724844850E-2    5.358790786124729E-2    9.028235044583560E-1   -5.576130115686886E-2    9.030438767677799E-1   -5.571122121269088E-2    9.793499580012789E-2    5.363211883987642E-2
 1.008122061127771E6     9.829553374387842E-2    5.365499749491390E-2    9.025583827499837E-1   -5.585244942555923E-2    9.027595117245448E-1   -5.579387648209824E-2    9.820074907375109E-2    5.369757239065286E-2
 1.015813893985245E6     9.855915544024210E-2    5.372403229481747E-2    9.022847290215374E-1   -5.593460162835934E-2    9.025216167497003E-1   -5.591270001079332E-2    9.847373623362078E-2    5.376146707043792E-2
 1.023564414470923E6     9.882337657757503E-2    5.378552796266792E-2    9.020193232695882E-1   -5.604387713883315E-2    9.022532470567974E-1   -5.598873373738995E-2    9.873724669670753E-2    5.384056911592684E-2
 1.031374070363347E6     9.910867968512213E-2    5.385248536356352E-2    9.017803356359512E-1   -5.618018729020002E-2    9.019911890817705E-1   -5.609629845964000E-2    9.900425341362470E-2    5.390330390163160E-2
 1.039243312857548E6     9.936622619216240E-2    5.392183462392935E-2    9.015169603402846E-1   -5.625476011296407E-2    9.017147411591026E-1   -5.619142894607332E-2    9.925207955807196E-2    5.397209712244017E-2
 1.047172596591111E6     9.962643129536472E-2    5.399123098272327E-2    9.012524289861295E-1   -5.632471509431893E-2    9.014347650660337E-1   -5.625570540420924E-2    9.950466400595405E-2    5.403978232642251E-2
 1.055162379670449E6     9.988628426134125E-2    5.405714488708909E-2    9.009621387504596E-1   -5.639604062290103E-2    9.011864315000750E-1   -5.634617213582108E-2    9.978658025317350E-2    5.410937880939497E-2
 1.063213123697260E6     1.001444511875699E-1    5.413895720983309E-2    9.006955442871687E-1   -5.650428159102590E-2    9.009276020465490E-1   -5.646806353456240E-2    1.000572942404898E-1    5.418118458759709E-2
 1.071325293795198E6     1.004147438674115E-1    5.420230506349111E-2    9.004294828851387E-1   -5.656405987029556E-2    9.006659911072905E-1   -5.652691877997081E-2    1.003320280021192E-1    5.425598516387891E-2
 1.079499358636750E6     1.006977010192538E-1    5.427449482694429E-2    9.001852179541238E-1   -5.667268403416084E-2    9.003862475916111E-1   -5.663705531227835E-2    1.005783666370598E-1    5.432479603670534E-2
 1.087735790470306E6     1.009430326309022E-1    5.434741385571677E-2    8.998872792312320E-1   -5.675764729630513E-2    9.001252594399145E-1   -5.672300461998594E-2    1.008518557655408E-1    5.439994695068000E-2
 1.096035065147453E6     1.011983361952449E-1    5.441343746180583E-2    8.995956936590996E-1   -5.684701289250614E-2    8.998452785756732E-1   -5.680678900148398E-2    1.011218555720131E-1    5.446784965388984E-2
 1.104397662150453E6     1.014632090251526E-1    5.448241756413658E-2    8.993373530106711E-1   -5.691196657486764E-2    8.995700358545765E-1   -5.691641232709366E-2    1.013807778250829E-1    5.453655105788479E-2
 1.112824064619953E6     1.017415013956968E-1    5.456016477012598E-2    8.990705223694829E-1   -5.697573833843948E-2    8.993045376938186E-1   -5.699959637477622E-2    1.016548159031637E-1    5.461049690741684E-2
 1.121314759382903E6     1.020220142354376E-1    5.463255176368152E-2    8.988126860027748E-1   -5.709184987360830E-2    8.990384203182437E-1   -5.708570299648610E-2    1.019149024881890E-1    5.468686337226919E-2
 1.129870236980669E6     1.022799626277441E-1    5.470654480623172E-2    8.985295279983250E-1   -5.719252506248855E-2    8.987482198084127E-1   -5.717361298086510E-2    1.021783335095711E-1    5.475755770449613E-2
 1.138490991697383E6     1.025694609190384E-1    5.477755176145996E-2    8.982782119443895E-1   -5.728262959959291E-2    8.984742430311301E-1   -5.726624057097872E-2    1.024528195815878E-1    5.483323953553157E-2
 1.147177521588496E6     1.028338507345304E-1    5.484854334725309E-2    8.979953419539379E-1   -5.733386147008601E-2    8.982083446296028E-1   -5.735842516704306E-2    1.027360357726310E-1    5.490282920887901E-2
 1.155930328509552E6     1.031033199710938E-1    5.493465536945131E-2    8.977231077204550E-1   -5.742671799448890E-2    8.979247742533176E-1   -5.746015910713865E-2    1.029919832821492E-1    5.497593257926343E-2
 1.164749918145190E6     1.033781394709692E-1    5.500185737566774E-2    8.974420138976495E-1   -5.753809951135788E-2    8.976727206672541E-1   -5.755800768600799E-2    1.032899676343117E-1    5.505047668556512E-2
 1.173636800038349E6     1.036240254914483E-1    5.506753664391225E-2    8.971393389856422E-1   -5.766371813925385E-2    8.973921331292397E-1   -5.765648016273246E-2    1.035563676225446E-1    5.512444229824439E-2
 1.182591487619709E6     1.038967070984151E-1    5.514287062824887E-2    8.968578314132705E-1   -5.776557743185504E-2    8.970944784025409E-1   -5.774321534980195E-2    1.038244686286118E-1    5.520110990477096E-2
 1.191614498237359E6     1.041938028903464E-1    5.522269156712563E-2    8.965912481156820E-1   -5.783810762326079E-2    8.968201592982701E-1   -5.783723684096236E-2    1.041042699608351E-1    5.527046574638275E-2
 1.200706353186678E6     1.044624054198407E-1    5.528710676149699E-2    8.963028499913909E-1   -5.791192147987658E-2    8.965413673829611E-1   -5.790866015433216E-2    1.043837272537645E-1    5.534850775915326E-2
 1.209867577740467E6     1.047482107533027E-1    5.535967106996963E-2    8.960268476991294E-1   -5.803750981159585E-2    8.962722757089704E-1   -5.800330305088953E-2    1.046681003672938E-1    5.542117870894047E-2
 1.219098701179276E6     1.050219233494613E-1    5.542703304677174E-2    8.957350086560941E-1   -5.809788726811407E-2    8.959631566081985E-1   -5.812705477478828E-2    1.049344961373786E-1    5.549515751371063E-2
 1.228400256821998E6     1.052966225638059E-1    5.549981662040793E-2    8.954635590149219E-1   -5.817227354475153E-2    8.956849758093165E-1   -5.819559983804927E-2    1.052244893700268E-1    5.556327498560543E-2
 1.237772782056674E6     1.055854109185094E-1    5.556931341722413E-2    8.951649992496331E-1   -5.825794773943699E-2    8.954080807263987E-1   -5.830603753938529E-2    1.055019246313590E-1    5.563082123478411E-2
 1.247216818371540E6     1.058636740112478E-1    5.564261962986011E-2    8.948772124831345E-1   -5.835594655693315E-2    8.951350059452285E-1   -5.837105600022923E-2    1.057942132857115E-1    5.570436785865150E-2
 1.256732911386322E6     1.061439937644288E-1    5.571091115335923E-2    8.946009673906078E-1   -5.843942829642419E-2    8.948584780298949E-1   -5.845408280294399E-2    1.060805822527071E-1    5.577624048980243E-2
 1.266321610883739E6     1.064300707139522E-1    5.577860486723531E-2    8.943150124573187E-1   -5.854346647614815E-2    8.945731959099525E-1   -5.855723032661327E-2    1.063678176727154E-1    5.584544640666840E-2
 1.275983470841281E6     1.067168179208581E-1    5.584900735145536E-2    8.940313036718590E-1   -5.863171251565734E-2    8.942677210623432E-1   -5.866524662157336E-2    1.066489342011803E-1    5.591149580555483E-2
 1.285719049463211E6     1.070030945445634E-1    5.590841990894883E-2    8.937488577658055E-1   -5.871971615371291E-2    8.939714267655623E-1   -5.875167869455419E-2    1.069264091287533E-1    5.597855677095191E-2
 1.295528909212810E6     1.072860971606299E-1    5.598116911351293E-2    8.934562904372750E-1   -5.881474744215192E-2    8.936855959920742E-1   -5.884912715533740E-2    1.072005348879903E-1    5.604209214239425E-2
 1.305413616844883E6     1.075808691869388E-1    5.604655880211964E-2    8.931716446433985E-1   -5.891227936667923E-2    8.933954363508341E-1   -5.891440435384302E-2    1.074897197368809E-1    5.610525952505657E-2
 1.315373743438491E6     1.078555585226511E-1    5.611169713542555E-2    8.928864861717737E-1   -5.900019555142044E-2    8.931089645601182E-1   -5.901009801919845E-2    1.077848236092348E-1    5.617904291115332E-2
 1.325409864429950E6     1.081427542399044E-1    5.617476514749765E-2    8.925995548061668E-1   -5.906913558721479E-2    8.928190335694186E-1   -5.909477633256568E-2    1.080620597054698E-1    5.623927363998345E-2
 1.335522559646084E6     1.084239715821437E-1    5.623557329481246E-2    8.922930401697535E-1   -5.918268008357867E-2    8.925470707917156E-1   -5.915639731103845E-2    1.083526799654731E-1    5.630393547783069E-2
 1.345712413337699E6     1.087190423649622E-1    5.629830355341849E-2    8.920285505703344E-1   -5.925955854488120E-2    8.922646865501013E-1   -5.923605494089849E-2    1.086279532837805E-1    5.635761250202791E-2
 1.355980014213373E6     1.090043073568418E-1    5.636397425955952E-2    8.917467418380208E-1   -5.934288235168193E-2    8.919729361113669E-1   -5.932532395020066E-2    1.089131970846551E-1    5.641766026876798E-2
 1.366325955473440E6     1.092894180504520E-1    5.641822508786523E-2    8.914739660300796E-1   -5.938789553341552E-2    8.916744908799841E-1   -5.939951813063292E-2    1.091818681626187E-1    5.648618072828288E-2
 1.376750834844268E6     1.095758615644256E-1    5.648189168358322E-2    8.911880182822345E-1   -5.947527976129333E-2    8.913971090302550E-1   -5.949946528687328E-2    1.094749829821122E-1    5.654016119484619E-2
 1.387255254612807E6     1.098456960196280E-1    5.654191581810818E-2    8.908962243673035E-1   -5.954360976135509E-2    8.911175295754541E-1   -5.956449779180425E-2    1.097714214144634E-1    5.661052521618226E-2
 1.397839821661363E6     1.101218232900757E-1    5.660194064020101E-2    8.906151785568559E-1   -5.960629257124798E-2    8.908297502013962E-1   -5.965064745153698E-2    1.100535924837184E-1    5.667049834687569E-2
 1.408505147502673E6     1.104106363898574E-1    5.666395059806149E-2    8.903075264335323E-1   -5.974549577811499E-2    8.905354271889977E-1   -5.973306471645311E-2    1.103270879983393E-1    5.672700990719209E-2
 1.419251848315235E6     1.106830310384405E-1    5.671574635094660E-2    8.900223843649386E-1   -5.981560223663120E-2    8.902464580937355E-1   -5.981649820313491E-2    1.106036277122129E-1    5.678110507530534E-2
 1.430080544978898E6     1.109755142612072E-1    5.678479045132968E-2    8.897582383452520E-1   -5.986520210822587E-2    8.899792275508275E-1   -5.988436121976787E-2    1.108947950353954E-1    5.684787707159061E-2
 1.440991863110751E6     1.112615545731852E-1    5.684440560542163E-2    8.894571484563053E-1   -5.996585903679959E-2    8.896857626412693E-1   -5.999979848627399E-2    1.111890817704297E-1    5.690462744066516E-2
 1.451986433101243E6     1.115421789357437E-1    5.690290591890758E-2    8.891756739263839E-1   -6.004359519442286E-2    8.893903426055261E-1   -6.008291841776026E-2    1.114631340314604E-1    5.696630378085839E-2
 1.463064890150622E6     1.118170189687628E-1    5.695800409363603E-2    8.888623664164166E-1   -6.015569314658860E-2    8.890885260600232E-1   -6.015897085625503E-2    1.117272560269117E-1    5.701872924892849E-2
 1.474227874305625E6     1.121029503607128E-1    5.701968135434092E-2    8.886022695514435E-1   -6.021781962667579E-2    8.888210382833758E-1   -6.022503458916874E-2    1.120103347420410E-1    5.708389261798372E-2
 1.485476030496454E6     1.123977999814590E-1    5.709114701779791E-2    8.883331171712028E-1   -6.030330762959254E-2    8.885310556675657E-1   -6.031636566546696E-2    1.122998937315151E-1    5.715123734498802E-2
 1.496810008574050E6     1.126720728471143E-1    5.715363196425162E-2    8.880458923056715E-1   -6.037732160410216E-2    8.882446060660980E-1   -6.041635947817420E-2    1.125839808168840E-1    5.720212045476747E-2
 1.508230463347619E6     1.129384885345587E-1    5.720352286651526E-2    8.877472112529612E-1   -6.047883972313223E-2    8.879643315310255E-1   -6.049905825548192E-2    1.128614991354751E-1    5.727023221830644E-2
 1.519738054622472E6     1.132183962224011E-1    5.726802440217729E-2    8.874750368245902E-1   -6.055002256065369E-2    8.876800551699572E-1   -6.060607106540803E-2    1.131545979661193E-1    5.732879585268172E-2
 1.531333447238147E6     1.134954427573374E-1    5.733809018130620E-2    8.871859574717802E-1   -6.061998301616875E-2    8.874194197860534E-1   -6.067207344678015E-2    1.134495998651178E-1    5.739968542015108E-2
 1.543017311106810E6     1.137854843447383E-1    5.739374603880774E-2    8.869170449671995E-1   -6.071903858434873E-2    8.871345790092723E-1   -6.075384704109728E-2    1.137309129643502E-1    5.745225778544543E-2
 1.554790321251977E6     1.140619660489995E-1    5.745886245714100E-2    8.866142598951997E-1   -6.082098998490903E-2    8.868479902406341E-1   -6.083078693383479E-2    1.140045829863934E-1    5.753074878130385E-2
 1.566653157847488E6     1.143523631157474E-1    5.752466490346092E-2    8.863379994939941E-1   -6.090696762910075E-2    8.865516150759002E-1   -6.093848119189772E-2    1.142958928599785E-1    5.757943482987860E-2
 1.578606506256824E6     1.146246543504612E-1    5.759026634388152E-2    8.860099859502700E-1   -6.101074153638076E-2    8.862655023546456E-1   -6.101607709583938E-2    1.145751379003062E-1    5.765514910011023E-2
 1.590651057072690E6     1.149005302786041E-1    5.765799591609932E-2    8.857127166042761E-1   -6.109027720726627E-2    8.859695279582560E-1   -6.111802734177853E-2    1.148579579506374E-1    5.771480857528798E-2
 1.602787506156919E6     1.152018877454153E-1    5.772491539607452E-2    8.854469076007552E-1   -6.118518858692438E-2    8.856545765233395E-1   -6.120457226524345E-2    1.151155140933882E-1    5.778263476656423E-2
 1.615016554680682E6     1.154651169947775E-1    5.779290912616021E-2    8.851425026308835E-1   -6.126318145173162E-2    8.853821379368810E-1   -6.128489211866860E-2    1.154121559366993E-1    5.784763652942276E-2
 1.627338909164981E6     1.157660253430474E-1    5.785677445130461E-2    8.848812599196939E-1   -6.135349570056575E-2    8.850889572504921E-1   -6.138001021592921E-2    1.157073176304963E-1    5.791629717795565E-2
 1.639755281521474E6     1.160678305463542E-1    5.792617984950978E-2    8.846049746597435E-1   -6.143863703827530E-2    8.847853918265244E-1   -6.147217932879353E-2    1.159862614826905E-1    5.797895610745832E-2
 1.652266389093622E6     1.163488681671805E-1    5.798534191118651E-2    8.842834703250358E-1   -6.154531883255679E-2    8.844970325201600E-1   -6.157520484899326E-2    1.162878937423344E-1    5.804473324314174E-2
 1.664872954698102E6     1.166339857158880E-1    5.805321998581484E-2    8.839857023667869E-1   -6.165082981531556E-2    8.842006418708084E-1   -6.165501715195115E-2    1.165753628787586E-1    5.811449920977983E-2
 1.677575706666590E6     1.169281279406288E-1    5.811766388583006E-2    8.836724571476293E-1   -6.173799311609843E-2    8.838904080748311E-1   -6.175374584338198E-2    1.168663077647553E-1    5.817383547090948E-2
 1.690375378887833E6     1.172011770348479E-1    5.818166128218866E-2    8.833685052556947E-1   -6.183300009560724E-2    8.836152814891720E-1   -6.182852911882464E-2    1.171601618061753E-1    5.823983269804925E-2
 1.703272710850043E6     1.174950087463330E-1    5.825002618042346E-2    8.830698547606984E-1   -6.191000200277757E-2    8.833033220983778E-1   -6.193223586335581E-2    1.174587330928439E-1    5.830659596363485E-2
 1.716268447683636E6     1.177954114971383E-1    5.831561241191108E-2    8.827766321416357E-1   -6.201093668881348E-2    8.830125886759306E-1   -6.201811002719086E-2    1.177585417173748E-1    5.837007642545681E-2
 1.729363340204262E6     1.180982123795141E-1    5.837550048737179E-2    8.824872854225730E-1   -6.208431038830681E-2    8.827270567440720E-1   -6.210377174601313E-2    1.180487595603775E-1    5.843107539805503E-2
 1.742558144956193E6     1.183754871016197E-1    5.843492899773438E-2    8.821787389657368E-1   -6.216460892154901E-2    8.824180094714320E-1   -6.219690740745308E-2    1.183496525201640E-1    5.849952477580986E-2
 1.755853624256030E6     1.186888516884805E-1    5.849207981844366E-2    8.818902640786429E-1   -6.225694372212847E-2    8.821196114918352E-1   -6.228085124015119E-2    1.186254259401994E-1    5.855092918305706E-2
 1.769250546236744E6     1.189787313268645E-1    5.855168058510347E-2    8.815701252778387E-1   -6.235172041354590E-2    8.818400010636668E-1   -6.235924767971747E-2    1.189426471516136E-1    5.861095239270035E-2
 1.782749684892061E6     1.192855521933929E-1    5.860567310581562E-2    8.812749850012372E-1   -6.244659452341873E-2    8.815295574074281E-1   -6.244559850285111E-2    1.192297893133446E-1    5.867018755600897E-2
 1.796351820121167E6     1.195632374753408E-1    5.867309185608900E-2    8.809584340402585E-1   -6.252054095075406E-2    8.812112614094565E-1   -6.253286221949411E-2    1.195254245360486E-1    5.873304664429663E-2
 1.810057737773773E6     1.198655939958539E-1    5.872338590518586E-2    8.806635022131321E-1   -6.260937726224322E-2    8.809237670495189E-1   -6.261653885120273E-2    1.198180886610058E-1    5.878818952893787E-2
 1.823868229695514E6     1.201764524070878E-1    5.878814505090592E-2    8.803515958463238E-1   -6.270231806872278E-2    8.806142462404410E-1   -6.269957335570162E-2    1.200965818289701E-1    5.883754381869052E-2
 1.837784093773698E6     1.204603427031744E-1    5.883477144548904E-2    8.800530980891555E-1   -6.277854689991402E-2    8.803065367765689E-1   -6.278340001026382E-2    1.204050398237380E-1    5.889461478788964E-2
 1.851806133983411E6     1.207648284503651E-1    5.889959282190659E-2    8.797832198317740E-1   -6.284812615168665E-2    8.799949641274144E-1   -6.287416206462110E-2    1.207022200337843E-1    5.895241115427165E-2
 1.865935160433950E6     1.210476889761664E-1    5.894763264358988E-2    8.794631817098286E-1   -6.292968610930534E-2    8.796738015216643E-1   -6.295441386298777E-2    1.209877818719428E-1    5.900426699936265E-2
 1.880171989415638E6     1.213496968667347E-1    5.900047797154963E-2    8.791587508246412E-1   -6.299793451316654E-2    8.794056989864409E-1   -6.303240651386760E-2    1.212940275278788E-1    5.905530894453528E-2
 1.894517443446981E6     1.216343981002354E-1    5.905844016161140E-2    8.788798615628488E-1   -6.307146912924481E-2    8.791069633736727E-1   -6.310676465515173E-2    1.215909776494835E-1    5.910745409509638E-2
 1.908972351322182E6     1.219436394863071E-1    5.910437276879005E-2    8.786142582644231E-1   -6.315604645965499E-2    8.787876391086833E-1   -6.319819381963811E-2    1.218903051475673E-1    5.916310847037810E-2
 1.923537548159045E6     1.222464429573593E-1    5.915834750473144E-2    8.783129928959816E-1   -6.324143713371244E-2    8.784926188471158E-1   -6.327660517495573E-2    1.221836089724897E-1    5.921703216815846E-2
 1.938213875447196E6     1.225406139924980E-1    5.921064120610895E-2    8.780048486914478E-1   -6.331728604892420E-2    8.781692784883882E-1   -6.336566214178041E-2    1.224615807708376E-1    5.926905633968721E-2
 1.953002181096708E6     1.228345647871322E-1    5.926964067366993E-2    8.777145038272102E-1   -6.341264022947921E-2    8.778969157988471E-1   -6.343714732558790E-2    1.227649503665746E-1    5.931660373447107E-2
 1.967903319487111E6     1.231312357874340E-1    5.931487483419396E-2    8.774111265843182E-1   -6.349724609233499E-2    8.776130385489144E-1   -6.351894968474521E-2    1.230563924090345E-1    5.936897743766234E-2
 1.982918151516703E6     1.234149609913926E-1    5.936890217623567E-2    8.771076942332741E-1   -6.358532175969668E-2    8.772941423315389E-1   -6.360610812546025E-2    1.233534370654966E-1    5.942296731754517E-2
 1.998047544652348E6     1.237035917252086E-1    5.942418570631522E-2    8.767953881790925E-1   -6.366115989870530E-2    8.769759155877646E-1   -6.368706068559392E-2    1.236488459912888E-1    5.947727576735420E-2
 2.013292372979546E6     1.239853753543989E-1    5.946728555681502E-2    8.764892166403732E-1   -6.374910392513816E-2    8.766793921298413E-1   -6.377678041620925E-2    1.239402031372693E-1    5.952736208349125E-2
 2.028653517252947E6     1.242739780183846E-1    5.952307552285512E-2    8.761984335074998E-1   -6.383339679394698E-2    8.763704530918205E-1   -6.385977630028236E-2    1.242303626156481E-1    5.958159049604325E-2
 2.044131864947255E6     1.245648622631464E-1    5.958339332607403E-2    8.758913207364584E-1   -6.391451203568731E-2    8.760686957318140E-1   -6.393981234003736E-2    1.245238558447908E-1    5.963371788814225E-2
 2.059728310308467E6     1.248442493764486E-1    5.963526483643961E-2    8.755782865388232E-1   -6.400616273317369E-2    8.757650514891878E-1   -6.402432054398029E-2    1.248297547123915E-1    5.969265263268274E-2
 2.075443754405562E6     1.251470018510217E-1    5.969030295885556E-2    8.752845136159859E-1   -6.409031371190539E-2    8.754590603024089E-1   -6.409573686927249E-2    1.251111080998697E-1    5.974113432130319E-2
 2.091279105182548E6     1.254325559105410E-1    5.974527600225402E-2    8.749848179219342E-1   -6.417711711209140E-2    8.751790728716442E-1   -6.418760753714176E-2    1.254095014362124E-1    5.979872881645473E-2
 2.107235277510921E6     1.257290334329055E-1    5.979867632423892E-2    8.746778326706902E-1   -6.425348852798446E-2    8.748213727957694E-1   -6.427236050201525E-2    1.256982970887481E-1    5.985159201949515E-2
 2.123313193242529E6     1.260150699100112E-1    5.986068757092133E-2    8.744054673136795E-1   -6.433893775581995E-2    8.745332374768879E-1   -6.434895869633551E-2    1.259864598346143E-1    5.991088146467567E-2
 2.139513781262815E6     1.263002484377390E-1    5.990648028061992E-2    8.741227133202955E-1   -6.442491364221890E-2    8.742008114531742E-1   -6.443637801316586E-2    1.262757133930570E-1    5.995995925629971E-2
 2.155837977544490E6     1.266034817553240E-1    5.997340271846588E-2    8.738310182471678E-1   -6.453315701190515E-2    8.738971263082966E-1   -6.450657968116384E-2    1.265740328196018E-1    6.001957768045309E-2
 2.172286725201612E6     1.269004949547497E-1    6.002583156787857E-2    8.735445742965604E-1   -6.462077157354847E-2    8.736111360772867E-1   -6.459389615448768E-2    1.268765696413906E-1    6.007869378507232E-2
 2.188860974544063E6     1.271966698676484E-1    6.009284061402072E-2    8.732144211868004E-1   -6.468759572022204E-2    8.732986078977391E-1   -6.467336138516136E-2    1.271673264553525E-1    6.014000441561552E-2
 2.205561683132472E6     1.274856469942349E-1    6.013907060371654E-2    8.729127606125558E-1   -6.478906680419511E-2    8.729989568289720E-1   -6.475879149079979E-2    1.274638435621198E-1    6.018406008842738E-2
 2.222389815833514E6     1.277722304588903E-1    6.019630178651833E-2    8.725907397788568E-1   -6.486738808656441E-2    8.726874323422996E-1   -6.483370363864030E-2    1.277598889900077E-1    6.023919774376987E-2
 2.239346344875663E6     1.280748139377794E-1    6.025882678821885E-2    8.722795372661122E-1   -6.496421242233545E-2    8.723633524227251E-1   -6.489362068003990E-2    1.280704590437284E-1    6.029554361144947E-2
 2.256432249905369E6     1.283743271216756E-1    6.031905146278244E-2    8.719873079453756E-1   -6.505519311846185E-2    8.720469527438492E-1   -6.495166478661459E-2    1.283683804820286E-1    6.035015428016118E-2
 2.273648518043640E6     1.286725292949310E-1    6.037791968946241E-2    8.716627128374489E-1   -6.514629598715946E-2    8.717597092346756E-1   -6.504100893035962E-2    1.286610093451134E-1    6.039950517664652E-2
 2.290996143943099E6     1.289733770560331E-1    6.043501083467129E-2    8.713923538953398E-1   -6.525288343766918E-2    8.714422541158436E-1   -6.510416761960545E-2    1.289602455775505E-1    6.045454440985324E-2
 2.308476129845417E6     1.292882643919575E-1    6.050032671774537E-2    8.711133060131333E-1   -6.535460935293383E-2    8.711566329661820E-1   -6.518287172696120E-2    1.292679549801632E-1    6.050290041845375E-2
 2.326089485639235E6     1.295576654232276E-1    6.054967235522774E-2    8.707760423667713E-1   -6.544228891326355E-2    8.708586851575517E-1   -6.524890387195464E-2    1.295727454926511E-1    6.055574658399780E-2
 2.343837228918507E6     1.298830339640640E-1    6.060828848236509E-2    8.704551645373247E-1   -6.553056389825508E-2    8.705731597779880E-1   -6.530758596007201E-2    1.298715461639220E-1    6.060150338707194E-2
 2.361720385041283E6     1.301562301321975E-1    6.066309244083536E-2    8.701164575582659E-1   -6.561441232050709E-2    8.702799767289796E-1   -6.539265834452924E-2    1.301546522209620E-1    6.065110258874792E-2
 2.379739987188969E6     1.304740278063356E-1    6.071817642277620E-2    8.698119650324939E-1   -6.569751375227181E-2    8.699859656078343E-1   -6.546544393225175E-2    1.304577908314810E-1    6.070772398340073E-2
 2.397897076425990E6     1.308028608077536E-1    6.077566565804393E-2    8.695113983696976E-1   -6.580621046066970E-2    8.696863375540441E-1   -6.555515906278524E-2    1.307421826340752E-1    6.075200610148299E-2
 2.416192701759947E6     1.310981586610756E-1    6.083037607177246E-2    8.691819227943991E-1   -6.588577913521322E-2    8.694230499989337E-1   -6.563325794921754E-2    1.310521429239080E-1    6.081071872029045E-2
 2.434627920202243E6     1.314001340032869E-1    6.087376233039216E-2    8.688543532067591E-1   -6.596180481002424E-2    8.691407827058726E-1   -6.569230300328238E-2    1.313620169485872E-1    6.085587937547306E-2
 2.453203796829114E6     1.317022743464575E-1    6.093538044231245E-2    8.685381703560469E-1   -6.601304121621132E-2    8.688486626530486E-1   -6.578862958209104E-2    1.316629280221791E-1    6.090160159410513E-2
 2.471921404843189E6     1.320041667148822E-1    6.098038379535402E-2    8.682138516509620E-1   -6.610081114984401E-2    8.685610296050776E-1   -6.589810245436466E-2    1.319642250551306E-1    6.095389109050468E-2
 2.490781825635486E6     1.323096619191633E-1    6.102710173979271E-2    8.679095466497235E-1   -6.618843373160507E-2    8.682667588820645E-1   -6.597632041362392E-2    1.322629455454330E-1    6.101519737678694E-2
 2.509786148847881E6     1.334821278395014E-1    6.023732219638041E-2    8.685451522260106E-1   -6.481905051842818E-2    8.675350923890872E-1   -6.876158577073062E-2    1.327555513706001E-1    6.190172288961214E-2
 2.528935472436085E6     1.337538011056671E-1    6.027876729890752E-2    8.683864098807854E-1   -6.411477196154969E-2    8.671072030839860E-1   -6.961128591696009E-2    1.330081992873139E-1    6.197270527477337E-2
 2.548230902733043E6     1.340556545728419E-1    6.037528088056747E-2    8.680847044720056E-1   -6.420555346840405E-2    8.667659189165047E-1   -6.999360348085944E-2    1.333118251400152E-1    6.201810342225261E-2
 2.567673554512876E6     1.343615163077762E-1    6.041182755834270E-2    8.678501670219573E-1   -6.425380879328438E-2    8.663543927066216E-1   -7.014516229686271E-2    1.336063720935560E-1    6.208161711860928E-2
 2.587264551055275E6     1.346665524915289E-1    6.049075302321691E-2    8.675752857874118E-1   -6.429709324760564E-2    8.661429966965503E-1   -7.015818158570197E-2    1.339191058006672E-1    6.211576831111192E-2
 2.607005024210399E6     1.349570550820212E-1    6.054146339956695E-2    8.672360183650530E-1   -6.445504755211416E-2    8.658790045285252E-1   -6.998270596210565E-2    1.342159537648208E-1    6.217329285114946E-2
 2.626896114464281E6     1.352502370431428E-1    6.065337427944070E-2    8.669717199194089E-1   -6.443598343959814E-2    8.654979565510390E-1   -7.031081287114954E-2    1.345050939826897E-1    6.222998091565467E-2
 2.646938971004693E6     1.355390528916439E-1    6.069645731065456E-2    8.666515439159885E-1   -6.458906247539793E-2    8.651983529029709E-1   -7.039670941343769E-2    1.348171463319605E-1    6.229398647130380E-2
 2.667134751787555E6     1.358380090010264E-1    6.081173508007595E-2    8.663238210537945E-1   -6.468371117244492E-2    8.649391751034240E-1   -7.034561992467528E-2    1.351153951865461E-1    6.236256395896539E-2
 2.687484623603833E6     1.361419723981374E-1    6.086649596899890E-2    8.660902177312988E-1   -6.464745404199050E-2    8.645962135433283E-1   -7.051217207377895E-2    1.353973026460293E-1    6.243829112948285E-2
 2.707989762146940E6     1.364417674615410E-1    6.095803984649314E-2    8.657191584640616E-1   -6.491044227571124E-2    8.643498941017643E-1   -7.051725343798944E-2    1.357073663594347E-1    6.248566712234745E-2
 2.728651352080688E6     1.367544357328330E-1    6.100359485186527E-2    8.654577150485959E-1   -6.505750189766291E-2    8.641212689063787E-1   -7.043476450419647E-2    1.360176659599650E-1    6.254537526531849E-2
 2.749470587107692E6     1.370627541682930E-1    6.108343792654978E-2    8.651300991202547E-1   -6.510988500257862E-2    8.638145445243648E-1   -7.046569099283841E-2    1.363177926892711E-1    6.258565297459985E-2
 2.770448670038360E6     1.373419508864077E-1    6.118146773765293E-2    8.648492207573820E-1   -6.517767572015970E-2    8.635054584081904E-1   -7.060147524658596E-2    1.366051469575154E-1    6.263470539239045E-2
 2.791586812860380E6     1.376472068275152E-1    6.123494672119528E-2    8.645129246619799E-1   -6.534052218421700E-2    8.631217398451302E-1   -7.077872694187071E-2    1.369110698450776E-1    6.266300243597549E-2
 2.812886236808732E6     1.379760431881699E-1    6.126797887730770E-2    8.641938040991374E-1   -6.555756401124298E-2    8.627537615889609E-1   -7.106480024595675E-2    1.372300430265536E-1    6.270903868710720E-2
 2.834348172436268E6     1.382617405460662E-1    6.135807917263239E-2    8.638610271228979E-1   -6.559210224502440E-2    8.624858672227402E-1   -7.107586306249089E-2    1.375483641009932E-1    6.277678791605312E-2
 2.855973859684773E6     1.385426275165130E-1    6.145269772456161E-2    8.636334446318519E-1   -6.547921427938813E-2    8.621309426100121E-1   -7.122722385305626E-2    1.378496637040847E-1    6.283850831083665E-2
 2.877764547956619E6     1.388764966981386E-1    6.151109834340418E-2    8.634778530341598E-1   -6.516500255960742E-2    8.618604309327618E-1   -7.114951680985603E-2    1.381727648373597E-1    6.290122814790360E-2
 2.899721496186967E6     1.391706624989840E-1    6.160137908779348E-2    8.631117215650312E-1   -6.556381464869354E-2    8.615622924616635E-1   -7.132723912673983E-2    1.384848420087288E-1    6.296609520094240E-2
 2.921845972916440E6     1.394876413628827E-1    6.165547034584683E-2    8.628303013768258E-1   -6.548963124212125E-2    8.612703658245823E-1   -7.123919866400642E-2    1.387939075547171E-1    6.300913479962160E-2
 2.944139256364495E6     1.397916082704578E-1    6.175370011284220E-2    8.625639700174571E-1   -6.551236164524500E-2    8.610177344842113E-1   -7.131272458274547E-2    1.390946640965346E-1    6.309635903807187E-2
 2.966602634503201E6     1.401055649002745E-1    6.176930761866428E-2    8.621444969126851E-1   -6.592520337237583E-2    8.606557974991371E-1   -7.146131039381542E-2    1.394157591223947E-1    6.316553692055611E-2
 2.989237405131679E6     1.404248671837708E-1    6.185381689259868E-2    8.618627796652002E-1   -6.606815438117873E-2    8.603155510431566E-1   -7.154075693253438E-2    1.397116605596012E-1    6.320858850445453E-2
 3.012044875951098E6     1.405353946307439E-1    6.237683773724832E-2    8.617162492550366E-1   -6.776848372335553E-2    8.599889261731885E-1   -6.969400153644766E-2    1.401937075135113E-1    6.316759428980821E-2
 3.035026364640187E6     1.408371166098995E-1    6.245265495078393E-2    8.614779256931236E-1   -6.770403521147085E-2    8.596326711345191E-1   -6.984562806811234E-2    1.404959229022568E-1    6.322953585644919E-2
 3.058183198931389E6     1.411356889436521E-1    6.253155228933083E-2    8.611867078997744E-1   -6.774104291792223E-2    8.592647485325317E-1   -6.993956109988511E-2    1.408215058336602E-1    6.329330836872350E-2
 3.081516716687564E6     1.414538643720121E-1    6.255431314352276E-2    8.608821343298911E-1   -6.782888081035933E-2    8.590062139355865E-1   -6.996800313576929E-2    1.411405749271565E-1    6.333907924129790E-2
 3.105028265979277E6     1.417790196320590E-1    6.263458885123113E-2    8.605898061009777E-1   -6.779380165162238E-2    8.587245760400274E-1   -7.006242640553080E-2    1.414426927133513E-1    6.337586500851973E-2
 3.128719205162701E6     1.420786672073624E-1    6.264402877387433E-2    8.602261588216529E-1   -6.812637660144592E-2    8.582975778307038E-1   -7.029733596069891E-2    1.417633745473969E-1    6.340856356878609E-2
 3.152590902958065E6     1.424054051018392E-1    6.269785480952599E-2    8.599221154399040E-1   -6.824472753281163E-2    8.581012510547558E-1   -7.024606792891674E-2    1.420704184410674E-1    6.349114782333927E-2
 3.176644738528751E6     1.427176244501798E-1    6.274869476884247E-2    8.596674093501555E-1   -6.816888214959420E-2    8.577796440285634E-1   -7.033747776646862E-2    1.423786423754574E-1    6.353834197505143E-2
 3.200882101560967E6     1.430108610912269E-1    6.279483404696524E-2    8.593841502369259E-1   -6.820048540616412E-2    8.573731593557908E-1   -7.063391278493283E-2    1.426842125414256E-1    6.358611951373153E-2
 3.225304392344028E6     1.433343859358750E-1    6.284294238019167E-2    8.590279632768737E-1   -6.843220351284846E-2    8.571486845456993E-1   -7.049983845004169E-2    1.430098416157268E-1    6.364384031172625E-2
 3.249913021851289E6     1.436374750978308E-1    6.288504575628531E-2    8.587545608435084E-1   -6.843768006149421E-2    8.567903748873569E-1   -7.073651180585021E-2    1.433168372435515E-1    6.368703695610051E-2
 3.274709411821612E6     1.439391237647460E-1    6.289892622028717E-2    8.583516742721781E-1   -6.877260979632686E-2    8.564588280239914E-1   -7.082431416379703E-2    1.436236177986394E-1    6.370099173600832E-2
 3.299694994841541E6     1.442588351599093E-1    6.296282686302357E-2    8.581345359986985E-1   -6.874491478329414E-2    8.562413807724836E-1   -7.078917080382074E-2    1.439313758819284E-1    6.375676544092382E-2
 3.324871214428060E6     1.445713138781456E-1    6.291219737177892E-2    8.578589748264805E-1   -6.828798264541153E-2    8.557621887949424E-1   -7.150222603439157E-2    1.441901465550373E-1    6.384755138380122E-2
 3.350239525111979E6     1.448831367707175E-1    6.296641308828733E-2    8.575949564214110E-1   -6.836585101876594E-2    8.554301264069702E-1   -7.157083570070125E-2    1.444853962211995E-1    6.387444184718170E-2
 3.375801392522001E6     1.451941426673062E-1    6.306208135862522E-2    8.572743230198208E-1   -6.845808821268298E-2    8.551028717756968E-1   -7.165761726523130E-2    1.447915029335431E-1    6.395602430799344E-2
 3.401558293469354E6     1.454941253671414E-1    6.319471902463403E-2    8.569282470703826E-1   -6.898488369636259E-2    8.548708450440834E-1   -7.126740710604795E-2    1.451521281190201E-1    6.395289224487045E-2
 3.427511716033138E6     1.458173373945710E-1    6.325885997830509E-2    8.566841106568435E-1   -6.903367881221842E-2    8.546278521553999E-1   -7.131147198183535E-2    1.454698238617075E-1    6.402039869974149E-2
 3.453663159646295E6     1.461181943651857E-1    6.329953192724518E-2    8.563645365316446E-1   -6.916484071329082E-2    8.543100260137259E-1   -7.149692622868115E-2    1.457861435139936E-1    6.407511385143802E-2
 3.480014135182226E6     1.464166605328497E-1    6.337076183531411E-2    8.560628241568278E-1   -6.911533971902553E-2    8.539140690970612E-1   -7.165151329320626E-2    1.460959392973655E-1    6.411222027225122E-2
 3.506566165042107E6     1.467418140778178E-1    6.352553338853961E-2    8.557589669807347E-1   -6.949211406246519E-2    8.537724207559469E-1   -7.132079275851570E-2    1.464582337512490E-1    6.413434894633697E-2
 3.533320783242811E6     1.470466763163245E-1    6.354109570366372E-2    8.554192678915157E-1   -6.963154605182549E-2    8.533974453848415E-1   -7.147713037340332E-2    1.467565951338480E-1    6.421008950422769E-2
 3.560279535505542E6     1.473520120251661E-1    6.358039567613628E-2    8.551204990091331E-1   -6.961482102785992E-2    8.530595514114532E-1   -7.171037051366450E-2    1.470716792791149E-1    6.422131407828480E-2
 3.587443979345170E6     1.476710957780800E-1    6.363612588867182E-2    8.548058246953895E-1   -6.981315882040411E-2    8.527998564446022E-1   -7.161144546542368E-2    1.473655716759660E-1    6.427326260099647E-2
 3.614815684160168E6     1.479887104933957E-1    6.368842346475365E-2    8.544374233559922E-1   -6.997370996502252E-2    8.525640641232479E-1   -7.165546885607950E-2    1.476940654758592E-1    6.432381394570941E-2
 3.642396231323309E6     1.483143617174821E-1    6.373772160117515E-2    8.542205605944261E-1   -6.990134193394472E-2    8.521340290064869E-1   -7.193634172133419E-2    1.480218890292340E-1    6.436385211615482E-2
 3.670187214273024E6     1.487975691579240E-1    6.323131203656371E-2    8.537617612718955E-1   -6.789982645454307E-2    8.517639979499974E-1   -7.438009508302854E-2    1.480922483979712E-1    6.453510757024834E-2
 3.698190238605455E6     1.491007664110884E-1    6.325359924677736E-2    8.534822225241275E-1   -6.780537753148026E-2    8.513425087054500E-1   -7.463090497637014E-2    1.484055570726103E-1    6.456008860893109E-2
 3.726406922167240E6     1.494275098708808E-1    6.330411817604790E-2    8.532181746217508E-1   -6.781173457441866E-2    8.511686151540190E-1   -7.463247056033062E-2    1.487191824236939E-1    6.464262405771666E-2
 3.754838895148946E6     1.497432524052267E-1    6.336755206414045E-2    8.529170983999849E-1   -6.792969882294042E-2    8.508829114101787E-1   -7.456702747099439E-2    1.490363471978492E-1    6.467612750056341E-2
 3.783487800179276E6     1.499314823044302E-1    6.356227586819815E-2    8.527532322480534E-1   -6.847251930508262E-2    8.504951767060379E-1   -7.382309171295366E-2    1.493973888423555E-1    6.475158018226571E-2
 3.812355292419964E6     1.502546084868819E-1    6.362326974097082E-2    8.525297197259774E-1   -6.843069636722339E-2    8.500813477449376E-1   -7.414493739802606E-2    1.497144559199182E-1    6.480075360848614E-2
 3.841443039661395E6     1.505735563880664E-1    6.366907806488886E-2    8.522535309820947E-1   -6.839483114485635E-2    8.497789877192501E-1   -7.419162469294965E-2    1.500396635116940E-1    6.486448502756335E-2
 3.870752722418987E6     1.508843353458854E-1    6.370403934482383E-2    8.518785898644635E-1   -6.864963465346846E-2    8.494499249452105E-1   -7.431135352546796E-2    1.503422485452253E-1    6.490563152762002E-2
 3.900286034030236E6     1.511965672944197E-1    6.377032304546813E-2    8.516318700232943E-1   -6.863808119301565E-2    8.490572502991458E-1   -7.457899961748435E-2    1.506657759534354E-1    6.494950839804378E-2
 3.930044680752580E6     1.515119677468613E-1    6.379937227377977E-2    8.513558861003657E-1   -6.861177606003513E-2    8.487279300588201E-1   -7.465353872764545E-2    1.509772075463543E-1    6.499880212032878E-2
 3.960030381861967E6     1.518440757685847E-1    6.383965049559570E-2    8.510792827867733E-1   -6.867500613916555E-2    8.484942971714106E-1   -7.464587263888961E-2    1.512841099350762E-1    6.503111764933928E-2
 3.990244869752173E6     1.521498934826104E-1    6.387969804452417E-2    8.506850351124199E-1   -6.895384148217232E-2    8.480658661362208E-1   -7.496622376036367E-2    1.516068806434487E-1    6.506306545061141E-2
 4.020689890034929E6     1.523802777897876E-1    6.426401153205168E-2    8.504692239656949E-1   -7.010090459571398E-2    8.478691567115466E-1   -7.367814380995985E-2    1.520490016459552E-1    6.504174722318586E-2
 4.051367201640718E6     1.526890864279276E-1    6.433769394439905E-2    8.501795147065742E-1   -7.024692729734552E-2    8.475870544669389E-1   -7.382695881871366E-2    1.523659919304544E-1    6.510859521286037E-2
 4.082278576920427E6     1.530022785723574E-1    6.437654778984292E-2    8.499143090813890E-1   -7.021973935654433E-2    8.472207636768595E-1   -7.394136776142543E-2    1.526863796448512E-1    6.515319173766390E-2
 4.113425801747740E6     1.533040474191125E-1    6.442920641339217E-2    8.496085670450204E-1   -7.027923345464750E-2    8.469420127882875E-1   -7.403272161956630E-2    1.529944886562345E-1    6.521688917538665E-2
 4.144810675622302E6     1.536217402616089E-1    6.448619147213173E-2    8.492914031154211E-1   -7.038166858787577E-2    8.466395539938210E-1   -7.411010421199286E-2    1.533121259968098E-1    6.527033938639008E-2
 4.176435011773718E6     1.539184974207435E-1    6.452528594316170E-2    8.489928456932424E-1   -7.039019536072172E-2    8.463055769691870E-1   -7.417173685422507E-2    1.536259018770917E-1    6.531522759560954E-2
 4.208300637266261E6     1.542356742270348E-1    6.454434127080236E-2    8.486178430600798E-1   -7.066357659358027E-2    8.459725506987086E-1   -7.430043881275274E-2    1.539297894494162E-1    6.536555299729808E-2
 4.240409393104453E6     1.545387864814677E-1    6.461038328597332E-2    8.484324322457446E-1   -7.051565573809258E-2    8.457571551626722E-1   -7.423944853484524E-2    1.542410546147535E-1    6.541917654524718E-2
 4.272763134339464E6     1.548601576789089E-1    6.465889067507380E-2    8.481066664585083E-1   -7.068160258962855E-2    8.454475110956479E-1   -7.443174477511116E-2    1.545591071429973E-1    6.546351163447030E-2
 4.305363730176185E6     1.551608891136294E-1    6.471552885904190E-2    8.477483477455358E-1   -7.081455558682247E-2    8.449718794491589E-1   -7.470963704173461E-2    1.548460725726306E-1    6.550501213540676E-2
 4.338213064081349E6     1.554829803699748E-1    6.460528858413202E-2    8.474267879148745E-1   -7.042178276086133E-2    8.447070846504716E-1   -7.520058747235406E-2    1.551179583073958E-1    6.556014705284496E-2
 4.371313033892244E6     1.557962555178387E-1    6.465869039513553E-2    8.471602731753818E-1   -7.044421870140302E-2    8.442949738370902E-1   -7.546525165206153E-2    1.554163733890187E-1    6.559149597445278E-2
 4.404665551926396E6     1.561122617433319E-1    6.470806909519997E-2    8.468576455162633E-1   -7.052868450679356E-2    8.439876785669861E-1   -7.557830217718244E-2    1.557322620528192E-1    6.566098316770669E-2
 4.438272545092077E6     1.564204785070243E-1    6.474561955038517E-2    8.464851225812958E-1   -7.061971441919232E-2    8.436676541480963E-1   -7.570960010215801E-2    1.560544828037008E-1    6.571282933109873E-2
 4.472135954999580E6     1.567248573636584E-1    6.479535839284450E-2    8.462271224669741E-1   -7.058365591980285E-2    8.433870582498870E-1   -7.582482625801469E-2    1.563851020956540E-1    6.573007077793508E-2
 4.506257738073424E6     1.570390500988172E-1    6.484118526879544E-2    8.458875403381617E-1   -7.066792670467147E-2    8.430755350156166E-1   -7.593334540145201E-2    1.567062297867166E-1    6.579310451057679E-2
 4.540639865665382E6     1.573511672281852E-1    6.503039447809339E-2    8.456328783536400E-1   -7.120407867555603E-2    8.428512941335711E-1   -7.541837545478614E-2    1.570675338750279E-1    6.580833137726520E-2
 4.575284324168356E6     1.576716191131044E-1    6.509090047520638E-2    8.453401360801530E-1   -7.120926654371679E-2    8.425910537506834E-1   -7.553923161857949E-2    1.573906100814958E-1    6.587878967014625E-2
 4.610193115131186E6     1.580639319144353E-1    6.474747150007600E-2    8.447997590111437E-1   -7.013454690832284E-2    8.422004056529313E-1   -7.725068286490702E-2    1.575743903778637E-1    6.602061580816435E-2
 4.645368255374223E6     1.583654401188601E-1    6.477225040728313E-2    8.444625130516780E-1   -7.023547154002550E-2    8.417515926020492E-1   -7.756555607776533E-2    1.578867484807096E-1    6.600963911933616E-2
 4.680811777105891E6     1.586796396215726E-1    6.480810517480934E-2    8.441261011468392E-1   -7.035665893178926E-2    8.415186350443368E-1   -7.761435248842882E-2    1.582014103411234E-1    6.606856776274495E-2
 4.716525728040087E6     1.589959191823989E-1    6.484951051818681E-2    8.437748797453747E-1   -7.051846489420563E-2    8.412368868436944E-1   -7.764082199255892E-2    1.585090827871111E-1    6.614032138427114E-2
 4.752512171514469E6     1.593220066778276E-1    6.489020739076630E-2    8.434294304477822E-1   -7.057243957867555E-2    8.409167243040904E-1   -7.778541082915613E-2    1.588174671987604E-1    6.623316327115562E-2
 4.788773186609713E6     1.596267069125747E-1    6.492084268212323E-2    8.431304281898542E-1   -7.064725617950914E-2    8.406117199563117E-1   -7.789661905253926E-2    1.591399595695771E-1    6.623046024289686E-2
 4.825310868269563E6     1.600555189266890E-1    6.475660538990710E-2    8.425197754541792E-1   -7.031002045386446E-2    8.405172253001181E-1   -7.885148102341934E-2    1.593842170481632E-1    6.631333582617782E-2
 4.862127327421905E6     1.603743835843592E-1    6.479516661048049E-2    8.422497035826837E-1   -7.026737675683320E-2    8.402176282981180E-1   -7.897912419255003E-2    1.596941251165402E-1    6.637804355019028E-2
 4.899224691100715E6     1.606796196339567E-1    6.482080308368744E-2    8.418699354845950E-1   -7.046622860727990E-2    8.398759732063479E-1   -7.921457518991618E-2    1.600057078460750E-1    6.643645230287701E-2
 4.936605102568937E6     1.609958129016772E-1    6.487130080148742E-2    8.416072456560511E-1   -7.041298454260640E-2    8.396284661915174E-1   -7.910889583455108E-2    1.603182006211555E-1    6.650291436972745E-2
 4.974270721442348E6     1.613149385864728E-1    6.492070205031579E-2    8.413141744510585E-1   -7.040022907496785E-2    8.393404356722647E-1   -7.912674290804372E-2    1.606142353807755E-1    6.656968597032115E-2
 5.012223723814265E6     1.616276252878398E-1    6.495668893658642E-2    8.410018044975699E-1   -7.038787458709360E-2    8.389904521538897E-1   -7.958915839893209E-2    1.609529584570468E-1    6.657236207866749E-2
 5.050466302381308E6     1.619535804152813E-1    6.499889693564680E-2    8.406746773849314E-1   -7.043943122969049E-2    8.386634345990315E-1   -7.970469021923851E-2    1.612588964934939E-1    6.662604829099089E-2
 5.089000666570071E6     1.622570329335320E-1    6.503614654105613E-2    8.403419257504388E-1   -7.048470725178098E-2    8.383839574522535E-1   -7.974924186208457E-2    1.615632370919316E-1    6.670176891667777E-2
 5.127829042664761E6     1.625755915677850E-1    6.507706796070295E-2    8.400704510540968E-1   -7.049699168572673E-2    8.381400903205001E-1   -7.984636001332633E-2    1.618968237323326E-1    6.670956250747208E-2
 5.166953673935857E6     1.628931532052821E-1    6.511501168852564E-2    8.396991165926028E-1   -7.051321190799711E-2    8.378645166066993E-1   -7.985740560003793E-2    1.622115941291738E-1    6.681452743456651E-2
 5.206376820769652E6     1.632214906611817E-1    6.516690771409915E-2    8.393738813145748E-1   -7.061094192895787E-2    8.375502023296367E-1   -8.002809714894099E-2    1.625310799446896E-1    6.684258909059983E-2
 5.246100760798878E6     1.635047994261496E-1    6.520364830546514E-2    8.389151771152999E-1   -7.108249347191144E-2    8.372140983308242E-1   -8.047012692033569E-2    1.628330590153905E-1    6.687886352481326E-2
 5.286127789034322E6     1.638262903468344E-1    6.525240921741163E-2    8.386102162619219E-1   -7.097226770898313E-2    8.369315002701992E-1   -8.029105889326205E-2    1.631016173939773E-1    6.699530455807186E-2
 5.326460217997355E6     1.639753920713334E-1    6.617536004633903E-2    8.388616954528939E-1   -7.353015322620786E-2    8.365958983418453E-1   -7.742419012946690E-2    1.637761601960123E-1    6.681418352372252E-2
 5.367100377853584E6     1.642919368918367E-1    6.622780507646739E-2    8.385444661520643E-1   -7.364804960416994E-2    8.362538454699769E-1   -7.767906159993274E-2    1.640910272488189E-1    6.681758605109912E-2
 5.408050616547454E6     1.646067808682405E-1    6.627203970900007E-2    8.382437982250748E-1   -7.366579308219724E-2    8.359163095547424E-1   -7.802236845919863E-2    1.644064676085950E-1    6.689218348140165E-2
 5.449313299937895E6     1.649171834726472E-1    6.630870140858867E-2    8.378854358841353E-1   -7.376014107677502E-2    8.356910814525972E-1   -7.801301304948029E-2    1.647150747912943E-1    6.695386751697269E-2
 5.490890811935049E6     1.653959259786491E-1    6.545637233886109E-2    8.369553073288627E-1   -7.158783016245093E-2    8.354253490614543E-1   -8.103047222533467E-2    1.646880995890691E-1    6.719579241073262E-2
 5.532785554637930E6     1.657093051409582E-1    6.550277876092812E-2    8.366235176173490E-1   -7.168162352289209E-2    8.351182653023980E-1   -8.103268634302682E-2    1.649948455474927E-1    6.725194352049571E-2
 5.574999948473252E6     1.658529374530670E-1    6.645469225800740E-2    8.368683844260211E-1   -7.402012618452616E-2    8.347196402494352E-1   -7.835910630106725E-2    1.656677204558102E-1    6.707175418999739E-2
 5.617536432335250E6     1.661595979751783E-1    6.649814493304418E-2    8.365361140082135E-1   -7.413238525838298E-2    8.344544124077298E-1   -7.849218808456933E-2    1.659806462138294E-1    6.708961488305128E-2
 5.660397463726575E6     1.664760490725258E-1    6.654690861144530E-2    8.362219390599425E-1   -7.419370960902744E-2    8.341921970385838E-1   -7.866894398913751E-2    1.663124512137750E-1    6.714092562389928E-2
 5.703585518900323E6     1.669902133760990E-1    6.567106548678829E-2    8.352905867565844E-1   -7.215495988922566E-2    8.339793680734726E-1   -8.161223708413626E-2    1.662809797283131E-1    6.738607086345047E-2
 5.747103093003022E6     1.672965202472979E-1    6.570790974800846E-2    8.349166281900534E-1   -7.231719875885215E-2    8.337168724205237E-1   -8.179945412314929E-2    1.666157833367869E-1    6.741362314767953E-2
 5.790952700218840E6     1.675933134957181E-1    6.573553029104784E-2    8.345743638251358E-1   -7.242323301721285E-2    8.333700396524688E-1   -8.196394897686560E-2    1.669156939632956E-1    6.744554802090350E-2
 5.835136873914825E6     1.677242575664934E-1    6.673524853867614E-2    8.348441937086734E-1   -7.467893052719825E-2    8.329720244877936E-1   -7.929460740639163E-2    1.675537487194369E-1    6.735532810164198E-2
 5.879658166787256E6     1.680409453694764E-1    6.678995435610512E-2    8.344889160228200E-1   -7.470661788458691E-2    8.326807619266030E-1   -7.924782691972243E-2    1.678675019613487E-1    6.736821818330226E-2
 5.924519151009166E6     1.683408863872736E-1    6.683172273121198E-2    8.341297453102690E-1   -7.491293489996007E-2    8.324552654042363E-1   -7.931303158415116E-2    1.681948952966752E-1    6.746305825076467E-2
 5.969722418378883E6     1.686590459092293E-1    6.687755044692863E-2    8.337815629929171E-1   -7.510522698935503E-2    8.321193507037103E-1   -7.958043437521316E-2    1.685045074470837E-1    6.749881654434546E-2
 6.015270580469812E6     1.689664202007728E-1    6.692901771958616E-2    8.334569661715296E-1   -7.513565271929781E-2    8.318193923655532E-1   -7.970084435893947E-2    1.688159224925677E-1    6.751001361875336E-2
 6.061166268781302E6     1.692756909610261E-1    6.698447227286648E-2    8.330669436521753E-1   -7.550325332778450E-2    8.315058145913433E-1   -7.982859122810268E-2    1.691479061075264E-1    6.758053811609846E-2
 6.107412134890671E6     1.695582199378270E-1    6.694981184620732E-2    8.327131686793753E-1   -7.542641530699311E-2    8.311615577998980E-1   -8.021485038112412E-2    1.694161043378247E-1    6.767016721526324E-2
 6.154010850606443E6     1.698781335200525E-1    6.699529343947414E-2    8.323736343777295E-1   -7.536095414227191E-2    8.308077427724633E-1   -8.028550239333125E-2    1.697138660327368E-1    6.773592236564915E-2
 6.200965108122637E6     1.702118435477924E-1    6.704833316111912E-2    8.320841103108161E-1   -7.556684741635969E-2    8.305623893886589E-1   -8.037486723782429E-2    1.700221545495749E-1    6.779306603933474E-2
 6.248277620174343E6     1.705263332993740E-1    6.709178591862661E-2    8.317385308897545E-1   -7.573894565966538E-2    8.302705849807327E-1   -8.042097243516888E-2    1.703426817274099E-1    6.781538841880583E-2
 6.295951120194497E6     1.708263993337008E-1    6.713990566843719E-2    8.313837209024778E-1   -7.569664586606620E-2    8.299602872951327E-1   -8.061454367505405E-2    1.706492454540671E-1    6.786918167986150E-2
 6.343988362471664E6     1.711547151958465E-1    6.728119775683966E-2    8.310466491520306E-1   -7.610686000543115E-2    8.297347907006425E-1   -8.038787672327642E-2    1.710098770408677E-1    6.788981432673351E-2
 6.392392122309345E6     1.714727635011153E-1    6.732968902008832E-2    8.307533228199481E-1   -7.621222321601147E-2    8.294957424822967E-1   -8.055156688514872E-2    1.713221932847055E-1    6.793673563395117E-2
 6.441165196186168E6     1.717733550663141E-1    6.737188348924046E-2    8.304320930777100E-1   -7.624268593147138E-2    8.291463132610267E-1   -8.071811994500652E-2    1.716456634194038E-1    6.797457477058370E-2
 6.490310401917514E6     1.721145444355377E-1    6.742757157347173E-2    8.301300211838407E-1   -7.638032067971304E-2    8.288835475024313E-1   -8.073932082730699E-2    1.719459409903119E-1    6.805756959265671E-2
 6.539830578818345E6     1.724098461541031E-1    6.747748437177865E-2    8.297385600429629E-1   -7.659344763101307E-2    8.285742439135582E-1   -8.080975761502045E-2    1.722586662848130E-1    6.809926376309260E-2
 6.589728587867169E6     1.727251870439893E-1    6.753029854053386E-2    8.293868178262055E-1   -7.668405418562170E-2    8.282601804802862E-1   -8.090643661726227E-2    1.725582831194793E-1    6.816159178887735E-2
 6.640007311871376E6     1.730401853166638E-1    6.757912077333968E-2    8.290743618654367E-1   -7.691327792759088E-2    8.279752018919091E-1   -8.105059043777472E-2    1.728806977164842E-1    6.820735060710070E-2
 6.690669655633785E6     1.733504449250102E-1    6.762370225367821E-2    8.287176201954731E-1   -7.706434224736596E-2    8.276758628677851E-1   -8.116427206207084E-2    1.731808766083546E-1    6.824836745177353E-2
 6.741718546120445E6     1.736612244282831E-1    6.767376709455514E-2    8.283828858052152E-1   -7.711800367341885E-2    8.273825672734709E-1   -8.129011240277603E-2    1.735044037718885E-1    6.831001025275583E-2
 6.793156932629797E6     1.739790027614460E-1    6.772450910674550E-2    8.280308543836932E-1   -7.741102423095739E-2    8.270710399271430E-1   -8.142985609552518E-2    1.738144145463349E-1    6.836673394260230E-2
 6.844987786962981E6     1.742738591785701E-1    6.776865403974965E-2    8.276917634048122E-1   -7.759541695639170E-2    8.267979570702571E-1   -8.164470943678528E-2    1.741276415198811E-1    6.841865151321277E-2
 6.897214103595586E6     1.745298944569807E-1    6.756476615830750E-2    8.273681935435541E-1   -7.734743770286480E-2    8.262433118773677E-1   -8.239642145150826E-2    1.743323254924626E-1    6.856367463204557E-2
 6.949838899850640E6     1.748404101960653E-1    6.760928234373363E-2    8.270869601882057E-1   -7.745424382899982E-2    8.259249847418232E-1   -8.249707891932012E-2    1.746353936129131E-1    6.860798092298755E-2
 7.002865216072913E6     1.752759667440893E-1    6.708469434423045E-2    8.266247885766127E-1   -7.690174987631929E-2    8.255163487860557E-1   -8.405011127621982E-2    1.747751078363561E-1    6.873325925594795E-2
 7.056296115804635E6     1.755972563432419E-1    6.712774511244592E-2    8.264007350067364E-1   -7.701065993627743E-2    8.252256895388240E-1   -8.421009214732061E-2    1.750866709629118E-1    6.876846636560006E-2
 7.110134685962399E6     1.758987393335343E-1    6.716138592186674E-2    8.260475407245205E-1   -7.721979097909179E-2    8.248859965799091E-1   -8.430685028076368E-2    1.753934471344105E-1    6.881240297362960E-2
 7.164384037015557E6     1.762169222870408E-1    6.721650902845031E-2    8.257068737385511E-1   -7.738840308456323E-2    8.245226946332397E-1   -8.445175465312875E-2    1.756870421960277E-1    6.885595988164789E-2
 7.219047303165923E6     1.765147517758960E-1    6.725195596381139E-2    8.253856224301559E-1   -7.757832174293111E-2    8.242340823833029E-1   -8.458186833697767E-2    1.760147135054582E-1    6.892325170747397E-2
 7.274127642528819E6     1.768281763695319E-1    6.729954169719547E-2    8.250478263729479E-1   -7.769863852139611E-2    8.239036066014007E-1   -8.470221921609648E-2    1.763073617165295E-1    6.896254585167177E-2
 7.329628237315600E6     1.773245495406975E-1    6.703204399054941E-2    8.245867526453426E-1   -7.740553608913772E-2    8.237615651266209E-1   -8.562068532021322E-2    1.765527640422813E-1    6.903117380825678E-2
 7.385552294017412E6     1.776411204184519E-1    6.707842653246643E-2    8.242748658707389E-1   -7.760937789321146E-2    8.234672728307408E-1   -8.579938835644797E-2    1.768769329022279E-1    6.908949262654683E-2
 7.441903043590503E6     1.776693823438607E-1    6.821332480720163E-2    8.242327460442936E-1   -7.936841723275585E-2    8.232141320956716E-1   -8.330107150740511E-2    1.775190989383945E-1    6.899695728381322E-2
 7.498683741642874E6     1.779714281155672E-1    6.825949322511639E-2    8.239286627937090E-1   -7.951996430101259E-2    8.228784531642699E-1   -8.342112111900972E-2    1.778307712900453E-1    6.904487886112533E-2
 7.555897668622349E6     1.784035617964391E-1    6.753246564460789E-2    8.235670383306095E-1   -7.857246623163160E-2    8.223902129010326E-1   -8.538962914945346E-2    1.778739467178792E-1    6.922856713553979E-2
 7.613548130006171E6     1.787023484907357E-1    6.757079284184572E-2    8.232192936796555E-1   -7.866425150748318E-2    8.220853176654682E-1   -8.553179726020362E-2    1.781875781630621E-1    6.928610442905229E-2
 7.671638456491867E6     1.796323060050257E-1    6.687413790556855E-2    8.223338310794598E-1   -7.781133202999381E-2    8.224671389631111E-1   -8.761653311908603E-2    1.783333374051690E-1    6.935706913323340E-2
 7.730172004189732E6     1.799525928204866E-1    6.691222489950077E-2    8.220661520600724E-1   -7.797438439189432E-2    8.221878046860387E-1   -8.777640084675388E-2    1.786444808925181E-1    6.940628295289634E-2
 7.789152154816771E6     1.802774449725482E-1    6.695195958704189E-2    8.217173418285055E-1   -7.813545365704391E-2    8.218553166746838E-1   -8.791851398351275E-2    1.789468028630489E-1    6.946664032759775E-2
 7.848582315891974E6     1.799699139478897E-1    6.775690279167425E-2    8.220101674750355E-1   -7.936261520793117E-2    8.208205132383974E-1   -8.615289670557232E-2    1.794229853991594E-1    6.950362002562414E-2
 7.908465920933248E6     1.802730631424325E-1    6.780627263705948E-2    8.216637789587973E-1   -7.956494261443102E-2    8.204931964195326E-1   -8.627315708555776E-2    1.797370264360248E-1    6.956884801708865E-2
 7.968806429655775E6     1.805919332125462E-1    6.784915580223451E-2    8.213613177442257E-1   -7.970530290033234E-2    8.202224340774888E-1   -8.643391788432063E-2    1.800497378239134E-1    6.962414905356716E-2
 8.029607328171868E6     1.809084949821333E-1    6.790599612894445E-2    8.210585932858591E-1   -7.989652124633714E-2    8.198534834912586E-1   -8.658279316255520E-2    1.803604524751007E-1    6.967928247923835E-2
 8.090872129192449E6     1.812221523489230E-1    6.794421267710821E-2    8.207775147455123E-1   -8.007735448962233E-2    8.195896726461235E-1   -8.673477764389290E-2    1.806725265637579E-1    6.974479117148047E-2
 8.152604372229892E6     1.815255625688472E-1    6.799794795633832E-2    8.204977215753797E-1   -8.023797152655691E-2    8.192506123053700E-1   -8.690102263657284E-2    1.809753317350739E-1    6.979412993894786E-2
 8.214807623802581E6     1.818425456497119E-1    6.804422688822759E-2    8.201887928943683E-1   -8.039786209011389E-2    8.189058379338638E-1   -8.702602641421806E-2    1.812802060449669E-1    6.985483368501087E-2
 8.277485477640945E6     1.821592433828702E-1    6.809844388807262E-2    8.198465020380948E-1   -8.053306335930456E-2    8.186544635404717E-1   -8.720254586552929E-2    1.816052449496409E-1    6.992255013128795E-2
 8.340641554895067E6     1.824700764475560E-1    6.814170497901421E-2    8.195431583010223E-1   -8.070251122000970E-2    8.183166649923029E-1   -8.737249473941408E-2    1.819143490733190E-1    6.998027766247690E-2
 8.404279504343957E6     1.827895911587155E-1    6.819288531363972E-2    8.192780913048495E-1   -8.089221161388142E-2    8.180111190433628E-1   -8.752763250324051E-2    1.822096406451473E-1    7.003673786863010E-2
 8.468403002606256E6     1.830939849654642E-1    6.823557053294156E-2    8.189247315580662E-1   -8.105598486219043E-2    8.177488991465114E-1   -8.771254307108954E-2    1.825521883021447E-1    7.010662863674799E-2
 8.533015754352720E6     1.832810306890117E-1    6.870325732061712E-2    8.187293945402161E-1   -8.179357169112958E-2    8.174073456530473E-1   -8.689348672222373E-2    1.829747576860696E-1    7.012838145003732E-2
 8.598121492520234E6     1.835876450669268E-1    6.876576564594726E-2    8.184295761067133E-1   -8.198255414369292E-2    8.171199020485966E-1   -8.707016168605414E-2    1.832844118461159E-1    7.019221782857105E-2
 8.663723978527457E6     1.846946809900445E-1    6.756122561349372E-2    8.174207590973435E-1   -8.047406143202163E-2    8.175462439275316E-1   -9.021860886538845E-2    1.833057081495569E-1    7.029693717593469E-2
 8.729827002492212E6     1.849939386769652E-1    6.760290094195756E-2    8.170498992624859E-1   -8.063492364179797E-2    8.172022593887598E-1   -9.040442826758543E-2    1.836028747674165E-1    7.035480260345502E-2
 8.796434383450346E6     1.853179737224231E-1    6.764716720970723E-2    8.167645763950834E-1   -8.082349295989549E-2    8.169208610236117E-1   -9.060674770232266E-2    1.839179599531570E-1    7.041751289389750E-2
 8.863549969576446E6     1.851720293706925E-1    6.815762275773743E-2    8.169202540066892E-1   -8.159290548980869E-2    8.160635566146193E-1   -8.956132265608921E-2    1.843038089072858E-1    7.047400926509274E-2
 8.931177638406139E6     1.854802564312268E-1    6.820992393040856E-2    8.165575170123827E-1   -8.179176106052664E-2    8.157316202131274E-1   -8.973582878767028E-2    1.846267033364000E-1    7.054893405809735E-2
 8.999321297060097E6     1.857980673562321E-1    6.826352854403839E-2    8.162735050715012E-1   -8.193679926108291E-2    8.154141983406946E-1   -8.990924259218037E-2    1.849252913843427E-1    7.060278585440809E-2
 9.067984882469844E6     1.861161343329173E-1    6.831526122129587E-2    8.160218621700477E-1   -8.212157855731568E-2    8.150935601677449E-1   -9.009187080927006E-2    1.852603168108758E-1    7.067620034952189E-2
 9.137172361605095E6     1.864336685287425E-1    6.834965483069137E-2    8.156734773666952E-1   -8.232544621220954E-2    8.147267562317467E-1   -9.024895321795715E-2    1.855437719902602E-1    7.073319056457404E-2
 9.206887731702998E6     1.863794373967157E-1    6.950967202133872E-2    8.156389258800563E-1   -8.391217652476571E-2    8.143532250783416E-1   -8.796196944906967E-2    1.861280208308167E-1    7.070112841569481E-2
 9.277135020499127E6     1.866764678240237E-1    6.955372202924372E-2    8.153456083006869E-1   -8.412872951227156E-2    8.140814969790945E-1   -8.816989324612209E-2    1.864313674477562E-1    7.075901615138301E-2
 9.347918286460072E6     1.869969678962446E-1    6.962137073152655E-2    8.150688333582152E-1   -8.431829531645298E-2    8.137625890784900E-1   -8.834828100665967E-2    1.867468138080734E-1    7.082590250604205E-2
 9.419241619017981E6     1.873176257522274E-1    6.969125764495232E-2    8.147468855672055E-1   -8.447005821161938E-2    8.134814497652826E-1   -8.852034267118157E-2    1.870716065558570E-1    7.090064996919573E-2
 9.491109138806809E6     1.876179623647556E-1    6.973656176270235E-2    8.144311953228586E-1   -8.466176891328409E-2    8.131570165871626E-1   -8.869741265536801E-2    1.873791655350504E-1    7.096294290954432E-2
 9.563524997900363E6     1.879265979999252E-1    6.979721248654065E-2    8.141095020441721E-1   -8.484911714010121E-2    8.128576468863505E-1   -8.888493699784698E-2    1.876864633772384E-1    7.102691049364639E-2
 9.636493380052259E6     1.882400901607033E-1    6.986702842901563E-2    8.137922307683174E-1   -8.502847630042991E-2    8.125672206197818E-1   -8.906956939827812E-2    1.880097822813563E-1    7.110539691259150E-2
 9.710018500937525E6     1.885529097239316E-1    6.991632697607233E-2    8.135231243210020E-1   -8.524368998805662E-2    8.122574616284109E-1   -8.927850733979530E-2    1.883127058966970E-1    7.116890747187880E-2
 9.784104608396223E6     1.890268819942141E-1    6.921623794633330E-2    8.131341417812140E-1   -8.444163715567428E-2    8.118468987594127E-1   -9.109353897995798E-2    1.884137194493931E-1    7.131101097942304E-2
 9.858755982678859E6     1.893435870735684E-1    6.926950421741160E-2    8.128127902541634E-1   -8.463023912755072E-2    8.115366536843435E-1   -9.128874140899064E-2    1.887272292325381E-1    7.138428239752428E-2
 9.933976936693633E6     1.896524505322354E-1    6.931935713658398E-2    8.124852242797339E-1   -8.482263995227160E-2    8.112096316632834E-1   -9.148235982186598E-2    1.890285896793992E-1    7.145498243682957E-2
 1.000977181625571E7     1.899573059585583E-1    6.937236020900574E-2    8.122053475005511E-1   -8.500157834339045E-2    8.109261623435489E-1   -9.167057952996481E-2    1.893377504663478E-1    7.151952768079124E-2
 1.008614500033817E7     1.902697573628369E-1    6.942897630416844E-2    8.118766061640943E-1   -8.519508155277999E-2    8.105977943164215E-1   -9.185007423952496E-2    1.896464831501346E-1    7.159545140854735E-2
 1.016310090132507E7     1.905747917032486E-1    6.948638219881600E-2    8.115530629825066E-1   -8.540798872859444E-2    8.103392554939223E-1   -9.207364244560859E-2    1.899686558027312E-1    7.166542408041229E-2
 1.024064396526634E7     1.907053768512519E-1    7.031934687108812E-2    8.113183340254096E-1   -8.654637458543964E-2    8.101343086180711E-1   -9.062377242716083E-2    1.904706918687405E-1    7.165935225558093E-2
 1.031877867213467E7     1.910127498631933E-1    7.037962777391091E-2    8.109754526993018E-1   -8.671635626881270E-2    8.098271257616605E-1   -9.081114484639018E-2    1.907741062263655E-1    7.172390422437444E-2
 1.039750953608436E7     1.913416383744712E-1    7.045793187180230E-2    8.106942041316052E-1   -8.694073239521688E-2    8.095262235811045E-1   -9.100394949222949E-2    1.910936231402957E-1    7.180429110075418E-2
 1.047684110571204E7     1.916459194375774E-1    7.052099927553465E-2    8.104177424434640E-1   -8.713507868584938E-2    8.092106379702673E-1   -9.119874687734250E-2    1.913987209820973E-1    7.186481421853763E-2
 1.055677796431950E7     1.919540332069095E-1    7.057669335327804E-2    8.101414465664716E-1   -8.736319878457467E-2    8.089193295625453E-1   -9.144537984903214E-2    1.917077949782414E-1    7.193952496544252E-2
 1.063732473017859E7     1.932254326114626E-1    6.889729759556058E-2    8.092007730600762E-1   -8.550056697580498E-2    8.092234391629287E-1   -9.540443676167548E-2    1.916582553386087E-1    7.208255193939027E-2
 1.071848605679777E7     1.935394852849295E-1    6.894199010402359E-2    8.089068809921597E-1   -8.573532368173829E-2    8.089160594244764E-1   -9.562711675484492E-2    1.919522891888447E-1    7.214438363655452E-2
 1.080026663319129E7     1.933276122030853E-1    6.954099156783071E-2    8.090025275075194E-1   -8.654284198532172E-2    8.080022784591480E-1   -9.460020209012035E-2    1.923460491783327E-1    7.223012122343722E-2
 1.088267118414987E7     1.936424435165267E-1    6.959547246542823E-2    8.086285188752661E-1   -8.671571870996199E-2    8.077227858174172E-1   -9.481959002931514E-2    1.926624964087229E-1    7.230086298424110E-2
 1.096570447051370E7     1.945033123957519E-1    6.910443248185212E-2    8.079369702631538E-1   -8.633458963365342E-2    8.079862570506279E-1   -9.626773187729618E-2    1.928936513022827E-1    7.236363638519713E-2
 1.104937128944762E7     1.948155080254059E-1    6.916434632627924E-2    8.076180885074754E-1   -8.652781926294228E-2    8.076681844890596E-1   -9.651387964710995E-2    1.932002523811182E-1    7.243654825773013E-2
 1.113367647471805E7     1.951393530614680E-1    6.921802047847966E-2    8.073660715200833E-1   -8.672964148821925E-2    8.073810826103807E-1   -9.674589286842150E-2    1.935025638062237E-1    7.251476387740308E-2
 1.121862489697252E7     1.945482146728781E-1    7.159427200158179E-2    8.075360919097595E-1   -8.974943090777628E-2    8.068488940804097E-1   -9.204101674152870E-2    1.943841006934163E-1    7.235824727896967E-2
 1.130422146402085E7     1.948627067365380E-1    7.167542618076447E-2    8.072276554114596E-1   -8.996974394531190E-2    8.065652404110631E-1   -9.226410956589412E-2    1.946913607596779E-1    7.243898220757254E-2
 1.139047112111875E7     1.951781097596190E-1    7.174426800670783E-2    8.069076730469883E-1   -9.018264550331379E-2    8.062629967860950E-1   -9.244805656831687E-2    1.950040020775233E-1    7.251342751645620E-2
 1.147737885125368E7     1.954876913250010E-1    7.181166534208445E-2    8.066421750736671E-1   -9.041463366055291E-2    8.059313520383283E-1   -9.268132857451417E-2    1.953193940415957E-1    7.259764258480840E-2
 1.156494967543242E7     1.958012277264577E-1    7.188811575964685E-2    8.063309254676262E-1   -9.064269296939576E-2    8.056309053380077E-1   -9.288301202146408E-2    1.956081878267343E-1    7.266014117917780E-2
 1.165318865297152E7     1.960582911173232E-1    7.184375229384753E-2    8.060560066884223E-1   -9.064047784138657E-2    8.052137264923935E-1   -9.335628466618134E-2    1.958682119019939E-1    7.281063395728209E-2
 1.174210088178934E7     1.973321878220148E-1    6.963422167317340E-2    8.052509476691923E-1   -8.827613035273457E-2    8.052186026148564E-1   -9.830542742985547E-2    1.956688583176813E-1    7.305350485165048E-2
 1.183169149870061E7     1.976514399657680E-1    6.969641228721445E-2    8.049311735675653E-1   -8.854576073168180E-2    8.049202039357360E-1   -9.856070961972160E-2    1.959811586428684E-1    7.314213836717792E-2
 1.192196567971337E7     1.979840292759411E-1    6.975821092227696E-2    8.046317981230097E-1   -8.875518091010803E-2    8.046271248109261E-1   -9.880603792030711E-2    1.962982353291547E-1    7.321444375926242E-2
 1.201292864032780E7     1.982982487517349E-1    6.982573531545758E-2    8.042988174952391E-1   -8.898250406161666E-2    8.043059182435104E-1   -9.903891900321271E-2    1.966118303724260E-1    7.330315282898907E-2
 1.210458563583766E7     1.986098095980601E-1    6.988189208382684E-2    8.040017518286913E-1   -8.921405719595571E-2    8.039806685738961E-1   -9.926783601467727E-2    1.969116489401739E-1    7.338123986021403E-2
 1.219694196163385E7     1.989115807490921E-1    6.993080705542497E-2    8.036715334916709E-1   -8.943298112809746E-2    8.036569985639959E-1   -9.954047039498416E-2    1.972134451595236E-1    7.344649728469574E-2
 1.229000295351040E7     1.982174446612829E-1    7.160197309524724E-2    8.040298149465263E-1   -9.132233699049164E-2    8.026132516836912E-1   -9.645439139494912E-2    1.977810194080571E-1    7.352648127504202E-2
 1.238377398797275E7     1.985319710900206E-1    7.168391443065936E-2    8.037419004253856E-1   -9.157696863324297E-2    8.023325416111043E-1   -9.673471404884404E-2    1.980994452243053E-1    7.361258332561225E-2
 1.247826048254829E7     1.988353643350970E-1    7.175905860852370E-2    8.034756286731393E-1   -9.180680484470240E-2    8.020387286234948E-1   -9.693413860324598E-2    1.984061446981193E-1    7.369775515596977E-2
 1.257346789609938E7     1.992655665096024E-1    7.279108869751337E-2    8.029269305534310E-1   -9.333686374901824E-2    8.023663649875525E-1   -9.525416086638391E-2    1.990707201154544E-1    7.351076077879155E-2
 1.266940172913885E7     1.995732984188953E-1    7.286846587441667E-2    8.026005672967553E-1   -9.357369361331810E-2    8.020556366497885E-1   -9.546818973410763E-2    1.993874387587130E-1    7.359091113630657E-2
 1.276606752414753E7     1.998952115508783E-1    7.294963207457744E-2    8.023021563442934E-1   -9.380611552413620E-2    8.017531333675568E-1   -9.569648214784870E-2    1.996998969984153E-1    7.368022448688788E-2
 1.286347086589479E7     2.002004618238163E-1    7.302556346453720E-2    8.019637083861474E-1   -9.406200713611698E-2    8.014619330738957E-1   -9.595795752056974E-2    1.999989730715596E-1    7.376072012659932E-2
 1.296161738176090E7     2.005076035354900E-1    7.310554540202827E-2    8.016788883441861E-1   -9.433019145098578E-2    8.011689749563363E-1   -9.619910268853420E-2    2.003036594180430E-1    7.384842717219484E-2
 1.306051274206230E7     2.008208573787253E-1    7.318931027689671E-2    8.013427547819650E-1   -9.456019604957691E-2    8.008779254633146E-1   -9.646837536522712E-2    2.006244735895304E-1    7.394237267985672E-2
 1.316016266037924E7     2.011340742766255E-1    7.328095685802867E-2    8.010343152467371E-1   -9.482155745504155E-2    8.005608281470201E-1   -9.669949940347597E-2    2.009338497711265E-1    7.403120120938612E-2
 1.326057289388563E7     2.013446900680412E-1    7.315669471948157E-2    8.008442565459419E-1   -9.470190653316714E-2    8.000225443873086E-1   -9.740441557408779E-2    2.011172033751127E-1    7.424591242481270E-2
 1.336174924368203E7     2.016295988052749E-1    7.321893343737458E-2    8.005547822788389E-1   -9.498248046292641E-2    7.996649727710654E-1   -9.767522694498983E-2    2.014239338350062E-1    7.433707157921010E-2
 1.346369755513046E7     2.020488056265473E-1    7.352035579766411E-2    8.001304593671490E-1   -9.559286016177636E-2    7.996630804376973E-1   -9.746648078539030E-2    2.018529188461312E-1    7.429506683386995E-2
 1.356642371819227E7     2.023758823699868E-1    7.361782953390172E-2    7.998426745599428E-1   -9.583485455832581E-2    7.993681629623414E-1   -9.774289591631279E-2    2.021629769338086E-1    7.439383478168092E-2
 1.366993366776852E7     2.026912596011047E-1    7.370145778258730E-2    7.995377254590739E-1   -9.610833073740538E-2    7.990203553333519E-1   -9.798147093491513E-2    2.024607984719961E-1    7.447432423276265E-2
 1.377423338404255E7     2.029922437381302E-1    7.379556577932211E-2    7.992242851266015E-1   -9.637282315094634E-2    7.986888819099222E-1   -9.825721880162835E-2    2.027802088511447E-1    7.457731403681327E-2
 1.387932889282586E7     2.034053098151274E-1    7.227913968276649E-2    7.991017186028022E-1   -9.481564350110258E-2    7.976766049869842E-1   -1.016245701005965E-1    2.026139711362580E-1    7.494529619688897E-2
 1.398522626590596E7     2.046380628274472E-1    7.123524406875115E-2    7.982349793253007E-1   -9.403468152973844E-2    7.981578473999135E-1   -1.041681795834613E-1    2.027906402736430E-1    7.502836619861046E-2
 1.409193162139728E7     2.049490318824791E-1    7.129529193639940E-2    7.979465466827719E-1   -9.429785719736124E-2    7.978444187907014E-1   -1.044603910533491E-1    2.031069019474836E-1    7.512419931742371E-2
 1.419945112409473E7     2.043338649577260E-1    7.248874032860995E-2    7.981972666299932E-1   -9.563769516594731E-2    7.968058264457137E-1   -1.024634946032115E-1    2.035574749010874E-1    7.523487432112722E-2
 1.430779098582953E7     2.046491124254395E-1    7.257503628212326E-2    7.978698762396350E-1   -9.592376095301731E-2    7.964669942205018E-1   -1.027355301002500E-1    2.038654055765478E-1    7.533546297569159E-2
 1.441695746582855E7     2.049617147013445E-1    7.266496088647686E-2    7.975903168788621E-1   -9.620472401603493E-2    7.961758822935628E-1   -1.030069843111955E-1    2.041839779279698E-1    7.543463433810524E-2
 1.452695687107559E7     2.052831489256170E-1    7.274991573571586E-2    7.972994392581938E-1   -9.650932461963467E-2    7.958773984952766E-1   -1.033030179907468E-1    2.044881817506122E-1    7.554055891949751E-2
 1.463779555667585E7     2.055923051363350E-1    7.284574953947609E-2    7.969919311652044E-1   -9.678978249405006E-2    7.955569772183206E-1   -1.035864987038001E-1    2.047947929478938E-1    7.562772370952847E-2
 1.474947992622320E7     2.059115508292329E-1    7.293768324839514E-2    7.966990341336684E-1   -9.706983395714075E-2    7.952618288295831E-1   -1.038778142400125E-1    2.051057411739283E-1    7.572852903646560E-2
 1.486201643216998E7     2.059663065161534E-1    7.400018168686055E-2    7.964270708389470E-1   -9.825626706351376E-2    7.951184084562527E-1   -1.023764515093950E-1    2.056175937676135E-1    7.579539425612833E-2
 1.497541157619987E7     2.065338738174219E-1    7.310383631786770E-2    7.960830914219373E-1   -9.763266535108493E-2    7.946312180711096E-1   -1.044619340573330E-1    2.057303268514115E-1    7.593508059964539E-2
 1.508967190960350E7     2.068435946656158E-1    7.320333262439332E-2    7.957621533422757E-1   -9.791887019829523E-2    7.943426423733601E-1   -1.047464403188934E-1    2.060477830867055E-1    7.603098561992856E-2
 1.520480403365694E7     2.071706230180598E-1    7.327965991664037E-2    7.954573170094975E-1   -9.820801349845536E-2    7.939852549207004E-1   -1.050571803281126E-1    2.063388384948463E-1    7.612909474075685E-2
 1.532081460000315E7     2.074740323933398E-1    7.337119293745704E-2    7.951510918768773E-1   -9.853305163998102E-2    7.936932453445983E-1   -1.053638759479241E-1    2.066563775142408E-1    7.622027113531744E-2
 1.543771031103615E7     2.077883322205964E-1    7.345352000073967E-2    7.948641631007424E-1   -9.881162360530775E-2    7.933840659720943E-1   -1.056590545661352E-1    2.069684857489282E-1    7.632712823997088E-2
 1.555549792028828E7     2.081046508368529E-1    7.354277964005362E-2    7.945533068446948E-1   -9.912897987335044E-2    7.930911139749702E-1   -1.059812899831711E-1    2.072807992929645E-1    7.644079262327982E-2
 1.567418423282054E7     2.081341750177751E-1    7.464742783999362E-2    7.942767504407828E-1   -1.003364730390423E-1    7.929583035274750E-1   -1.044723342641594E-1    2.077742092340754E-1    7.650328119007456E-2
 1.579377610561541E7     2.084497099259480E-1    7.474704645383802E-2    7.939639797986704E-1   -1.006385575762413E-1    7.926447056247220E-1   -1.047697696453752E-1    2.080844292803271E-1    7.660878805522180E-2
 1.591428044797338E7     2.087526111040420E-1    7.484468379265621E-2    7.936672558385279E-1   -1.009775174522833E-1    7.923593719815148E-1   -1.050875935013563E-1    2.083969055624202E-1    7.672594298856482E-2
 1.603570422191187E7     2.090679677578655E-1    7.493992905378982E-2    7.933449016795158E-1   -1.013004787141990E-1    7.920289169241190E-1   -1.054035103551153E-1    2.087062833307141E-1    7.682866434148088E-2
 1.615805444256752E7     2.093723388873599E-1    7.503588912724102E-2    7.930425177097927E-1   -1.015739032944974E-1    7.917286112004838E-1   -1.056919773533081E-1    2.090165227826634E-1    7.693961643748162E-2
 1.628133817860163E7     2.096862808918713E-1    7.513313535668806E-2    7.927607403188222E-1   -1.019007487902924E-1    7.914409636384803E-1   -1.060229350403548E-1    2.093334314315120E-1    7.705329152065298E-2
 1.640556255260818E7     2.100531438217767E-1    7.485000886192217E-2    7.924576393301530E-1   -1.018730099138628E-1    7.909785272936445E-1   -1.070365023446996E-1    2.095662463059465E-1    7.720267388426950E-2
 1.653073474152580E7     2.103712041315687E-1    7.494063340307935E-2    7.921757379525707E-1   -1.022064455321500E-1    7.906812681411327E-1   -1.073287245623557E-1    2.098672982295784E-1    7.729951873963235E-2
 1.665686197705204E7     2.106862875887161E-1    7.504024158304023E-2    7.918583289365732E-1   -1.025149468153197E-1    7.903788677507423E-1   -1.076549468799063E-1    2.101823905247516E-1    7.742123070894194E-2
 1.678395154606132E7     2.109993806432361E-1    7.514759023911677E-2    7.915392272749212E-1   -1.028469848763131E-1    7.900537651133818E-1   -1.080095706995111E-1    2.104820111184462E-1    7.753134683588345E-2
 1.691201079102603E7     2.115633712011034E-1    7.460707399620464E-2    7.912213725284933E-1   -1.026324681776018E-1    7.896998484360643E-1   -1.094747313772330E-1    2.106995847245526E-1    7.765611672471745E-2
 1.704104711044038E7     2.118651885495769E-1    7.470647760151899E-2    7.909160263518645E-1   -1.029607995437274E-1    7.894038144535320E-1   -1.097976552510304E-1    2.110057818010212E-1    7.777259046156201E-2
 1.717106795924834E7     2.121883381720360E-1    7.480978460137915E-2    7.906037453259475E-1   -1.032936690181424E-1    7.890896775643710E-1   -1.101040157211982E-1    2.113202161025935E-1    7.789266825012295E-2
 1.730208084927390E7     2.135735258196675E-1    7.368650779714332E-2    7.898015086390340E-1   -1.026006990333451E-1    7.895810225496579E-1   -1.128626391266986E-1    2.115293412158575E-1    7.798522616145014E-2
 1.743409334965526E7     2.128244077563106E-1    7.500749069016285E-2    7.900120279806010E-1   -1.039809355474716E-1    7.884902803730278E-1   -1.108327724682276E-1    2.119563196587377E-1    7.814464218351368E-2
 1.756711308728221E7     2.131433984106396E-1    7.512602191657131E-2    7.896984790769597E-1   -1.043438935400311E-1    7.881581834823045E-1   -1.111923222572305E-1    2.122607464072552E-1    7.825632450118068E-2
 1.770114774723655E7     2.134587153924039E-1    7.523104911025097E-2    7.893968404330994E-1   -1.046788630904120E-1    7.878752195793115E-1   -1.115206161283949E-1    2.125905137774648E-1    7.839579092857929E-2
 1.783620507323623E7     2.135774563378066E-1    7.721594895079481E-2    7.888776051985102E-1   -1.067402798194408E-1    7.883170763162506E-1   -1.086654477281154E-1    2.133529440685735E-1    7.827679027453444E-2
 1.797229286808272E7     2.137802173915016E-1    7.706628171392603E-2    7.886696556354306E-1   -1.067482220384390E-1    7.877688258188950E-1   -1.094917700937354E-1    2.135382589347324E-1    7.853397090819338E-2
 1.810941899411174E7     2.141915360960729E-1    7.745371603541262E-2    7.882277222136180E-1   -1.074541115949215E-1    7.876907832124869E-1   -1.093572591562439E-1    2.139778391284194E-1    7.852316833448630E-2
 1.824759137364766E7     2.145127110739912E-1    7.756538313804087E-2    7.879352606930283E-1   -1.078343406006143E-1    7.873852023568987E-1   -1.097300813991380E-1    2.142830876027115E-1    7.864771524249434E-2
 1.838681798946100E7     2.148347158466517E-1    7.770038021503640E-2    7.876431641024665E-1   -1.081581257561051E-1    7.870642163728343E-1   -1.100623136528542E-1    2.145922156756294E-1    7.877370124338455E-2
 1.852710688522972E7     2.157081769779342E-1    7.534576190994523E-2    7.874630272977253E-1   -1.063882668822256E-1    7.861500049655383E-1   -1.146516306447519E-1    2.143932910692667E-1    7.911343318956089E-2
 1.866846616600409E7     2.156618009492846E-1    7.600482142787657E-2    7.872815435296096E-1   -1.071979930253224E-1    7.856804428952854E-1   -1.140255862902251E-1    2.147603850058147E-1    7.925732353218543E-2
 1.881090399867451E7     2.157111565669779E-1    7.792572858879734E-2    7.867341771731770E-1   -1.091368626344571E-1    7.860489949665435E-1   -1.113789990708787E-1    2.154778096044334E-1    7.924119221962549E-2
 1.895442861244394E7     2.160257314575757E-1    7.806352748709441E-2    7.864146578877657E-1   -1.094944296611413E-1    7.857437720168968E-1   -1.117623266198586E-1    2.157978489907713E-1    7.937459083775893E-2
 1.909904829930285E7     2.163375496133067E-1    7.818788029453992E-2    7.861134107025787E-1   -1.098792022078548E-1    7.854338228529831E-1   -1.121119818049040E-1    2.161052426357420E-1    7.950777325039117E-2
 1.924477141450845E7     2.166565366626794E-1    7.832064513895648E-2    7.858220420146612E-1   -1.102844749337778E-1    7.851336065318293E-1   -1.124717620960491E-1    2.164145779169218E-1    7.963944058335726E-2
 1.939160637706759E7     2.169650874229876E-1    7.844989713128596E-2    7.855229862695400E-1   -1.106434935000895E-1    7.848076531864777E-1   -1.128808978235533E-1    2.167352859744761E-1    7.978135132530331E-2
 1.953956167022271E7     2.172847633063874E-1    7.856935702091708E-2    7.852157592555118E-1   -1.110353611706536E-1    7.845137924492116E-1   -1.132689053224167E-1    2.170502008454762E-1    7.992633318968856E-2
 1.968864584194249E7     2.175561296088856E-1    7.855275376372739E-2    7.849541082376478E-1   -1.112328142174664E-1    7.840340307987501E-1   -1.139170407741227E-1    2.172836094326349E-1    8.010194107279950E-2
 1.983886750541528E7     2.185917927736203E-1    7.641700153122140E-2    7.846602718089458E-1   -1.098415112693528E-1    7.833015629168065E-1   -1.181009238043283E-1    2.172291555218869E-1    8.032215107850381E-2
 1.999023533954688E7     2.189105059988558E-1    7.654871561281636E-2    7.843538347699257E-1   -1.102692236108408E-1    7.830064408831540E-1   -1.185020836715797E-1    2.175423241353520E-1    8.046119268898949E-2
 2.014275808946211E7     2.192361380602212E-1    7.666407424300310E-2    7.840641186606370E-1   -1.106406352719702E-1    7.826818101431838E-1   -1.189157048126992E-1    2.178629135414261E-1    8.060810777696971E-2
 2.029644456700960E7     2.195607795232322E-1    7.680400455917441E-2    7.837700736924693E-1   -1.110706153393228E-1    7.823671056167459E-1   -1.193382980715085E-1    2.181753721718269E-1    8.074223330921788E-2
 2.045130365127147E7     2.198940327925732E-1    7.692733748614371E-2    7.834738247989411E-1   -1.114557135387556E-1    7.820525692253796E-1   -1.197423544948231E-1    2.184986783727232E-1    8.089092839026338E-2
 2.060734428907584E7     2.202211139216460E-1    7.705835300850521E-2    7.831571973566550E-1   -1.118782312632630E-1    7.817479096073948E-1   -1.201278943092954E-1    2.188148584419963E-1    8.104119775686117E-2
 2.076457549551392E7     2.205312767817448E-1    7.716222615961485E-2    7.828215629080105E-1   -1.122985472719215E-1    7.814086922728759E-1   -1.205572855741444E-1    2.191228255414821E-1    8.118145269855945E-2
 2.092300635446098E7     2.208592702841352E-1    7.730814314615041E-2    7.825111203535393E-1   -1.127075594174360E-1    7.810860114718575E-1   -1.209721643759842E-1    2.194439385796189E-1    8.132662461159307E-2
 2.108264601910070E7     2.211828989245199E-1    7.743711005747132E-2    7.822084608464260E-1   -1.131141695646191E-1    7.807730604452088E-1   -1.214020920297228E-1    2.197577016926556E-1    8.148047276925843E-2
 2.124350371245464E7     2.208238264951345E-1    8.021316226483921E-2    7.816925342959253E-1   -1.156004534106175E-1    7.811594382377793E-1   -1.174890337281262E-1    2.205769080660870E-1    8.145122725127732E-2
 2.140558872791451E7     2.211517226338473E-1    8.037754325172045E-2    7.813957783582502E-1   -1.160529384503323E-1    7.808388830430126E-1   -1.179060450885384E-1    2.208951025134836E-1    8.159404219549356E-2
 2.156891042977939E7     2.214539080590392E-1    7.915640940355066E-2    7.813732772633829E-1   -1.153331881347311E-1    7.797338116642893E-1   -1.204630176352721E-1    2.208478899012808E-1    8.194321710314578E-2
 2.173347825379676E7     2.217769283246852E-1    7.928906488720726E-2    7.810755769541536E-1   -1.157683979405150E-1    7.794159724098531E-1   -1.208848637119692E-1    2.211708684101353E-1    8.209940467977336E-2
 2.189930170770744E7     2.220946758157219E-1    7.944772378552524E-2    7.807334688188244E-1   -1.162000374548721E-1    7.790970539620121E-1   -1.213569213793473E-1    2.214944187070064E-1    8.226254261561809E-2
 2.206639037179505E7     2.224199861975150E-1    7.958405238253426E-2    7.804384007227644E-1   -1.166405597262224E-1    7.787605849659255E-1   -1.218003960650441E-1    2.218069228218759E-1    8.242009151458285E-2
 2.223475389943947E7     2.227380266458372E-1    8.110277736110251E-2    7.798052196966033E-1   -1.181942332329711E-1    7.792624878771137E-1   -1.201138945995304E-1    2.225050427491191E-1    8.240894225662571E-2
 2.240440201767448E7     2.230679132869879E-1    8.126316976494381E-2    7.794924817342196E-1   -1.186523844109724E-1    7.789482368121369E-1   -1.205340843625313E-1    2.228223009188988E-1    8.255425666849715E-2
 2.257534452774993E7     2.233872216666304E-1    8.142061400497445E-2    7.791635612843212E-1   -1.190867362491845E-1    7.786395626536052E-1   -1.209648619996028E-1    2.231417666366061E-1    8.271956172893066E-2
 2.274759130569773E7     2.237139943357107E-1    8.157526650916570E-2    7.788458314387990E-1   -1.195537708145173E-1    7.782989306353133E-1   -1.214471719005081E-1    2.234661117812488E-1    8.289246156514443E-2
 2.292115230290256E7     2.240351578642366E-1    8.173240164564342E-2    7.785466367133640E-1   -1.200077337084699E-1    7.780030662745288E-1   -1.219126999843331E-1    2.237926002913260E-1    8.304732844627921E-2
 2.309603754667697E7     2.243561898768092E-1    8.190516041683368E-2    7.782304261855776E-1   -1.204758979212314E-1    7.776751754017129E-1   -1.223516692609268E-1    2.241044291958453E-1    8.321200051191827E-2
 2.327225714084021E7     2.246722056549341E-1    8.204238868480211E-2    7.778944727016371E-1   -1.209487154438582E-1    7.773549366147264E-1   -1.228242194383257E-1    2.244346639895444E-1    8.338710418652394E-2
 2.344982126630262E7     2.249203659824819E-1    8.129589007171903E-2    7.778604544081441E-1   -1.206353045649219E-1    7.763817067145958E-1   -1.247126156698928E-1    2.244690518555514E-1    8.372252545454319E-2
 2.362874018165328E7     2.252458767816931E-1    8.144045154683814E-2    7.775259908631501E-1   -1.210906589467754E-1    7.760488265602274E-1   -1.252015772811505E-1    2.247919115134956E-1    8.391526998580157E-2
 2.380902422375290E7     2.260016031930403E-1    8.039409440201219E-2    7.772679825374298E-1   -1.207614871809741E-1    7.754676492083348E-1   -1.275848897191949E-1    2.249667952124080E-1    8.406553252092193E-2
 2.399068380833123E7     2.263300015548840E-1    8.054708058683870E-2    7.769471431139424E-1   -1.212388696706771E-1    7.751409262339056E-1   -1.280808237811117E-1    2.252938546090583E-1    8.423906597544645E-2
 2.417372943058824E7     2.262212205846438E-1    8.194213313962795E-2    7.765802448046657E-1   -1.225424699493578E-1    7.750472400529197E-1   -1.266499271179106E-1    2.257697608152327E-1    8.443126931553913E-2
 2.435817166580120E7     2.265489782451678E-1    8.210556373826504E-2    7.762430793525801E-1   -1.230338085782408E-1    7.747315545297090E-1   -1.270927774560281E-1    2.260964973540980E-1    8.460691734964013E-2
 2.454402116993507E7     2.273286372204639E-1    8.104474355485236E-2    7.760025804062075E-1   -1.227094684987490E-1    7.741589140526931E-1   -1.295449214289321E-1    2.262715074794375E-1    8.477195629705885E-2
 2.473128868025839E7     2.276627862712424E-1    8.119384295627848E-2    7.756833554937236E-1   -1.232295764948551E-1    7.738152763618847E-1   -1.300368162147666E-1    2.265958977034059E-1    8.495764567369408E-2
 2.491998501596375E7     2.279884410285265E-1    8.136849545106971E-2    7.753394048390156E-1   -1.237349739103867E-1    7.734797308296977E-1   -1.305540322612475E-1    2.269282819876212E-1    8.513691840033377E-2
 2.511012107879237E7     2.279313810910465E-1    8.375803458673495E-2    7.746438834157060E-1   -1.257937327301461E-1    7.740770335526457E-1   -1.276879336552233E-1    2.276951125028894E-1    8.517070428444391E-2
 2.530170785366461E7     2.282633118311384E-1    8.393526294500871E-2    7.743192836321668E-1   -1.262896943029489E-1    7.737469234630577E-1   -1.281810003412687E-1    2.280188006104159E-1    8.534705700610315E-2
 2.549475640931404E7     2.285973599758382E-1    8.412581948598798E-2    7.739980206370152E-1   -1.267712179380909E-1    7.734165354376596E-1   -1.286800371335023E-1    2.283452532772960E-1    8.553715955137788E-2
 2.568927789892715E7     2.289272585412500E-1    8.430172398390305E-2    7.736678245335309E-1   -1.273208707827093E-1    7.730897059966525E-1   -1.292160237820938E-1    2.286809012796272E-1    8.574298955723740E-2
 2.588528356078789E7     2.291689975286632E-1    8.414954269387766E-2    7.734743110089604E-1   -1.275193456084189E-1    7.724406808709738E-1   -1.302394297561122E-1    2.288656651270227E-1    8.603624767782997E-2
 2.608278471892660E7     2.295830359225360E-1    8.466388683880535E-2    7.729856079173935E-1   -1.283468835572802E-1    7.724231525206605E-1   -1.302417539538802E-1    2.293467094221054E-1    8.613307350169121E-2
 2.628179278377446E7     2.299232030667503E-1    8.484737608189384E-2    7.726593870158498E-1   -1.288799608911199E-1    7.720871424052274E-1   -1.307663740873246E-1    2.296820966310312E-1    8.631695683591495E-2
 2.648231925282269E7     2.302146033638150E-1    8.404324581993602E-2    7.726266703765462E-1   -1.286793712135925E-1    7.710819953402808E-1   -1.327715057144940E-1    2.297284897232769E-1    8.667766646781960E-2
 2.668437571128672E7     2.305411075844629E-1    8.423745022938003E-2    7.723187220505223E-1   -1.291902000529281E-1    7.707620170605272E-1   -1.332907274647824E-1    2.300631690463354E-1    8.689009047326487E-2
 2.688797383277575E7     2.308803807814988E-1    8.441586778283526E-2    7.719590456465463E-1   -1.297398883512614E-1    7.703907133013933E-1   -1.338415832319564E-1    2.303988013634115E-1    8.708794092621265E-2
 2.709312537996687E7     2.311874597135086E-1    8.527429971535783E-2    7.714772304743036E-1   -1.307234642443838E-1    7.704365367952158E-1   -1.334420959897354E-1    2.308924617207642E-1    8.723050050166462E-2
 2.729984220528475E7     2.315189487162556E-1    8.547234318566983E-2    7.711481049253182E-1   -1.312902602541708E-1    7.701166257304957E-1   -1.340031199873222E-1    2.312286475249035E-1    8.744591388066889E-2
 2.750813625158667E7     2.318609073709272E-1    8.567086934883537E-2    7.707940101364501E-1   -1.318538599668984E-1    7.697683524699087E-1   -1.345546203441182E-1    2.315697304382932E-1    8.765014055559750E-2
 2.771801955285188E7     2.331965228387854E-1    8.326156357142629E-2    7.706404490438520E-1   -1.308668744609770E-1    7.689042270646471E-1   -1.391022730498190E-1    2.316051915452005E-1    8.784923568780924E-2
 2.792950423487763E7     2.327084247005505E-1    8.487960132722229E-2    7.703466248497234E-1   -1.322712053130783E-1    7.684892814644193E-1   -1.373708567214964E-1    2.320408777448145E-1    8.809983069633079E-2
 2.814260251597910E7     2.330544661782407E-1    8.508519170692516E-2    7.700135831567360E-1   -1.328432607481088E-1    7.681503404284657E-1   -1.379411045143387E-1    2.323823291265109E-1    8.829785097732201E-2
 2.835732670769557E7     2.334038686597627E-1    8.528103161608373E-2    7.696752048947602E-1   -1.334325610668423E-1    7.678052253148264E-1   -1.385353253359123E-1    2.327204547182034E-1    8.851314424596093E-2
 2.857368921550186E7     2.336480821203787E-1    8.703503967838098E-2    7.689745407945877E-1   -1.350298803002069E-1    7.683584502549133E-1   -1.368883632860151E-1    2.334298305123812E-1    8.858157028746869E-2
 2.879170253952448E7     2.339959945819633E-1    8.724732031284722E-2    7.686552489197964E-1   -1.355878600052592E-1    7.679936926406995E-1   -1.374819846778445E-1    2.337714677606111E-1    8.879402602716630E-2
 2.901137927526460E7     2.343321765731964E-1    8.745199672381444E-2    7.682808023790572E-1   -1.361746943244680E-1    7.676651643449612E-1   -1.380702130448388E-1    2.341210436945007E-1    8.901991007957992E-2
 2.923273211432508E7     2.346869258195200E-1    8.765554922868801E-2    7.679330991872814E-1   -1.367836448761195E-1    7.673261912440862E-1   -1.386831951908162E-1    2.344629045432315E-1    8.924538705547098E-2
 2.945577384514398E7     2.350287413726878E-1    8.787958866531906E-2    7.676066054496236E-1   -1.373933624570961E-1    7.669887319867290E-1   -1.392594061279491E-1    2.348062226414799E-1    8.947205291905375E-2
 2.968051735373363E7     2.353704298791693E-1    8.809169778336587E-2    7.672492959924182E-1   -1.379906093616687E-1    7.666249669191175E-1   -1.398535736296788E-1    2.351476863899936E-1    8.969381528993781E-2
 2.990697562442441E7     2.356367664923018E-1    8.765834543252414E-2    7.671302032096695E-1   -1.381424830877254E-1    7.657560114912202E-1   -1.413981977387571E-1    2.352815614007825E-1    9.005222113271991E-2
 3.013516174061584E7     2.359814924856243E-1    8.818026285474534E-2    7.667112737341834E-1   -1.389214571167882E-1    7.656120671498275E-1   -1.416031863467488E-1    2.357100219823206E-1    9.024792649961588E-2
 3.036508888553168E7     2.363232119483654E-1    8.811205642664902E-2    7.664424532525245E-1   -1.393591124459844E-1    7.650519206039157E-1   -1.426468370287297E-1    2.359839532402307E-1    9.051207981674515E-2
 3.059677034298190E7     2.366823557526484E-1    8.832791072862255E-2    7.660849292341425E-1   -1.399967721143993E-1    7.646888288790378E-1   -1.432708807724653E-1    2.363297925273350E-1    9.074475017924888E-2
 3.083021949813037E7     2.391055223210231E-1    8.532899767272019E-2    7.657115867887102E-1   -1.388597273187589E-1    7.645461483106381E-1   -1.491338783206339E-1    2.364738852431508E-1    9.087867949086081E-2
 3.106544983826748E7     2.394756187968715E-1    8.554682510990197E-2    7.653992274027555E-1   -1.394950257904211E-1    7.641754889901998E-1   -1.497865072555947E-1    2.368346653208710E-1    9.110504096270727E-2
 3.130247495359022E7     2.378133259591034E-1    8.965907957120881E-2    7.647808274406382E-1   -1.423510754223845E-1    7.641141110697678E-1   -1.442454069359886E-1    2.376190219309279E-1    9.133784605692295E-2
 3.154130853798668E7     2.381702402418727E-1    8.988292167383048E-2    7.644247436214466E-1   -1.429903015749252E-1    7.637843818888930E-1   -1.449083316786523E-1    2.379705504960820E-1    9.158264219144815E-2
 3.178196438982744E7     2.385189544839429E-1    9.012451738764890E-2    7.640777342315842E-1   -1.436270313289497E-1    7.634308307368521E-1   -1.455473573653391E-1    2.383167296988403E-1    9.183618626524245E-2
 3.202445641276293E7     2.388076306010799E-1    8.999928298263565E-2    7.638533255529253E-1   -1.440176249689580E-1    7.627187687870708E-1   -1.467599389455836E-1    2.385397908976833E-1    9.216850575388374E-2
 3.226879861652631E7     2.392396812594536E-1    9.060906233944993E-2    7.633524030039933E-1   -1.449418644386324E-1    7.626834973949812E-1   -1.469006477683442E-1    2.390384978532906E-1    9.231735799642383E-2
 3.251500511774320E7     2.406375667467491E-1    8.771494257721028E-2    7.634266706423268E-1   -1.439846822979521E-1    7.613695269573223E-1   -1.521519274094183E-1    2.389766843768795E-1    9.261246886041212E-2
 3.276309014074709E7     2.409999638254100E-1    8.794575213375974E-2    7.630538705059702E-1   -1.446321762174818E-1    7.609878481011249E-1   -1.528349563572735E-1    2.393334514076361E-1    9.286968556438133E-2
 3.301306801840112E7     2.413618405717490E-1    8.817217783981196E-2    7.626592788286169E-1   -1.453689869368148E-1    7.606028113142094E-1   -1.535556834064560E-1    2.396946994938909E-1    9.312617530024551E-2
 3.326495319292643E7     2.417306887990945E-1    8.842584193924487E-2    7.623230394023429E-1   -1.460436087726742E-1    7.602174024102786E-1   -1.542542745898886E-1    2.400569487879041E-1    9.338519003162726E-2
 3.351876021673609E7     2.410479923905264E-1    9.183458823578766E-2    7.615255306092040E-1   -1.483762096939513E-1    7.608167559915359E-1   -1.502964958062273E-1    2.408623949305179E-1    9.359262239778487E-2
 3.377450375327612E7     2.414001701187513E-1    9.208842531512093E-2    7.611478377429027E-1   -1.490686434116589E-1    7.604248052016518E-1   -1.509819138139159E-1    2.412270387918487E-1    9.384979118408776E-2
 3.403219857787284E7     2.416952489446164E-1    9.165688542210376E-2    7.609767764214294E-1   -1.493182843600797E-1    7.595122316328023E-1   -1.526136171674038E-1    2.413715062265070E-1    9.422850784744569E-2
 3.429185957858586E7     2.420579599610548E-1    9.190345729962254E-2    7.605888133204316E-1   -1.500612219858005E-1    7.591106656276135E-1   -1.533063039385573E-1    2.417425715118361E-1    9.448190449530397E-2
 3.455350175706909E7     2.424193382637290E-1    9.216460776142717E-2    7.602102901743630E-1   -1.507716283252127E-1    7.587408888082746E-1   -1.540205120633554E-1    2.421007662955447E-1    9.476301389565892E-2
 3.481714022943672E7     2.439276264140699E-1    8.991042108779594E-2    7.600497540942405E-1   -1.503514686910235E-1    7.578880527538236E-1   -1.584957141585740E-1    2.422760503947469E-1    9.494122617505425E-2
 3.508279022713681E7     2.442998492347397E-1    9.016774350973161E-2    7.596589019099781E-1   -1.510942095985227E-1    7.574760243956770E-1   -1.592414072935550E-1    2.426436018831890E-1    9.521543922661323E-2
 3.535046709783159E7     2.446560266121395E-1    9.044892009738997E-2    7.592963821875299E-1   -1.518213525012395E-1    7.570765066913351E-1   -1.599854765547760E-1    2.430071964152468E-1    9.549581606333768E-2
 3.562018630628331E7     2.450236917740109E-1    9.070553159644326E-2    7.588840552999460E-1   -1.525846771314491E-1    7.566734162359000E-1   -1.607197058344484E-1    2.433767423079695E-1    9.577696076388270E-2
 3.589196343524875E7     2.453900017002384E-1    9.099366821331423E-2    7.584833603646033E-1   -1.533126770434377E-1    7.562600692347086E-1   -1.614762580234157E-1    2.437430317388602E-1    9.607379576031222E-2
 3.616581418637872E7     2.457778790303660E-1    9.128141907671938E-2    7.580933930758953E-1   -1.540434731706362E-1    7.558513584509695E-1   -1.622140181572972E-1    2.441257438503517E-1    9.637191167597603E-2
 3.644175438112541E7     2.461682862278939E-1    9.156861970570525E-2    7.577339067527219E-1   -1.548036569004598E-1    7.554802083496384E-1   -1.629650072822763E-1    2.445187621703865E-1    9.668541645876576E-2
 3.671979996165685E7     2.456363755327800E-1    9.339701426291691E-2    7.572677253937951E-1   -1.562490375700657E-1    7.551166679841309E-1   -1.612881971386076E-1    2.449765290915123E-1    9.706130249097415E-2
 3.699996699177712E7     2.460253138411564E-1    9.366933960547073E-2    7.568722677396799E-1   -1.570263048085478E-1    7.547141526603196E-1   -1.620278789850927E-1    2.453731643505723E-1    9.734772593811579E-2
 3.728227165785540E7     2.464134732983422E-1    9.394356304748325E-2    7.564834415067871E-1   -1.578119827960687E-1    7.543090365892164E-1   -1.628046399820245E-1    2.457650553964144E-1    9.763855445875266E-2
 3.756673026976037E7     2.468068164574355E-1    9.422316394766483E-2    7.560943435634754E-1   -1.586075492361158E-1    7.538956675585941E-1   -1.635852823256117E-1    2.461645165968583E-1    9.793260648812942E-2
 3.785335926180276E7     2.470338138413612E-1    9.621649583643026E-2    7.552740019247973E-1   -1.602118457574819E-1    7.545666329491163E-1   -1.620483157485598E-1    2.469116588324238E-1    9.813595695710127E-2
 3.814217519368506E7     2.474346491768531E-1    9.650395564752977E-2    7.548602405298962E-1   -1.610258706564195E-1    7.541351930950603E-1   -1.628790406772216E-1    2.473237190022157E-1    9.842509006654618E-2
 3.843319475145779E7     2.478133902675925E-1    9.679507445040975E-2    7.544590458742453E-1   -1.618045858937540E-1    7.537291908295334E-1   -1.636594069205065E-1    2.477162518781668E-1    9.873166347030275E-2
 3.872643474848381E7     2.482180547108166E-1    9.708654745021372E-2    7.540549887582699E-1   -1.626132763589857E-1    7.533278115751700E-1   -1.644621623968711E-1    2.481169694991253E-1    9.903482665837669E-2
 3.902191212640966E7     2.486226246378469E-1    9.738358316552957E-2    7.536280272148840E-1   -1.634037415870406E-1    7.529017813989883E-1   -1.652759381008374E-1    2.485133116575851E-1    9.935068337519859E-2
 3.931964395614420E7     2.490148840341158E-1    9.768498476236809E-2    7.532157315965682E-1   -1.642391919420682E-1    7.524781647159089E-1   -1.661045066549750E-1    2.489209908860200E-1    9.966470405276098E-2
 3.961964743884522E7     2.493444873658935E-1    9.758235861675395E-2    7.529308121145281E-1   -1.648288564223419E-1    7.516648164999096E-1   -1.674889880875177E-1    2.491752843576325E-1    1.000536687179208E-1
 3.992193990691278E7     2.497574281939928E-1    9.787287912092826E-2    7.524974515201764E-1   -1.656561118818707E-1    7.512414903100326E-1   -1.682906863168745E-1    2.495701561127203E-1    1.003806420457802E-1
 4.022653882499073E7     2.503836084272887E-1    9.685471655204667E-2    7.523401983104117E-1   -1.659601217098049E-1    7.500760284517086E-1   -1.709454669318399E-1    2.497549150130616E-1    1.006985149506242E-1
 4.053346179097611E7     2.507892379352760E-1    9.716113080050422E-2    7.519053014177645E-1   -1.668040726380259E-1    7.496374451844420E-1   -1.718069261147163E-1    2.501685763535143E-1    1.010165309157202E-1
 4.084272653703488E7     2.511956627436042E-1    9.748362427860761E-2    7.514834237183770E-1   -1.676538221658141E-1    7.491704800884790E-1   -1.726912440588361E-1    2.505855133668456E-1    1.013399868315899E-1
 4.115435093062763E7     2.520241698593522E-1    9.687737240475436E-2    7.511230779135355E-1   -1.681919820052106E-1    7.485499349172039E-1   -1.749127941060943E-1    2.509504426605673E-1    1.016144670136363E-1
 4.146835297554084E7     2.524345079888072E-1    9.719064025307965E-2    7.506630099830239E-1   -1.690816562302582E-1    7.480920695783400E-1   -1.757675176668080E-1    2.513644036640321E-1    1.019411553970537E-1
 4.178475081292742E7     2.544407115689769E-1    9.587194527211713E-2    7.501698558118364E-1   -1.692670173534726E-1    7.483126872256980E-1   -1.796332448694789E-1    2.518062479175293E-1    1.021616811529313E-1
 4.210356272235513E7     2.548484725946318E-1    9.619044732035111E-2    7.496990281415752E-1   -1.701819287580094E-1    7.478360494648136E-1   -1.805375367501365E-1    2.522224490475262E-1    1.024914894831114E-1
 4.242480712286174E7     2.552611836461269E-1    9.649573918026820E-2    7.492504644161802E-1   -1.710499883121818E-1    7.473705138286230E-1   -1.814670162985566E-1    2.526454324967972E-1    1.028215912043650E-1
 4.274850257402029E7     2.556919850550080E-1    9.682065766081654E-2    7.487983105396048E-1   -1.719576212197141E-1    7.469073573404307E-1   -1.823674604220175E-1    2.530676475050733E-1    1.031604194016104E-1
 4.307466777701053E7     2.539220530979667E-1    1.014767009069092E-1    7.479298373418040E-1   -1.745552173096913E-1    7.471337754459653E-1   -1.765094331795921E-1    2.538986206244228E-1    1.036214962429064E-1
 4.340332157569963E7     2.565234806033782E-1    9.748018665553115E-2    7.478787355325689E-1   -1.737959118335687E-1    7.459491400988918E-1   -1.841871742373072E-1    2.539260208857687E-1    1.038538362339263E-1
 4.373448295773120E7     2.569535426914310E-1    9.780362149800097E-2    7.473924187457750E-1   -1.746961188282533E-1    7.454664813506976E-1   -1.851287594594104E-1    2.543711194910113E-1    1.042020663946971E-1
 4.406817105562137E7     2.557738281976127E-1    9.979965047564683E-2    7.469693627325018E-1   -1.762599740582358E-1    7.443410075151674E-1   -1.830317020162971E-1    2.547740496665478E-1    1.046837688989363E-1
 4.440440514786536E7     2.561979971124784E-1    1.001393515784182E-1    7.464845218124236E-1   -1.771983629195493E-1    7.438284209418936E-1   -1.839522159298940E-1    2.552199276396128E-1    1.050331501285328E-1
 4.474320466005030E7     2.566224622989120E-1    1.004838051071064E-1    7.460011578512812E-1   -1.781304491272131E-1    7.433620804080242E-1   -1.848806185026640E-1    2.556462725603692E-1    1.053963467116887E-1
 4.508458916597787E7     2.564704462431779E-1    1.023447806754673E-1    7.453568764781676E-1   -1.795898642986584E-1    7.433582010032544E-1   -1.836279984945612E-1    2.561954297314687E-1    1.058514167906860E-1
 4.542857838879555E7     2.569061981017873E-1    1.026956430713782E-1    7.448725643068002E-1   -1.805655745628526E-1    7.428686710243465E-1   -1.845501450835151E-1    2.566418839394957E-1    1.062136640298431E-1
 4.577519220213508E7     2.573512018354848E-1    1.030498532008724E-1    7.443958711371277E-1   -1.814971695325300E-1    7.423702774909372E-1   -1.855344684018509E-1    2.570987081380244E-1    1.065751660815759E-1
 4.612445063126191E7     2.578027179488362E-1    1.034129533838942E-1    7.438940688450870E-1   -1.824711806405208E-1    7.418765182580130E-1   -1.864962915366928E-1    2.575525290546876E-1    1.069422663680884E-1
 4.647637385423118E7     2.582445632047577E-1    1.037741213528956E-1    7.433883011507624E-1   -1.834510182509307E-1    7.413901408546367E-1   -1.874461468481043E-1    2.580112228558046E-1    1.073196955856380E-1
 4.683098220305377E7     2.586933826111116E-1    1.041306327540219E-1    7.428957096388135E-1   -1.844605634016075E-1    7.408576960569196E-1   -1.884396616403704E-1    2.584784868515170E-1    1.076884803623349E-1
 4.718829616487134E7     2.591320924658285E-1    1.045009493318295E-1    7.424089944509368E-1   -1.854456515401828E-1    7.403399071551231E-1   -1.894412244408815E-1    2.589415987435577E-1    1.080565249951985E-1
 4.754833638313931E7     2.601538181144228E-1    1.033409748425477E-1    7.420364781136674E-1   -1.859439265515617E-1    7.392892048752701E-1   -1.926796005847777E-1    2.593072911207022E-1    1.083398551682302E-1
 4.791112365881994E7     2.606150252647979E-1    1.037076386919829E-1    7.415009534579033E-1   -1.869403168597047E-1    7.387664998572149E-1   -1.936932544857752E-1    2.597607085475619E-1    1.087195395659568E-1
 4.827667895158397E7     2.610627336245210E-1    1.040737531076957E-1    7.409739264077906E-1   -1.879337307886872E-1    7.382311033300085E-1   -1.946912877033304E-1    2.602204325557859E-1    1.091008093039893E-1
 4.864502338102144E7     2.615394352199425E-1    1.044461566240034E-1    7.404376600064430E-1   -1.889519865307472E-1    7.376857579022754E-1   -1.957212534243872E-1    2.606905296928982E-1    1.094824828827833E-1
 4.901617822786229E7     2.620183656553582E-1    1.048104823286540E-1    7.399094385604277E-1   -1.899619248127447E-1    7.371543636615945E-1   -1.967465134886460E-1    2.611487826318991E-1    1.098867235373829E-1
 4.939016493520518E7     2.624891486310070E-1    1.051851818905310E-1    7.393707904502130E-1   -1.909951684132854E-1    7.366121708201718E-1   -1.977652043304378E-1    2.616182953725378E-1    1.102908458639468E-1
 4.976700510975666E7     2.629562239934240E-1    1.055669729883016E-1    7.388353681586520E-1   -1.920615645700544E-1    7.360620909697161E-1   -1.987857888535055E-1    2.621054648343866E-1    1.106925014899910E-1
 5.014672052307993E7     2.634263578914970E-1    1.059480302519736E-1    7.382686594616692E-1   -1.930894577316881E-1    7.354805031709232E-1   -1.998616954111431E-1    2.625932432320448E-1    1.110973081308724E-1
 5.052933311285146E7     2.639033892217848E-1    1.063356702411347E-1    7.377199095814797E-1   -1.941432026404847E-1    7.349181088637617E-1   -2.009171386839398E-1    2.630904814920793E-1    1.115049085228653E-1
 5.091486498412994E7     2.643832177334894E-1    1.067196943387887E-1    7.371566581626267E-1   -1.952016606244654E-1    7.343637757003973E-1   -2.019927944592000E-1    2.635753426257755E-1    1.119152042015457E-1
 5.130333841063219E7     2.648760630743982E-1    1.071078679790790E-1    7.365927093566487E-1   -1.962822995117933E-1    7.337934445312548E-1   -2.030836301808300E-1    2.640810527025987E-1    1.123292169264612E-1
 5.169477583602042E7     2.653565599021282E-1    1.074950400069255E-1    7.360308145554222E-1   -1.973511100472099E-1    7.332400577477477E-1   -2.041829987229446E-1    2.645752278244844E-1    1.127469296554979E-1
 5.208919987519933E7     2.658581013149791E-1    1.078969971194291E-1    7.354684551574220E-1   -1.984527206116047E-1    7.326779616263793E-1   -2.052662056313039E-1    2.650755827109093E-1    1.131788095301494E-1
 5.248663331562151E7     2.663478656838033E-1    1.082882881966371E-1    7.348822010070203E-1   -1.995479249985408E-1    7.320655476590379E-1   -2.063886827805078E-1    2.655963255667902E-1    1.136116719325267E-1
 5.288709911860541E7     2.668534900056767E-1    1.086815906647917E-1    7.342974032200960E-1   -2.006506045074480E-1    7.314774673046789E-1   -2.074806220011887E-1    2.661142248794184E-1    1.140497756210313E-1
 5.329062042066076E7     2.673508956056857E-1    1.090915702789680E-1    7.336900852457832E-1   -2.017798065512424E-1    7.308894297797091E-1   -2.085856197144313E-1    2.666285105561928E-1    1.144755935687026E-1
 5.369722053482568E7     2.678552786241460E-1    1.094942181713655E-1    7.330939381645620E-1   -2.029197375565370E-1    7.302801185996524E-1   -2.097266103242945E-1    2.671481512045455E-1    1.148953836424205E-1
 5.410692295201402E7     2.683609109342508E-1    1.099041311334631E-1    7.324636623698252E-1   -2.040338287838762E-1    7.296545579586307E-1   -2.108540773576798E-1    2.676737757079972E-1    1.153433593427616E-1
 5.451975134237129E7     2.688728986353697E-1    1.103274464802888E-1    7.318605085381257E-1   -2.051754727633050E-1    7.290363959311125E-1   -2.119991708925478E-1    2.682087054201360E-1    1.157666119742536E-1
 5.493572955664375E7     2.693826963011585E-1    1.107386437414844E-1    7.312275374946192E-1   -2.063024362986320E-1    7.283938723883560E-1   -2.131592557164523E-1    2.687524163119758E-1    1.162157293784257E-1
 5.535488162755510E7     2.699107719763206E-1    1.111657188474754E-1    7.306054351562625E-1   -2.074498870216245E-1    7.277766659972369E-1   -2.143011918520824E-1    2.692901197292417E-1    1.166628276807463E-1
 5.577723177119546E7     2.704504096211691E-1    1.115932877337690E-1    7.299618659771180E-1   -2.085963992013403E-1    7.271482237867641E-1   -2.154809802262586E-1    2.698317083272670E-1    1.171107500945956E-1
 5.620280438842070E7     2.709882554854969E-1    1.120207604034631E-1    7.293361010024403E-1   -2.097608041803354E-1    7.264927730280789E-1   -2.166519322193751E-1    2.703904148782597E-1    1.175658872083831E-1
 5.663162406626155E7     2.715309447654938E-1    1.124530513856746E-1    7.286854216997698E-1   -2.109323471087005E-1    7.258526375016273E-1   -2.178370773878195E-1    2.709516882417271E-1    1.180222944027706E-1
 5.706371557934452E7     2.720730464491697E-1    1.128819519074489E-1    7.280177603284005E-1   -2.121425841758972E-1    7.251948608693591E-1   -2.190404551764523E-1    2.715159476094014E-1    1.184790121716799E-1
 5.749910389132310E7     2.726270882347446E-1    1.133130107272816E-1    7.273666281935841E-1   -2.133425128041114E-1    7.245208946103520E-1   -2.202584185352653E-1    2.721023008686327E-1    1.189456671905898E-1
 5.793781415631992E7     2.731849712944452E-1    1.137567540649013E-1    7.266935330425277E-1   -2.145224602867147E-1    7.238476777093764E-1   -2.214508353509955E-1    2.726745740245273E-1    1.194123215503992E-1
 5.837987172038046E7     2.733681699890302E-1    1.169763788034480E-1    7.256761803419596E-1   -2.168478499844615E-1    7.249103138595681E-1   -2.188242862642266E-1    2.736888995450977E-1    1.198564984662338E-1
 5.882530212293670E7     2.739437748183123E-1    1.174251126308502E-1    7.249677091131596E-1   -2.180923181389407E-1    7.242345626018033E-1   -2.200290286662991E-1    2.742639172579105E-1    1.203130661713923E-1
 5.927413109828297E7     2.745169202880815E-1    1.178682809123442E-1    7.242813859699972E-1   -2.193154515142622E-1    7.235574513715597E-1   -2.212802335268628E-1    2.748528171819618E-1    1.207793234909264E-1
 5.972638457706322E7     2.750984075219831E-1    1.183330849232766E-1    7.235794969797299E-1   -2.205543171719406E-1    7.228637168261175E-1   -2.225100769415629E-1    2.754517692489902E-1    1.212624983157224E-1
 6.018208868776779E7     2.757015017615699E-1    1.187965228689743E-1    7.228608804890658E-1   -2.218040876345972E-1    7.221601509988684E-1   -2.237571771326149E-1    2.760552090081301E-1    1.217453123866942E-1
 6.064126975824468E7     2.763060883315855E-1    1.192515037612563E-1    7.221520607924432E-1   -2.230651156897147E-1    7.214508969827829E-1   -2.250287391498339E-1    2.766612986179400E-1    1.222243273477550E-1
 6.110395431721926E7     2.769033478709752E-1    1.197074050220426E-1    7.214521249237410E-1   -2.243470019536020E-1    7.207421362108339E-1   -2.262951721952969E-1    2.772728851227864E-1    1.227135884132178E-1
 6.157016909582742E7     2.775136905247245E-1    1.201777529993403E-1    7.207155225376716E-1   -2.256191166915945E-1    7.200177294116630E-1   -2.275783609517092E-1    2.779065718230957E-1    1.232026438716812E-1
 6.203994102916045E7     2.781243271102807E-1    1.206414349728817E-1    7.199819348234623E-1   -2.269156126835518E-1    7.192691471235559E-1   -2.288520785819236E-1    2.785392820744899E-1    1.236949925184335E-1
 6.251329725781982E7     2.787507691844395E-1    1.211206736271887E-1    7.192166927042645E-1   -2.282012409574491E-1    7.185234032564826E-1   -2.301332489412919E-1    2.791832416404098E-1    1.241769982778568E-1
 6.299026512948693E7     2.793838203359088E-1    1.216035488427061E-1    7.184534424372584E-1   -2.295009931126055E-1    7.177768462834812E-1   -2.314492102253688E-1    2.798216689013401E-1    1.246879733288662E-1
 6.347087220050172E7     2.800076816311943E-1    1.220941137968778E-1    7.176872918894935E-1   -2.308267471742542E-1    7.170161579702563E-1   -2.327690319564850E-1    2.804746540133242E-1    1.251767453072019E-1
 6.395514623745525E7     2.806555684130287E-1    1.225652816688460E-1    7.169216682978797E-1   -2.321345473958132E-1    7.162350393765409E-1   -2.340936760243302E-1    2.811301404900206E-1    1.256865346683766E-1
 6.444311521879433E7     2.813049486080922E-1    1.230548722390016E-1    7.161476657696682E-1   -2.334469959075129E-1    7.154497023473888E-1   -2.353979251226628E-1    2.817940958859278E-1    1.261873743790034E-1
 6.493480733643661E7     2.819608424136498E-1    1.235608021857469E-1    7.153280819702263E-1   -2.347924755537714E-1    7.146585819839696E-1   -2.367381007903156E-1    2.824583761915452E-1    1.266935449567534E-1
 6.543025099740107E7     2.826287574816121E-1    1.240564056990342E-1    7.145250571930630E-1   -2.361279287862084E-1    7.138506724865147E-1   -2.380777343582500E-1    2.831384830747015E-1    1.272062996767033E-1
 6.592947482544785E7     2.849523211344857E-1    1.198652597474604E-1    7.137907179794218E-1   -2.351024763579799E-1    7.112653312095502E-1   -2.463695018727950E-1    2.833933708600065E-1    1.277042245415169E-1
 6.643250766273243E7     2.856796809714073E-1    1.203274010014202E-1    7.129858717016329E-1   -2.364624324398469E-1    7.105004808451624E-1   -2.477599833273814E-1    2.841132485292513E-1    1.282353452387278E-1
 6.693937857147253E7     2.863857876660642E-1    1.208147277442291E-1    7.121441140479612E-1   -2.378585041663704E-1    7.097482995484068E-1   -2.490577571413855E-1    2.848196915190152E-1    1.287746976541515E-1
 6.745011683562562E7     2.871134892843320E-1    1.212762837369090E-1    7.112897284854786E-1   -2.392235850363287E-1    7.088975120970209E-1   -2.504811054247470E-1    2.855186065826738E-1    1.293040731712989E-1
 6.796475196258274E7     2.878201006399332E-1    1.217820340843951E-1    7.104586641187803E-1   -2.406341366912625E-1    7.081216269657618E-1   -2.517369260804360E-1    2.862301523932603E-1    1.298754326413047E-1
 6.848331368487169E7     2.885488176832976E-1    1.223087181829492E-1    7.095941003555875E-1   -2.420269990285476E-1    7.073553993959582E-1   -2.529461450131399E-1    2.869403736657344E-1    1.304638200410571E-1
 6.900583196187538E7     2.878553522121897E-1    1.247643208791067E-1    7.090581590076390E-1   -2.443574611243978E-1    7.062699772760879E-1   -2.511125536073900E-1    2.877126527811060E-1    1.311041390673991E-1
 6.953233698156311E7     2.885745846382134E-1    1.252980171320311E-1    7.082502771544834E-1   -2.456705439421998E-1    7.053040465894875E-1   -2.526996819422016E-1    2.884984744436689E-1    1.316025242556861E-1
 7.006285916223384E7     2.893319531330287E-1    1.258028217926260E-1    7.074714297279795E-1   -2.468830521428837E-1    7.042521873050249E-1   -2.544500405592184E-1    2.892626108914483E-1    1.321340837033168E-1
 7.059742915427396E7     2.901277243237562E-1    1.262513739615111E-1    7.065905017974302E-1   -2.482710753482539E-1    7.033087180029520E-1   -2.559845186580772E-1    2.900229703365442E-1    1.327333206788566E-1
 7.113607784192866E7     2.909050053005252E-1    1.267564189954147E-1    7.056095832151678E-1   -2.498470981934048E-1    7.024492096614946E-1   -2.573457059374513E-1    2.907968025606436E-1    1.333127701403049E-1
 7.167883634508467E7     2.916599871003040E-1    1.273175452106214E-1    7.046641175887589E-1   -2.513614880016211E-1    7.016349819633163E-1   -2.586133474301059E-1    2.915816016295805E-1    1.339016005669654E-1
 7.222573602107021E7     2.924361409918712E-1    1.278636096650071E-1    7.037330832850859E-1   -2.528746691927956E-1    7.008084310068122E-1   -2.598838761128172E-1    2.923641433798869E-1    1.344933342031502E-1
 7.277680846646504E7     2.932114044895247E-1    1.284269836508407E-1    7.027657381353051E-1   -2.544120758621007E-1    6.999204907552250E-1   -2.612123536768865E-1    2.931668996545599E-1    1.350854535985294E-1
 7.333208551892644E7     2.940094420778049E-1    1.289883570613708E-1    7.018683544774039E-1   -2.557639662383177E-1    6.988245773488859E-1   -2.629117367159841E-1    2.940157972129964E-1    1.355973929190450E-1
 7.389159925902925E7     2.948537133090985E-1    1.294876559418637E-1    7.010068848457953E-1   -2.570214006708161E-1    6.976539914665881E-1   -2.647955689654177E-1    2.948557313604388E-1    1.361672304784061E-1
 7.445538201211768E7     2.957320115966067E-1    1.299631937419831E-1    7.000311752602286E-1   -2.585096344414349E-1    6.966081190577323E-1   -2.663923359514285E-1    2.956695316569005E-1    1.368119685072941E-1
 7.502346635017487E7     2.965741598381209E-1    1.305089832762994E-1    6.989598319492792E-1   -2.601727429925502E-1    6.957151828725585E-1   -2.676983248374146E-1    2.965203676006427E-1    1.374148911099173E-1
 7.559588509370317E7     2.974256755990811E-1    1.310852354497247E-1    6.979271488122144E-1   -2.617355312988239E-1    6.948172792479881E-1   -2.690073462412302E-1    2.973994060011673E-1    1.380286884136411E-1
 7.617267131362079E7     2.982840605469336E-1    1.316332613830589E-1    6.968920792135690E-1   -2.633283199769263E-1    6.938671899491556E-1   -2.703470513557970E-1    2.982862642449475E-1    1.386484163029268E-1
 7.675385833317320E7     2.991672151536830E-1    1.322006741075509E-1    6.958475011586942E-1   -2.648911376898048E-1    6.928754524057724E-1   -2.717389617762319E-1    2.991843958231886E-1    1.392577980634365E-1
 7.733947972985649E7     3.000702754159237E-1    1.327320307264499E-1    6.948603174985831E-1   -2.663000429849380E-1    6.916867965253628E-1   -2.735620038153434E-1    3.001347449177503E-1    1.398139863411378E-1
 7.792956933735959E7     3.010102582332292E-1    1.332193380273970E-1    6.938519373698636E-1   -2.676908341684576E-1    6.904342003324436E-1   -2.754601548336240E-1    3.010694163296981E-1    1.404288186993883E-1
 7.852416124751715E7     3.019476709687949E-1    1.337048775088747E-1    6.927455051649680E-1   -2.692584171853618E-1    6.893036235640415E-1   -2.770646269042440E-1    3.020035848299180E-1    1.410684463540164E-1
 7.912328981227988E7     3.028488729386469E-1    1.342610426234386E-1    6.916175326192323E-1   -2.708573669239039E-1    6.882703704972440E-1   -2.784598660954892E-1    3.029775655445832E-1    1.416541859145200E-1
 7.972698964569975E7     3.037423520669438E-1    1.348079187439392E-1    6.905158263938993E-1   -2.724150939638659E-1    6.871822233216986E-1   -2.798995945345835E-1    3.039582526283246E-1    1.422417284152949E-1
 8.033529562592810E7     3.046634946781397E-1    1.353550181199093E-1    6.894185166133022E-1   -2.739308338247045E-1    6.860673681497355E-1   -2.815002783211332E-1    3.049526282643631E-1    1.428047558439924E-1
 8.094824289723292E7     3.055875852319271E-1    1.358959394902791E-1    6.883253896042256E-1   -2.754731369968976E-1    6.849277522308085E-1   -2.831177010883332E-1    3.059366784380937E-1    1.433878471242389E-1
 8.156586687202743E7     3.065069302029271E-1    1.364350113717980E-1    6.872201389177843E-1   -2.770332420969106E-1    6.837951222454524E-1   -2.847166136318370E-1    3.069302533220417E-1    1.439634253168123E-1
 8.218820323291673E7     3.074150444140955E-1    1.370049289373240E-1    6.860900646503850E-1   -2.786882286642510E-1    6.826846811751763E-1   -2.862854874577090E-1    3.079119921012033E-1    1.445451192283349E-1
 8.281528793475981E7     3.083518285859691E-1    1.376571837564089E-1    6.849859885731252E-1   -2.803539531831004E-1    6.815727441665212E-1   -2.878423682807127E-1    3.088881973799542E-1    1.451539293859102E-1
 8.344715720674579E7     3.093614884527285E-1    1.383128550564324E-1    6.838243671123185E-1   -2.820268494250786E-1    6.804229283898834E-1   -2.894951126067933E-1    3.098731623925256E-1    1.457998914540455E-1
 8.408384755448765E7     3.104071346799200E-1    1.389298439880599E-1    6.826388892298620E-1   -2.837105814894023E-1    6.792034876956373E-1   -2.911539382006516E-1    3.109042752655126E-1    1.464654486352768E-1
 8.472539576213124E7     3.114478447639434E-1    1.395314004171692E-1    6.814083229162998E-1   -2.853789987077781E-1    6.779595588471429E-1   -2.928114014413917E-1    3.119741109130910E-1    1.471227258700988E-1
 8.537183889448020E7     3.124778255481626E-1    1.401351418354953E-1    6.801774178948191E-1   -2.870419737267747E-1    6.767086594580239E-1   -2.944584745694968E-1    3.131016420333455E-1    1.477620361122112E-1
 8.602321429913802E7     3.135293223759823E-1    1.407714587384376E-1    6.789467603475013E-1   -2.887182881205705E-1    6.754653776926623E-1   -2.961366597887720E-1    3.142130963476088E-1    1.483748653050707E-1
 8.667955960866481E7     3.146264414461439E-1    1.414197160791779E-1    6.777140828112268E-1   -2.904293170893821E-1    6.742119270496578E-1   -2.978317279312945E-1    3.153307096829884E-1    1.489940988734607E-1
 8.734091274275188E7     3.157544456996968E-1    1.420891673322844E-1    6.764367467897408E-1   -2.921577541498274E-1    6.729218298003834E-1   -2.995549609889307E-1    3.164490796393981E-1    1.496455409405772E-1
 8.800731191041334E7     3.169111541731343E-1    1.427306422663998E-1    6.751283311319577E-1   -2.938954173679692E-1    6.715924231364382E-1   -3.012894566116513E-1    3.176072272354946E-1    1.503172476500736E-1
 8.867879561219153E7     3.180891388465720E-1    1.433737047167329E-1    6.737838784071113E-1   -2.956489052461098E-1    6.702224444957803E-1   -3.030172975548797E-1    3.187830436556938E-1    1.510117005134811E-1
 8.935540264238395E7     3.192888356505783E-1    1.440130520644497E-1    6.724354993056776E-1   -2.974069351994868E-1    6.688293041483445E-1   -3.047518906410762E-1    3.200101501988867E-1    1.516961575513185E-1
 9.003717209128250E7     3.204714744490446E-1    1.446382747395166E-1    6.709949069068751E-1   -2.991269736268620E-1    6.673604359609747E-1   -3.064313129325602E-1    3.212486151998516E-1    1.523125669525334E-1
 9.072414334743266E7     3.216921801250529E-1    1.453125820304951E-1    6.696119259323521E-1   -3.009228727025798E-1    6.659596806909233E-1   -3.082122958366373E-1    3.225394884483070E-1    1.529625660177818E-1
 9.141635609990983E7     3.229490355152083E-1    1.460175435281938E-1    6.681831117936503E-1   -3.027549829322975E-1    6.645178070651464E-1   -3.100253461861903E-1    3.238277154976628E-1    1.536117944360675E-1
 9.211385034061028E7     3.243344329494867E-1    1.467492827652596E-1    6.667072568455643E-1   -3.046163221952103E-1    6.630115353805557E-1   -3.118757676036452E-1    3.251482520360054E-1    1.542905130192664E-1
 9.281666636656430E7     3.257783302036369E-1    1.474361216631714E-1    6.651498600622150E-1   -3.064708815293539E-1    6.614451817261269E-1   -3.137130285991076E-1    3.265696698258855E-1    1.549793468913602E-1
 9.352484478226222E7     3.272546587209439E-1    1.480548549651206E-1    6.635392388729474E-1   -3.083046285488398E-1    6.597936310520025E-1   -3.155107054094298E-1    3.279940820518921E-1    1.556253011394591E-1
 9.423842650200106E7     3.287604193583921E-1    1.486666257709653E-1    6.618952871918874E-1   -3.101204280143411E-1    6.581294717238546E-1   -3.173028889819849E-1    3.294650539189695E-1    1.562691555970927E-1
 9.495745275224906E7     3.302977065271068E-1    1.492452624171539E-1    6.601852965800060E-1   -3.119404762719010E-1    6.564168957107627E-1   -3.190959184297170E-1    3.309676603083498E-1    1.568820697738628E-1
 9.568196507402541E7     3.318651075908920E-1    1.497553974094632E-1    6.584666267730973E-1   -3.137181739350632E-1    6.546623844472137E-1   -3.208586210397661E-1    3.325285874097543E-1    1.574671917208712E-1
 9.641200532530291E7     3.334209594965059E-1    1.502185862632011E-1    6.567532793634677E-1   -3.154580232014145E-1    6.529010971954297E-1   -3.225697797502352E-1    3.340635338838873E-1    1.580143541200088E-1
 9.714761568342420E7     3.349951117315562E-1    1.507324341217329E-1    6.550174360736857E-1   -3.172861349514564E-1    6.511250119084410E-1   -3.243431644054730E-1    3.356461870604280E-1    1.586253166865745E-1
 9.788883864753923E7     3.366023132026439E-1    1.512141773985504E-1    6.531907986217375E-1   -3.190559131515320E-1    6.492872635064633E-1   -3.260788289252287E-1    3.373250182852195E-1    1.591697753624380E-1
 9.863571704106140E7     3.382063885767292E-1    1.516428717542194E-1    6.513609780261489E-1   -3.207835829556535E-1    6.474149471333892E-1   -3.277774950922367E-1    3.389900127642469E-1    1.596475585259952E-1
 9.938829401413949E7     3.397898506675899E-1    1.521377699083188E-1    6.495303521197766E-1   -3.225570958542708E-1    6.455645138993916E-1   -3.295237921224874E-1    3.406542246019655E-1    1.601626780685773E-1
 1.001466130461536E8     3.414553915720016E-1    1.526491843580945E-1    6.476379826280247E-1   -3.243770926245215E-1    6.436442898285099E-1   -3.313051886682256E-1    3.424049481256792E-1    1.607167246659109E-1
 1.009107179482240E8     3.431944013766930E-1    1.532142568150847E-1    6.456200443493587E-1   -3.262383442887388E-1    6.416107181610634E-1   -3.331302390053791E-1    3.442977172649549E-1    1.612812143400524E-1
 1.016806528657447E8     3.450843959888195E-1    1.537969225329282E-1    6.434688499565208E-1   -3.280688810151255E-1    6.394375909855632E-1   -3.349273242138069E-1    3.463431173655968E-1    1.617760678308614E-1
 1.024564622809335E8     3.471928641893770E-1    1.542968259876237E-1    6.411461162061342E-1   -3.298546065575528E-1    6.370855507070389E-1   -3.366724835555386E-1    3.485131505157567E-1    1.621785654183693E-1
 1.032381910153997E8     3.494993461452111E-1    1.546035682594745E-1    6.386228902876412E-1   -3.314554341910648E-1    6.345362227393445E-1   -3.382101221400835E-1    3.508416240694444E-1    1.623998802414979E-1
 1.040258842327368E8     3.518886913207181E-1    1.546158704748636E-1    6.360116044225389E-1   -3.327945910242430E-1    6.318953414495270E-1   -3.394937366553180E-1    3.532870367320134E-1    1.623295943354150E-1
 1.048195874411304E8     3.541793216142585E-1    1.542582929856728E-1    6.334523228365746E-1   -3.337100996020236E-1    6.293378666582513E-1   -3.403912229229381E-1    3.557066491765632E-1    1.618212026030721E-1
 1.056193464959857E8     3.561906193765257E-1    1.536949482161921E-1    6.312132077146375E-1   -3.344099642093323E-1    6.270926169410732E-1   -3.410406327466384E-1    3.577700124544408E-1    1.610068122458355E-1
 1.064252076025801E8     3.577715009051187E-1    1.529743919615359E-1    6.294496256898749E-1   -3.349650090578197E-1    6.253223614693314E-1   -3.415708579795307E-1    3.592744233391277E-1    1.600668257984705E-1
 1.072372173187304E8     3.590676825325076E-1    1.529856068875908E-1    6.279574013258249E-1   -3.362830009271581E-1    6.238424577164761E-1   -3.428341962234556E-1    3.604752261539806E-1    1.599053625568223E-1
 1.080554225574824E8     3.608181671776701E-1    1.529149442316536E-1    6.259548064450788E-1   -3.375088489803275E-1    6.218934578602108E-1   -3.440100574436114E-1    3.621873160828747E-1    1.596365341301972E-1
 1.088798705898232E8     3.626162227844011E-1    1.529157818901914E-1    6.239749607711308E-1   -3.387624895504325E-1    6.199475259198954E-1   -3.452469336740555E-1    3.637948940385361E-1    1.593446551715106E-1
 1.097106090474096E8     3.648253718001121E-1    1.527748550490803E-1    6.217100464761244E-1   -3.399173550961428E-1    6.177210012021824E-1   -3.463628723501673E-1    3.656213984128113E-1    1.589734040641585E-1
 1.105476859253232E8     3.670477950902615E-1    1.520672902311477E-1    6.194579061971736E-1   -3.405967636609853E-1    6.155206839406427E-1   -3.470918129275086E-1    3.674330800206289E-1    1.582483573857683E-1
 1.113911495848395E8     3.688577014972216E-1    1.510109523911137E-1    6.176227248181693E-1   -3.410233299980329E-1    6.136931841563877E-1   -3.476041324538345E-1    3.688551292835855E-1    1.573436013224539E-1
 1.122410487562254E8     3.702424525323097E-1    1.499483677419498E-1    6.161723914967524E-1   -3.415134904302226E-1    6.121944468009199E-1   -3.481927786138317E-1    3.699661745916585E-1    1.565637550272807E-1
 1.130974325415529E8     3.712930257825411E-1    1.491862514305565E-1    6.149937671925948E-1   -3.423340304151162E-1    6.109221527953419E-1   -3.490738517274550E-1    3.709122655180815E-1    1.561192393924152E-1
 1.139603504175348E8     3.723811017288278E-1    1.487386801425468E-1    6.137102821201447E-1   -3.434760471780690E-1    6.095357325973217E-1   -3.502582306380556E-1    3.720256080986016E-1    1.559172061211458E-1
 1.148298522383858E8     3.736120211963559E-1    1.484093615054743E-1    6.122582900794005E-1   -3.447047342545084E-1    6.079903000991288E-1   -3.514678248680176E-1    3.733062502418805E-1    1.557288972678037E-1
 1.157059882387014E8     3.749904153797840E-1    1.480019668598655E-1    6.106733501874020E-1   -3.458733002484118E-1    6.062951382350914E-1   -3.526274094612941E-1    3.746925808878370E-1    1.554486978801324E-1
 1.165888090363587E8     3.764087293786087E-1    1.475471911646584E-1    6.089381831548267E-1   -3.469845669682942E-1    6.044707938310822E-1   -3.537245266292067E-1    3.762339600717837E-1    1.550912410001629E-1
 1.174783656354443E8     3.778808049067081E-1    1.467608573187698E-1    6.072044457110971E-1   -3.477093561096576E-1    6.026129742065659E-1   -3.544491678496544E-1    3.777489917624890E-1    1.542718229121244E-1
 1.183747094291968E8     3.789390895192883E-1    1.456381374509959E-1    6.059704370560006E-1   -3.481405892148144E-1    6.012357189533383E-1   -3.548182600001468E-1    3.787230346159646E-1    1.531233229836801E-1
 1.192778922029803E8     3.793226075387702E-1    1.449720479141227E-1    6.054068549007297E-1   -3.491290315524933E-1    6.005256471578173E-1   -3.557258545212139E-1    3.790174702127538E-1    1.526323986761922E-1
 1.201879661372721E8     3.801682140972375E-1    1.450104587514049E-1    6.042874145721421E-1   -3.508652164421392E-1    5.992857871680756E-1   -3.573333078570821E-1    3.799342877584932E-1    1.528624447991576E-1
 1.211049838106809E8     3.815570117930844E-1    1.443447702420123E-1    6.026224101975586E-1   -3.518922087520894E-1    5.974984670620291E-1   -3.582440502217310E-1    3.814413932199977E-1    1.523199875743567E-1
 1.220289982029829E8     3.820521245648533E-1    1.432869247964449E-1    6.018183438427966E-1   -3.525269565976631E-1    5.966068384155033E-1   -3.586854790778308E-1    3.820252459236515E-1    1.513252858131058E-1
 1.229600626981811E8     3.820199689019796E-1    1.429183881297737E-1    6.015018632265099E-1   -3.539018546116615E-1    5.963151923663365E-1   -3.598400867380862E-1    3.820393315886221E-1    1.510404309844310E-1
 1.238982310875929E8     3.820713385438048E-1    1.433545127793656E-1    6.010245285091877E-1   -3.560639033208750E-1    5.959377774065853E-1   -3.618604468466575E-1    3.821571157558357E-1    1.516231592797371E-1
 1.248435575729559E8     3.830700354960371E-1    1.441742855934339E-1    5.995575913623226E-1   -3.586148588832254E-1    5.945281723815841E-1   -3.643248254422244E-1    3.833281737582997E-1    1.526232422610313E-1
 1.257960967695579E8     3.845845853902888E-1    1.440014439453196E-1    5.974280226620030E-1   -3.601016803440182E-1    5.924346578668044E-1   -3.657552898719005E-1    3.851583630474616E-1    1.525474801341903E-1
 1.267559037093956E8     3.851653952273968E-1    1.432236487535049E-1    5.963350557055631E-1   -3.609387773991352E-1    5.913539757530996E-1   -3.665568476765180E-1    3.860782280040498E-1    1.517047351534334E-1
 1.277230338443520E8     3.848738448163858E-1    1.434510420826836E-1    5.961791614043074E-1   -3.627501925850082E-1    5.912205943698562E-1   -3.683119420454388E-1    3.859628609968212E-1    1.517747731892865E-1
 1.286975430493991E8     3.854191474870687E-1    1.448174737219919E-1    5.952260705816469E-1   -3.656953938137901E-1    5.902857636539832E-1   -3.712299326118997E-1    3.865460880305949E-1    1.530076161227986E-1
 1.296794876258291E8     3.870145035739266E-1    1.456755496901544E-1    5.932165745093725E-1   -3.681927834671443E-1    5.882610809605630E-1   -3.737037214445629E-1    3.881989978963741E-1    1.538287946385958E-1
 1.306689243045034E8     3.883829473006732E-1    1.459650514282899E-1    5.914362208128673E-1   -3.701263854392999E-1    5.864180183497799E-1   -3.756225101314009E-1    3.896746755917249E-1    1.540882557783219E-1
 1.316659102491341E8     3.896434229667885E-1    1.463044026061863E-1    5.897596427105394E-1   -3.721485998886350E-1    5.846584712237611E-1   -3.775712664272128E-1    3.910542574313373E-1    1.543891592937280E-1
 1.326705030595824E8     3.909788050929464E-1    1.466614791728819E-1    5.879862296133552E-1   -3.742102181995933E-1    5.828251128748889E-1   -3.794971800184106E-1    3.925076864652157E-1    1.546860996668016E-1
 1.336827607751903E8     3.923878138847990E-1    1.469325963204054E-1    5.861120407834877E-1   -3.761999455336391E-1    5.809662808073621E-1   -3.813511428075539E-1    3.940103401972479E-1    1.549036267899737E-1
 1.347027418781318E8     3.938486588859695E-1    1.471081402078533E-1    5.841849424310257E-1   -3.781188295353396E-1    5.790969389443062E-1   -3.831529968972778E-1    3.955143909854394E-1    1.550452464629860E-1
 1.357305052967905E8     3.953614764782303E-1    1.471123868122652E-1    5.821657092928960E-1   -3.799249618622813E-1    5.771357431868428E-1   -3.848644658853474E-1    3.970725154171824E-1    1.551219771648627E-1
 1.367661104091667E8     3.966646550653921E-1    1.467961517515995E-1    5.802489707435224E-1   -3.814143851395089E-1    5.753673645531998E-1   -3.862565986038298E-1    3.985260087975916E-1    1.549145074005992E-1
 1.378096170463071E8     3.976203890941964E-1    1.466146411994709E-1    5.786517539641108E-1   -3.830152556477033E-1    5.738736224210598E-1   -3.878606987376518E-1    3.997074433069163E-1    1.548217014782290E-1
 1.388610854957592E8     3.985129880657488E-1    1.465025920233829E-1    5.770773250094565E-1   -3.846258565803570E-1    5.723977356608018E-1   -3.894832795652729E-1    4.009149807557145E-1    1.546912608887431E-1
 1.399205765050585E8     3.991919065062134E-1    1.465525980455256E-1    5.757687022507613E-1   -3.863096812615393E-1    5.711655142552521E-1   -3.912192432653976E-1    4.017832408524757E-1    1.546051659900323E-1
 1.409881512852336E8     3.998101245725140E-1    1.468990963839804E-1    5.745673293029209E-1   -3.883430239207922E-1    5.700094927662225E-1   -3.933160137337684E-1    4.025378851686708E-1    1.548668408920163E-1
 1.420638715143470E8     4.005254449621860E-1    1.474498072842677E-1    5.732819427556836E-1   -3.906039988036107E-1    5.687029923572021E-1   -3.956550272002048E-1    4.033887123060293E-1    1.554001894672167E-1
 1.431477993410541E8     4.012983624076439E-1    1.482822306288852E-1    5.719385934979676E-1   -3.931687794338842E-1    5.673097875370409E-1   -3.982304309422693E-1    4.043205838770877E-1    1.561701599658293E-1
 1.442399973881980E8     4.024191368913811E-1    1.494266281668757E-1    5.702528699234036E-1   -3.960656185225953E-1    5.655836726159474E-1   -4.010968144716950E-1    4.055458466626527E-1    1.572392315030305E-1
 1.453405287564251E8     4.040605025117362E-1    1.505378756729572E-1    5.680270494298143E-1   -3.990195860340827E-1    5.633446716233124E-1   -4.039760053525570E-1    4.072760700408664E-1    1.583732436209785E-1
 1.464494570278296E8     4.059941978430843E-1    1.512031513435416E-1    5.654686374306924E-1   -4.015292408293661E-1    5.608108306374251E-1   -4.064237070742114E-1    4.093631187959541E-1    1.590843170172433E-1
 1.475668462696298E8     4.077942217252898E-1    1.516951172696432E-1    5.629875161512292E-1   -4.038858314107462E-1    5.583637802057073E-1   -4.086835910216649E-1    4.113623984024861E-1    1.595898095057249E-1
 1.486927610378684E8     4.097089252388243E-1    1.520740407121947E-1    5.603488158041028E-1   -4.061775187474725E-1    5.558215241454733E-1   -4.108953873899458E-1    4.134288903621716E-1    1.599955310308429E-1
 1.498272663811400E8     4.115942208005297E-1    1.522006934638919E-1    5.577417899174134E-1   -4.081975513099415E-1    5.533053530601395E-1   -4.128715012500531E-1    4.155141696118082E-1    1.601670886655813E-1
 1.509704278443526E8     4.133592991458442E-1    1.520905712766895E-1    5.552288454783039E-1   -4.100531451556682E-1    5.508566150344932E-1   -4.146683006046056E-1    4.175234894084604E-1    1.601732896643352E-1
 1.521223114725131E8     4.146490199116842E-1    1.519351349978502E-1    5.531610201105480E-1   -4.117907173947746E-1    5.488309386665473E-1   -4.163462088909008E-1    4.191858787191945E-1    1.600262880699417E-1
 1.532829838145407E8     4.157112753262042E-1    1.522730116864178E-1    5.512757182779002E-1   -4.140630873654920E-1    5.469638799198638E-1   -4.185150100617107E-1    4.206406293782103E-1    1.602506732980909E-1
 1.544525119271165E8     4.170734294261302E-1    1.530164571244857E-1    5.491986206114758E-1   -4.165455546939700E-1    5.448266391041071E-1   -4.210445931751167E-1    4.222863503941991E-1    1.607376101060969E-1
 1.556309633785520E8     4.187771201825061E-1    1.536933649906520E-1    5.468773465683489E-1   -4.189894030240853E-1    5.423931891644337E-1   -4.235663256943085E-1    4.241552392297860E-1    1.611836303326601E-1
 1.568184062526983E8     4.204867528090701E-1    1.543353454248192E-1    5.446341597663859E-1   -4.213646937434258E-1    5.399615221680848E-1   -4.261287298437663E-1    4.259326594633234E-1    1.616147498505922E-1
 1.580149091528745E8     4.224072860487933E-1    1.551731546237785E-1    5.422659113887477E-1   -4.238972102684800E-1    5.373102342607500E-1   -4.289384656136576E-1    4.278602130268704E-1    1.623459850363588E-1
 1.592205412058353E8     4.246277300693929E-1    1.559360437082364E-1    5.395681944717440E-1   -4.263228864028344E-1    5.343269768204557E-1   -4.316997271093825E-1    4.301187548229764E-1    1.629848161267053E-1
 1.604353720657634E8     4.270294680736957E-1    1.565184520277549E-1    5.367611852914171E-1   -4.285524407150890E-1    5.312039133438892E-1   -4.342908400368884E-1    4.325071403072491E-1    1.634318610362751E-1
 1.616594719182909E8     4.295284277840564E-1    1.569133327613363E-1    5.338864741973870E-1   -4.306665233098547E-1    5.280088350593165E-1   -4.366904140910525E-1    4.349319090622533E-1    1.637596252142983E-1
 1.628929114845590E8     4.320380218372164E-1    1.571499724149177E-1    5.309054686594841E-1   -4.326695144603643E-1    5.247810515029210E-1   -4.389675834837169E-1    4.374450847678111E-1    1.639537156696855E-1
 1.641357620253014E8     4.344033827483391E-1    1.572440855276479E-1    5.280103010433199E-1   -4.343785703177946E-1    5.217264484685737E-1   -4.408092504160614E-1    4.399613172182943E-1    1.638831171072924E-1
 1.653880953449593E8     4.365937848515177E-1    1.572162436769110E-1    5.251563497105306E-1   -4.364173602406655E-1    5.189256646341247E-1   -4.427268742406699E-1    4.421807105602572E-1    1.638817382016876E-1
 1.666499837958347E8     4.388186153268984E-1    1.571806770709027E-1    5.222164405886902E-1   -4.385211142177660E-1    5.160948252817992E-1   -4.446720635950063E-1    4.444680883183296E-1    1.638640929647516E-1
 1.679215002822650E8     4.410408369752651E-1    1.574371025537233E-1    5.192366841796828E-1   -4.409622547827001E-1    5.132622119373257E-1   -4.469010816913560E-1    4.467022618417317E-1    1.641457223572311E-1
 1.692027182648404E8     4.436290471633862E-1    1.575517027554900E-1    5.159214518797040E-1   -4.432922644992237E-1    5.100531844828463E-1   -4.490971019814324E-1    4.493292741169781E-1    1.643152727932914E-1
 1.704937117646426E8     4.462740248002314E-1    1.574867361524282E-1    5.125741843496147E-1   -4.454304700248674E-1    5.067388003317147E-1   -4.511438781351549E-1    4.520047880737524E-1    1.643000690083157E-1
 1.717945553675260E8     4.489169633253008E-1    1.571929464472012E-1    5.092477652700151E-1   -4.473813322992372E-1    5.034601995770903E-1   -4.530174308732265E-1    4.546177996010345E-1    1.641044377510333E-1
 1.731053242284249E8     4.512739064318689E-1    1.568622517971054E-1    5.061356980647655E-1   -4.493756670804054E-1    5.003914432603117E-1   -4.549351113440597E-1    4.570200976539734E-1    1.639492995225358E-1
 1.744260940756933E8     4.538336832056525E-1    1.567366937372728E-1    5.028161403288338E-1   -4.514956127293938E-1    4.970740913832196E-1   -4.570267236550790E-1    4.596898100379552E-1    1.639476517869872E-1
 1.757569412154842E8     4.562440011989045E-1    1.562377773477158E-1    4.995426203854942E-1   -4.532968135626396E-1    4.937879478794062E-1   -4.587693597050128E-1    4.623610364639208E-1    1.636125947719358E-1
 1.770979425361561E8     4.583231592819783E-1    1.561430032536290E-1    4.965116879055386E-1   -4.553503382911044E-1    4.907672266343990E-1   -4.607699984255332E-1    4.647790191772716E-1    1.633893678516203E-1
 1.784491755127131E8     4.607806446553050E-1    1.564125792582385E-1    4.931891506474667E-1   -4.576594153186050E-1    4.874301917318015E-1   -4.630494606294555E-1    4.674002978954354E-1    1.633535961499963E-1
 1.798107182112848E8     4.636720214674209E-1    1.566102558346187E-1    4.895626700488547E-1   -4.598931120129189E-1    4.837720595232398E-1   -4.652335169538659E-1    4.702222144108596E-1    1.632590712686006E-1
 1.811826492936349E8     4.667848382804612E-1    1.564732617341664E-1    4.857068751180459E-1   -4.618845409969054E-1    4.798869210612517E-1   -4.671420469374551E-1    4.731813107060843E-1    1.629589777167694E-1
 1.825650480217040E8     4.699581482296803E-1    1.559617622297516E-1    4.818349195790961E-1   -4.635911251297886E-1    4.760082399007705E-1   -4.687946048350049E-1    4.762352380931216E-1    1.623641857465732E-1
 1.839579942621904E8     4.729467915304821E-1    1.552338687940896E-1    4.780664306885883E-1   -4.651211684607168E-1    4.722421938505705E-1   -4.702460442021222E-1    4.791635889826753E-1    1.616475978834190E-1
 1.853615684911660E8     4.756878081460983E-1    1.544413772816366E-1    4.745496363234260E-1   -4.665202796734552E-1    4.687545086791938E-1   -4.716026967842584E-1    4.818534708756462E-1    1.607446575427331E-1
 1.867758517987237E8     4.783657167725695E-1    1.537980162648959E-1    4.711316094555239E-1   -4.681558792114742E-1    4.653626699272681E-1   -4.731730762131425E-1    4.843488014076270E-1    1.600306228533774E-1
 1.882009258936609E8     4.811291735276266E-1    1.531700775318115E-1    4.676332981071680E-1   -4.697861355370873E-1    4.618909572149039E-1   -4.748012320993648E-1    4.869257403380582E-1    1.594205907398927E-1
 1.896368731082037E8     4.838814367575673E-1    1.524044751871981E-1    4.640963997426912E-1   -4.714063485405376E-1    4.583670045732838E-1   -4.764393199781079E-1    4.895892685503573E-1    1.588123557507207E-1
 1.910837764027621E8     4.864402842569249E-1    1.515901988995005E-1    4.606487501564287E-1   -4.730046265187046E-1    4.548952453593871E-1   -4.780029020136091E-1    4.922542312521220E-1    1.581432421045993E-1
 1.925417193707203E8     4.889355219315039E-1    1.510173078168026E-1    4.572156199257894E-1   -4.747858765986781E-1    4.514132818420085E-1   -4.797811866117386E-1    4.948742749641588E-1    1.575310616678454E-1
 1.940107862432706E8     4.914894200693110E-1    1.505344136581523E-1    4.536300993973699E-1   -4.766037010816692E-1    4.477768870140764E-1   -4.815445445404597E-1    4.975629695263140E-1    1.569094802645276E-1
 1.954910618942780E8     4.940506696152578E-1    1.501852472268420E-1    4.500068862466424E-1   -4.784869922748629E-1    4.441130473373380E-1   -4.833314204963037E-1    5.002318987754764E-1    1.564161977368924E-1
 1.969826318451810E8     4.969144468743947E-1    1.501061192545679E-1    4.461183190350293E-1   -4.804184981165235E-1    4.402154823694557E-1   -4.851855242569523E-1    5.032106978030468E-1    1.558483141378354E-1
 1.984855822699381E8     5.001317846620570E-1    1.498346545977793E-1    4.421159964757458E-1   -4.821938713330989E-1    4.362259065125521E-1   -4.868631391399054E-1    5.060496617798711E-1    1.550750771414206E-1
 2.000000000000000E8     5.034449629195676E-1    1.494234497756704E-1    4.380212447351547E-1   -4.838647523926578E-1    4.321163195643498E-1   -4.884727714556805E-1    5.089035213639582E-1    1.543936421619320E-1
