#  HZ   S   RI   R     50.00 
! Rohde & Schwarz Vector Network Analyzer 
! Rohde-Schwarz,ZNLE6-2Port,1323001256200024,1.71.1.10-23.02.1.238
! Created: UTC 4/11/2025, 8:03:57 AM
! freq[Hz]                re:S11                  im:S11                  re:S21                  im:S21                  re:S12                  im:S12                  re:S22                  im:S22
 1.000000000000000E5     1.447180720578050E-1    9.929021614692650E-2    8.569612737181481E-1   -9.940777811923757E-2    8.572873590012977E-1   -9.936200140074138E-2    1.446168057684739E-1    9.918578227376613E-2
 1.007629862646662E5     1.451839948024095E-1    9.931996428009630E-2    8.564974692776521E-1   -9.947231847925167E-2    8.568102270920175E-1   -9.942477371470385E-2    1.450647547289736E-1    9.922626925668802E-2
 1.015317940097331E5     1.456269989847315E-1    9.938165708313842E-2    8.560367433303739E-1   -9.952827435912610E-2    8.563726943820007E-1   -9.948301803075897E-2    1.455402457589908E-1    9.928759087759964E-2
 1.023064676522963E5     1.460781153339622E-1    9.942831062419248E-2    8.555700826598794E-1   -9.959035439681509E-2    8.558863421714811E-1   -9.955102093639452E-2    1.459809704265397E-1    9.933557864668276E-2
 1.030870519483485E5     1.465281317084848E-1    9.948343465633863E-2    8.551071589371481E-1   -9.965217835022219E-2    8.554226963778876E-1   -9.960457673077959E-2    1.464350902166495E-1    9.938591636032681E-2
 1.038735919953636E5     1.469612974300158E-1    9.953866695364601E-2    8.546295276851128E-1   -9.971225996891100E-2    8.549673868784452E-1   -9.965444789839233E-2    1.468914912339817E-1    9.944297829954084E-2
 1.046661332349037E5     1.474265294809729E-1    9.958791271788436E-2    8.541604676600956E-1   -9.977611401256119E-2    8.545221456689881E-1   -9.971916303164571E-2    1.473488168444543E-1    9.950729012894075E-2
 1.054647214552430E5     1.478833351361291E-1    9.964702586654428E-2    8.537081827656905E-1   -9.984080821466400E-2    8.540506912879301E-1   -9.977815785112298E-2    1.477915351832311E-1    9.956038885523542E-2
 1.062694027940149E5     1.483566942841469E-1    9.970209794860446E-2    8.532671498032072E-1   -9.989350076069908E-2    8.536088768978327E-1   -9.983138129339179E-2    1.482679607716856E-1    9.963171711354450E-2
 1.070802237408760E5     1.488000168865702E-1    9.977014394915627E-2    8.528096449668391E-1   -9.994622200537168E-2    8.531731328559872E-1   -9.991123739338409E-2    1.487106228940858E-1    9.968583579828161E-2
 1.078972311401927E5     1.492470031846130E-1    9.983477144045774E-2    8.523499620688265E-1   -1.000040956549706E-1    8.527018235378734E-1   -9.996953256232545E-2    1.491603867401501E-1    9.974468379609788E-2
 1.087204721937475E5     1.496934563417222E-1    9.988930748173025E-2    8.518938566952338E-1   -1.000754236088173E-1    8.522479456186961E-1   -1.000295048007304E-1    1.496311619807727E-1    9.980662033084367E-2
 1.095499944634658E5     1.501578555218561E-1    9.995235631244831E-2    8.514396924198532E-1   -1.001403299876094E-1    8.517755131130950E-1   -1.000862565946833E-1    1.500613299803240E-1    9.986641816220282E-2
 1.103858458741646E5     1.506151634283461E-1    1.000123097157686E-1    8.509840752520920E-1   -1.002160610982568E-1    8.513401624604361E-1   -1.001583642445553E-1    1.505352242395802E-1    9.993042088380387E-2
 1.112280747163201E5     1.510599959352321E-1    1.000725251763861E-1    8.505196948707227E-1   -1.002721623087493E-1    8.508840095210535E-1   -1.002341948679034E-1    1.509836150795505E-1    9.998960215412793E-2
 1.120767296488583E5     1.515303153543736E-1    1.001555407758291E-1    8.500806347163942E-1   -1.003303600122497E-1    8.504203957727001E-1   -1.003051279597997E-1    1.514363748493821E-1    1.000543290154815E-1
 1.129318597019661E5     1.519851013746880E-1    1.002184352292338E-1    8.496171355254044E-1   -1.004048630854545E-1    8.499667112701793E-1   -1.003720322938296E-1    1.518931174005433E-1    1.001206169890753E-1
 1.137935142799240E5     1.524533951873530E-1    1.002887133004054E-1    8.491794384058456E-1   -1.004765714933229E-1    8.494937764337899E-1   -1.004319221764399E-1    1.523227638527136E-1    1.001971937010030E-1
 1.146617431639607E5     1.528928991685578E-1    1.003525847362079E-1    8.487193058791163E-1   -1.005533106552144E-1    8.490452462597574E-1   -1.005120419481159E-1    1.527840195709873E-1    1.002683246806064E-1
 1.155365965151286E5     1.533544028389584E-1    1.004211802751928E-1    8.482797969929545E-1   -1.006175266801841E-1    8.485942864377640E-1   -1.005852832643367E-1    1.532378444414007E-1    1.003411517768248E-1
 1.164181248772018E5     1.537996962606514E-1    1.004944702880125E-1    8.478358784624980E-1   -1.006823001590321E-1    8.481360579965195E-1   -1.006658955002112E-1    1.536871275304681E-1    1.004009932259799E-1
 1.173063791795965E5     1.542559055750636E-1    1.005536375383952E-1    8.473788057728640E-1   -1.007570103056570E-1    8.476621783559940E-1   -1.007462764129273E-1    1.541482309763356E-1    1.004752416678264E-1
 1.182014107403141E5     1.546981845640278E-1    1.006358375714798E-1    8.469177545916128E-1   -1.008295085035095E-1    8.472175711243524E-1   -1.008085414892895E-1    1.546104184211249E-1    1.005605218998179E-1
 1.191032712689044E5     1.551849187602580E-1    1.007077707263285E-1    8.464566070350824E-1   -1.009235947064203E-1    8.467639488055434E-1   -1.008936831587322E-1    1.550672348878245E-1    1.006210357410526E-1
 1.200120128694542E5     1.556485080085827E-1    1.007912215831073E-1    8.460047450332853E-1   -1.009932442613505E-1    8.463170256820306E-1   -1.009631198042290E-1    1.555230274019718E-1    1.007047445898774E-1
 1.209276880435975E5     1.560828130059400E-1    1.008615439781651E-1    8.455233868771778E-1   -1.010692445969275E-1    8.458626032432880E-1   -1.010474711661905E-1    1.559883685499887E-1    1.007771596842546E-1
 1.218503496935483E5     1.565272868370928E-1    1.009322610879504E-1    8.450731472857695E-1   -1.011571943662709E-1    8.454007673825444E-1   -1.011189327895724E-1    1.564384463210951E-1    1.008550601421486E-1
 1.227800511251578E5     1.569887575501318E-1    1.010183115870055E-1    8.446166114158602E-1   -1.012317165035979E-1    8.449526875375191E-1   -1.012010420669474E-1    1.568954878968146E-1    1.009374615681287E-1
 1.237168460509929E5     1.574469944428705E-1    1.010915090634202E-1    8.441604687355276E-1   -1.013090970835043E-1    8.445133136463944E-1   -1.012843513597206E-1    1.573583645631942E-1    1.010110937801298E-1
 1.246607885934402E5     1.579168705662285E-1    1.011705054568385E-1    8.437152495103595E-1   -1.013988206318106E-1    8.440390287891477E-1   -1.013750204582869E-1    1.578150382239418E-1    1.010964338411162E-1
 1.256119332878327E5     1.583549127659458E-1    1.012567667771026E-1    8.432467290180766E-1   -1.014785082354520E-1    8.435849860362163E-1   -1.014660078656463E-1    1.582701179630017E-1    1.011699513364485E-1
 1.265703350856002E5     1.588230951956793E-1    1.013377346440126E-1    8.427826484910397E-1   -1.015694519554300E-1    8.431405447206047E-1   -1.015411686044141E-1    1.587183079743113E-1    1.012472845868310E-1
 1.275360493574453E5     1.592829092155366E-1    1.014219904745646E-1    8.423332327382917E-1   -1.016451290505408E-1    8.426841842048145E-1   -1.016118138914359E-1    1.591828493159915E-1    1.013383280164622E-1
 1.285091318965405E5     1.597322405705563E-1    1.015001083932294E-1    8.418667716819563E-1   -1.017363271417320E-1    8.422344052321366E-1   -1.017096420184579E-1    1.596509217645530E-1    1.014201248592793E-1
 1.294896389217529E5     1.601811314394214E-1    1.015812343509283E-1    8.413977055599163E-1   -1.018203105546980E-1    8.417474278408040E-1   -1.017956489282439E-1    1.600933937545888E-1    1.015067949419600E-1
 1.304776270808914E5     1.606488870348513E-1    1.016680142065615E-1    8.409431650411435E-1   -1.019127475693687E-1    8.412776813952030E-1   -1.018875616702681E-1    1.605549484374757E-1    1.015880145786122E-1
 1.314731534539810E5     1.611145582435964E-1    1.017567428520295E-1    8.404996802868508E-1   -1.020039306100531E-1    8.408260326825802E-1   -1.019829077628850E-1    1.610196070070684E-1    1.016796995846571E-1
 1.324762755565583E5     1.615643497417819E-1    1.018464832142055E-1    8.400193586490982E-1   -1.020944883634036E-1    8.403857418212398E-1   -1.020596940101233E-1    1.614798150456803E-1    1.017732350217211E-1
 1.334870513429962E5     1.620241976438496E-1    1.019293149418105E-1    8.395457444441243E-1   -1.022014955826420E-1    8.399223072329861E-1   -1.021478758569998E-1    1.619238361670373E-1    1.018642831499689E-1
 1.345055392098512E5     1.624857074750261E-1    1.020231896502813E-1    8.390796491373155E-1   -1.022837155643032E-1    8.394544835403838E-1   -1.022396206641446E-1    1.623854518768142E-1    1.019461838987809E-1
 1.355317979992373E5     1.629439913199313E-1    1.021139126518255E-1    8.386278089711684E-1   -1.023716112470375E-1    8.389679637342653E-1   -1.023420384478908E-1    1.628443774704003E-1    1.020411110120999E-1
 1.365658870022265E5     1.634191279837455E-1    1.022049426808139E-1    8.381598084454079E-1   -1.024699329199626E-1    8.385091977991324E-1   -1.024382711120599E-1    1.633227876844936E-1    1.021283990037630E-1
 1.376078659622731E5     1.638898643712924E-1    1.023014585324532E-1    8.377106553315431E-1   -1.025628198005624E-1    8.380352510963862E-1   -1.025339233541121E-1    1.637771859620608E-1    1.022214846873047E-1
 1.386577950786655E5     1.643608888414881E-1    1.023934595523295E-1    8.372504279799146E-1   -1.026699139923564E-1    8.375644575757376E-1   -1.026310939793638E-1    1.642438140359685E-1    1.023155196453119E-1
 1.397157350100044E5     1.648177813467266E-1    1.024837757934919E-1    8.367812428696898E-1   -1.027491831630526E-1    8.371082069763063E-1   -1.027329472196140E-1    1.647045031475847E-1    1.024104164934498E-1
 1.407817468777081E5     1.652782589035021E-1    1.025759084450348E-1    8.363264132514109E-1   -1.028578153852258E-1    8.366454532910966E-1   -1.028369563095677E-1    1.651693797444810E-1    1.025070311548843E-1
 1.418558922695422E5     1.657467797054441E-1    1.026765693406428E-1    8.358578147334916E-1   -1.029568942707073E-1    8.361883271619100E-1   -1.029284172596347E-1    1.656376145009947E-1    1.026150686683763E-1
 1.429382332431784E5     1.662079637256035E-1    1.027725083346900E-1    8.353797228512888E-1   -1.030532768430881E-1    8.357199208959654E-1   -1.030237229517305E-1    1.661081372521649E-1    1.027049908548085E-1
 1.440288323297804E5     1.666762045047388E-1    1.028802545284373E-1    8.349085194518103E-1   -1.031634201430673E-1    8.352488394338421E-1   -1.031312742515980E-1    1.665423909542363E-1    1.028094239287983E-1
 1.451277525376154E5     1.671339179557014E-1    1.029673181784224E-1    8.344593244770895E-1   -1.032640467426355E-1    8.347877731000157E-1   -1.032420159012282E-1    1.670183395174567E-1    1.029026229693455E-1
 1.462350573556962E5     1.676053494980265E-1    1.030764836750577E-1    8.339735699463439E-1   -1.033700936372617E-1    8.343511932017617E-1   -1.033398696277750E-1    1.675057736451147E-1    1.029920623186664E-1
 1.473508107574468E5     1.680878262315423E-1    1.031655948999044E-1    8.335178575333085E-1   -1.034734543102877E-1    8.338516825690180E-1   -1.034400702585734E-1    1.679639304057839E-1    1.030935575739431E-1
 1.484750772044004E5     1.685606192149461E-1    1.032823374517463E-1    8.330555291136601E-1   -1.035757194121562E-1    8.333915856248281E-1   -1.035533527194182E-1    1.684227424300746E-1    1.031996427842886E-1
 1.496079216499225E5     1.690334367855559E-1    1.033807027675894E-1    8.325846671579999E-1   -1.036811653545321E-1    8.329192527472441E-1   -1.036542222765595E-1    1.689110704451276E-1    1.033066443268974E-1
 1.507494095429637E5     1.695021637714581E-1    1.034845159964850E-1    8.321082977785231E-1   -1.037895551686734E-1    8.324159456252193E-1   -1.037600621898121E-1    1.693561433980735E-1    1.034171698058222E-1
 1.518996068318418E5     1.699826823923925E-1    1.035799865153433E-1    8.316433508465375E-1   -1.039003948514282E-1    8.319534548086929E-1   -1.038668251793334E-1    1.698322511840501E-1    1.035214716873078E-1
 1.530585799680507E5     1.704530925190504E-1    1.036936674623446E-1    8.311660642465027E-1   -1.040042149821511E-1    8.315027995963038E-1   -1.039774478598413E-1    1.703120474132911E-1    1.036256081930888E-1
 1.542263959101001E5     1.709291578748569E-1    1.038014216477619E-1    8.306963028134888E-1   -1.041172745010098E-1    8.310348253486683E-1   -1.040923008743543E-1    1.707826829608016E-1    1.037342890383193E-1
 1.554031221273835E5     1.713927707967733E-1    1.039111907310983E-1    8.302224810495296E-1   -1.042214240969317E-1    8.305499532845039E-1   -1.042015304322756E-1    1.712742572752805E-1    1.038387322234021E-1
 1.565888266040779E5     1.718781087841431E-1    1.040263075786040E-1    8.297621283612798E-1   -1.043305413724127E-1    8.300662200654373E-1   -1.043066300219922E-1    1.717323579633569E-1    1.039412899752750E-1
 1.577835778430689E5     1.723516579622918E-1    1.041285559124566E-1    8.292893723928795E-1   -1.044466749750678E-1    8.296044237316318E-1   -1.044112645915651E-1    1.722159945398782E-1    1.040607131784290E-1
 1.589874448699104E5     1.728307155361719E-1    1.042384924676710E-1    8.288076061458173E-1   -1.045526594107986E-1    8.291260349100951E-1   -1.045303840595952E-1    1.726987900632764E-1    1.041633098245759E-1
 1.602004972368116E5     1.733021363212786E-1    1.043407700035597E-1    8.283251858722283E-1   -1.046683115406283E-1    8.286675629091026E-1   -1.046432794016289E-1    1.731800337439111E-1    1.042784718051875E-1
 1.614228050266550E5     1.737788212539007E-1    1.044617060644375E-1    8.278409528468615E-1   -1.047828878138806E-1    8.281716957998586E-1   -1.047627073822093E-1    1.736538504878444E-1    1.043836797232869E-1
 1.626544388570473E5     1.742654763329288E-1    1.045805299808300E-1    8.273494704191088E-1   -1.048870192177278E-1    8.276983519573842E-1   -1.048955901383833E-1    1.741467743643404E-1    1.044987365064098E-1
 1.638954698843964E5     1.747443677901493E-1    1.046893969422303E-1    8.268718343001213E-1   -1.050175576140126E-1    8.272261421726208E-1   -1.050070699971662E-1    1.746352258334340E-1    1.046131997943657E-1
 1.651459698080244E5     1.752492719990897E-1    1.047991235203750E-1    8.263933325100293E-1   -1.051319169605331E-1    8.267407357405561E-1   -1.051227974688939E-1    1.751213220197993E-1    1.047284115596980E-1
 1.664060108743095E5     1.757289428040897E-1    1.049178297273792E-1    8.259017777672292E-1   -1.052545633256337E-1    8.262449228364889E-1   -1.052340435205018E-1    1.755984483182647E-1    1.048536422402808E-1
 1.676756658808590E5     1.762029118977423E-1    1.050361536892201E-1    8.254033435185359E-1   -1.053812010436998E-1    8.257575252364856E-1   -1.053601437760204E-1    1.760790042466657E-1    1.049668671240049E-1
 1.689550081807175E5     1.766862548485664E-1    1.051537084604934E-1    8.249209469166165E-1   -1.054924595178684E-1    8.252794550418574E-1   -1.054753256976028E-1    1.765767495326352E-1    1.050848035917692E-1
 1.702441116866020E5     1.771744890407113E-1    1.052728388110846E-1    8.244228341002818E-1   -1.056233301475378E-1    8.247828893455481E-1   -1.055966294828398E-1    1.770513662780352E-1    1.051965743201048E-1
 1.715430508751738E5     1.776617817784950E-1    1.053853586599076E-1    8.239336247866800E-1   -1.057448198310056E-1    8.243053192747302E-1   -1.057164406094054E-1    1.775335133622866E-1    1.053160253875939E-1
 1.728519007913403E5     1.781712234359659E-1    1.055058538736103E-1    8.234790509013749E-1   -1.058637006871268E-1    8.238301589140212E-1   -1.058519105778728E-1    1.780568916879059E-1    1.054308870178536E-1
 1.741707370525927E5     1.786754874123725E-1    1.056275107700189E-1    8.229947292499331E-1   -1.059768867069980E-1    8.233357339895604E-1   -1.059696276558594E-1    1.785421680511150E-1    1.055535691043491E-1
 1.754996358533718E5     1.791553340303208E-1    1.057503259769184E-1    8.224921309078606E-1   -1.060936148855674E-1    8.228475681733710E-1   -1.060889234660100E-1    1.790202066166943E-1    1.056723483440410E-1
 1.768386739694722E5     1.796516561114121E-1    1.058725321510752E-1    8.220205140153857E-1   -1.062203452233912E-1    8.223390345446495E-1   -1.062166228528927E-1    1.795226287586895E-1    1.057918092319063E-1
 1.781879287624771E5     1.801475814232167E-1    1.059928481783474E-1    8.215069680418131E-1   -1.063503569360234E-1    8.218704160643048E-1   -1.063321485292076E-1    1.800125884389342E-1    1.059097044525268E-1
 1.795474781842276E5     1.806309213827580E-1    1.061203965884524E-1    8.209915478565106E-1   -1.064759712954653E-1    8.213555400320365E-1   -1.064648836395448E-1    1.805087284963755E-1    1.060371076664256E-1
 1.809174007813277E5     1.811323888999878E-1    1.062388267577251E-1    8.205092564187328E-1   -1.065863761763263E-1    8.208635191955094E-1   -1.065851358274754E-1    1.810051941728933E-1    1.061637517349903E-1
 1.822977756996804E5     1.816260996502170E-1    1.063571490938145E-1    8.200197321150339E-1   -1.067160432048957E-1    8.203703862385788E-1   -1.067107176256804E-1    1.815239878542072E-1    1.062879830241340E-1
 1.836886826890609E5     1.821304272762124E-1    1.064870481537841E-1    8.195038177775048E-1   -1.068521347488309E-1    8.198757594097567E-1   -1.068444313859448E-1    1.820218710083921E-1    1.064073472168886E-1
 1.850902021077247E5     1.826426725210587E-1    1.066114376353643E-1    8.190094811596400E-1   -1.069906439567555E-1    8.193817660738414E-1   -1.069761363650585E-1    1.825236775145966E-1    1.065335763470420E-1
 1.865024149270491E5     1.831339800260169E-1    1.067384987909378E-1    8.185071006399898E-1   -1.071177494887012E-1    8.188724834087682E-1   -1.070977827285001E-1    1.830114440146050E-1    1.066621378630100E-1
 1.879254027362132E5     1.836217726836516E-1    1.068592662281654E-1    8.179833861391549E-1   -1.072415594284879E-1    8.183720664092804E-1   -1.072325803899446E-1    1.835213679215426E-1    1.067902009767064E-1
 1.893592477469092E5     1.841665181995706E-1    1.069717477168260E-1    8.175214931465117E-1   -1.073861645471293E-1    8.178274909453820E-1   -1.073585890467763E-1    1.840298477337554E-1    1.068967726244397E-1
 1.908040327980933E5     1.846524036184534E-1    1.071188632559550E-1    8.169992832779879E-1   -1.074967853025510E-1    8.173674402288899E-1   -1.074849792243588E-1    1.845163200869926E-1    1.070435524834985E-1
 1.922598413607715E5     1.851523934510965E-1    1.072358750809636E-1    8.164931709625315E-1   -1.076253600947392E-1    8.168725189300626E-1   -1.076178995904143E-1    1.850369150290524E-1    1.071728063740075E-1
 1.937267575428232E5     1.856574954139394E-1    1.073740398974435E-1    8.159940029690054E-1   -1.077410276993591E-1    8.163172513585102E-1   -1.077405208648250E-1    1.855392706816345E-1    1.073040457973930E-1
 1.952048660938581E5     1.861640682267912E-1    1.074896374482405E-1    8.154602551499954E-1   -1.078926515209309E-1    8.158457860746107E-1   -1.078825678538068E-1    1.860627816595387E-1    1.074164695274720E-1
 1.966942524101142E5     1.866881726685628E-1    1.076263949198901E-1    8.149662916332612E-1   -1.080195015275071E-1    8.153262642020834E-1   -1.080100158792876E-1    1.865733006758375E-1    1.075589361083162E-1
 1.981950025393913E5     1.871923891960562E-1    1.077521801329435E-1    8.144482687801788E-1   -1.081508612881955E-1    8.147951253028796E-1   -1.081422516441259E-1    1.870843796177958E-1    1.076845961594781E-1
 1.997072031860212E5     1.877319830840422E-1    1.078814675254000E-1    8.139612376473782E-1   -1.082772504556111E-1    8.143014823103927E-1   -1.082734942399973E-1    1.875982015493849E-1    1.078146673334577E-1
 2.012309417158795E5     1.882226162422133E-1    1.080151598876129E-1    8.134127202060417E-1   -1.084079844114922E-1    8.138049839321837E-1   -1.084003458914797E-1    1.881184289130591E-1    1.079545308861195E-1
 2.027663061614301E5     1.887633771182163E-1    1.081460790442228E-1    8.129358395853881E-1   -1.085512458969811E-1    8.132706003882566E-1   -1.085379556502088E-1    1.886134964867665E-1    1.080633442623677E-1
 2.043133852268128E5     1.892790503929168E-1    1.082740087619142E-1    8.123988576169753E-1   -1.086833457642912E-1    8.127466609333615E-1   -1.086754984515047E-1    1.891531155545052E-1    1.081983582786754E-1
 2.058722682929675E5     1.897954352886342E-1    1.084031230035492E-1    8.118719111025237E-1   -1.088086039771127E-1    8.122415371042665E-1   -1.087985837062831E-1    1.896794424456254E-1    1.083356545451539E-1
 2.074430454227995E5     1.903154256592710E-1    1.085293582192528E-1    8.113545590263456E-1   -1.089494762570878E-1    8.116914140163034E-1   -1.089375703936590E-1    1.901888928491217E-1    1.084496911453587E-1
 2.090258073663807E5     1.908604189252381E-1    1.086691817061748E-1    8.108360915603492E-1   -1.090827519191443E-1    8.111813257951402E-1   -1.090832305721394E-1    1.907252200728059E-1    1.085871724075652E-1
 2.106206455661938E5     1.913786871621362E-1    1.087978465443511E-1    8.103334048619134E-1   -1.092105177927053E-1    8.106292580279918E-1   -1.092080444338679E-1    1.912320213354840E-1    1.087301577514097E-1
 2.122276521624151E5     1.919008633786183E-1    1.089234476356409E-1    8.098137300194260E-1   -1.093503211037382E-1    8.101205323516267E-1   -1.093435032573211E-1    1.917710859855133E-1    1.088493820572191E-1
 2.138469199982374E5     1.924127044512358E-1    1.090547502744985E-1    8.092761262476413E-1   -1.094861415334984E-1    8.095959897497274E-1   -1.094804431075235E-1    1.923025137623673E-1    1.089668878086795E-1
 2.154785426252357E5     1.929559126851214E-1    1.091838144191761E-1    8.087337655920559E-1   -1.096254016238165E-1    8.090580743026753E-1   -1.096112173174199E-1    1.928302712294011E-1    1.091077051516925E-1
 2.171226143087691E5     1.935000221970202E-1    1.093213052294014E-1    8.081972558570369E-1   -1.097594552210026E-1    8.085269150688090E-1   -1.097481088723835E-1    1.933603301363064E-1    1.092401496229154E-1
 2.187792300334291E5     1.940260840777388E-1    1.094495357560817E-1    8.076501818288384E-1   -1.098929339863798E-1    8.080048759343308E-1   -1.098792965815382E-1    1.938963115071609E-1    1.093646037573331E-1
 2.204484855085266E5     1.945487488983497E-1    1.095812954146626E-1    8.071205184789441E-1   -1.100282053314035E-1    8.074971471603064E-1   -1.100315708233821E-1    1.944323954598338E-1    1.094896161310469E-1
 2.221304771736209E5     1.951044767099554E-1    1.097060280513634E-1    8.065775444296610E-1   -1.101753711578988E-1    8.069657719555319E-1   -1.101524822180022E-1    1.949618757546186E-1    1.096233195492392E-1
 2.238253022040931E5     1.956343210385560E-1    1.098450344668632E-1    8.060300147085229E-1   -1.103058135799587E-1    8.064488948358649E-1   -1.102902853443840E-1    1.955074098106931E-1    1.097493070103821E-1
 2.255330585167579E5     1.961654856226908E-1    1.099611845551219E-1    8.054899132717049E-1   -1.104480780371676E-1    8.058888853985747E-1   -1.104281046319630E-1    1.960295226072584E-1    1.098862288679539E-1
 2.272538447755223E5     1.967213520538652E-1    1.101034378853506E-1    8.049281665531695E-1   -1.105777406099928E-1    8.053375146447743E-1   -1.105555258743406E-1    1.965852163243945E-1    1.100223313576183E-1
 2.289877603970853E5     1.972522885564258E-1    1.102369359079507E-1    8.043914130490747E-1   -1.107121775742175E-1    8.047956093289025E-1   -1.106911905627820E-1    1.971266891490102E-1    1.101507066142866E-1
 2.307349055566813E5     1.978077243526186E-1    1.103619320287946E-1    8.038610500952883E-1   -1.108514556409693E-1    8.042588504315910E-1   -1.108304654944033E-1    1.976732066105887E-1    1.102740647599910E-1
 2.324953811938693E5     1.983481039009281E-1    1.105030703333838E-1    8.033379524075069E-1   -1.109634441807766E-1    8.037184732222300E-1   -1.109573217365470E-1    1.982107122749171E-1    1.104072612545910E-1
 2.342692890183618E5     1.988878713523850E-1    1.106278762338995E-1    8.027579805025196E-1   -1.111166473875661E-1    8.031735097715843E-1   -1.111019311752157E-1    1.987525250731489E-1    1.105350227842587E-1
 2.360567315159030E5     1.994570119305541E-1    1.107571835459358E-1    8.022104274599114E-1   -1.112480729251338E-1    8.025929627861640E-1   -1.112255473134006E-1    1.992890397202071E-1    1.106626888558596E-1
 2.378578119541888E5     1.999906425119616E-1    1.108906649836460E-1    8.016402194488056E-1   -1.113748294784409E-1    8.020630718052388E-1   -1.113613189459825E-1    1.998277284016072E-1    1.107835075853047E-1
 2.396726343888348E5     2.005447188107985E-1    1.110153990299842E-1    8.010789715616533E-1   -1.115004579107109E-1    8.015147505832716E-1   -1.115015828150582E-1    2.003880237554981E-1    1.109059753788805E-1
 2.415013036693852E5     2.011033079628237E-1    1.111336653723508E-1    8.005080585198975E-1   -1.116372017680971E-1    8.009685918923948E-1   -1.116360621871378E-1    2.009433333436601E-1    1.110375018288923E-1
 2.433439254453724E5     2.016566307845319E-1    1.112699056357275E-1    7.999685409566614E-1   -1.117623223596305E-1    8.004161616827231E-1   -1.117685641359364E-1    2.015049802796375E-1    1.111700186293612E-1
 2.452006061724201E5     2.022287262319296E-1    1.113906857595595E-1    7.994439861753833E-1   -1.118850202139642E-1    7.998526270972987E-1   -1.119039541341541E-1    2.020654687331660E-1    1.112951766675085E-1
 2.470714531183934E5     2.027759807835735E-1    1.115226915153099E-1    7.988912828108884E-1   -1.120017098969772E-1    7.992774908397411E-1   -1.120356864290120E-1    2.026154412339411E-1    1.114180783590775E-1
 2.489565743695979E5     2.033323374517075E-1    1.116482229149130E-1    7.983116163687941E-1   -1.121334421467239E-1    7.987120944216630E-1   -1.121765500689830E-1    2.031751006838864E-1    1.115445303588641E-1
 2.508560788370214E5     2.039130430567439E-1    1.117715415870314E-1    7.977535552579531E-1   -1.122749481347333E-1    7.981331615132419E-1   -1.122966190418515E-1    2.037205497142780E-1    1.116750432738388E-1
 2.527700762626280E5     2.044686091819164E-1    1.118895624541627E-1    7.971817790362543E-1   -1.123887481319349E-1    7.975811381229966E-1   -1.124343180038096E-1    2.042835004345520E-1    1.118047638738461E-1
 2.546986772256976E5     2.050299674140043E-1    1.120121294346205E-1    7.966119763238780E-1   -1.125200484390254E-1    7.969970649283012E-1   -1.125675357495292E-1    2.048414126899346E-1    1.119218838700363E-1
 2.566419931492161E5     2.055992265932895E-1    1.121410543577117E-1    7.960633294846908E-1   -1.126356031931339E-1    7.964444667263644E-1   -1.126873865752673E-1    2.054115755258583E-1    1.120554365002942E-1
 2.586001363063102E5     2.061643413427970E-1    1.122579636887660E-1    7.954720773505329E-1   -1.127739228990319E-1    7.958713516817849E-1   -1.128265964951109E-1    2.059843422138827E-1    1.121716743911577E-1
 2.605732198267354E5     2.067380892352242E-1    1.123719746792835E-1    7.949224215399273E-1   -1.128967687113401E-1    7.953018926743960E-1   -1.129461126360999E-1    2.065443075318645E-1    1.123026880664536E-1
 2.625613577034118E5     2.072922963026800E-1    1.124971304644310E-1    7.943510001821799E-1   -1.130079243604596E-1    7.947240966061461E-1   -1.130748440784744E-1    2.071005336396447E-1    1.124138932876659E-1
 2.645646647990093E5     2.078873899175412E-1    1.126174871442447E-1    7.937898202706742E-1   -1.131368930695480E-1    7.941506030125917E-1   -1.131970427706419E-1    2.076721566919957E-1    1.125416724912016E-1
 2.665832568525859E5     2.084514218688874E-1    1.127360405977138E-1    7.932183543964341E-1   -1.132587758927049E-1    7.935642846192568E-1   -1.133239683879944E-1    2.082558489418131E-1    1.126562829873467E-1
 2.686172504862709E5     2.090235551257688E-1    1.128519666597216E-1    7.926570822100425E-1   -1.133806945318007E-1    7.929671407657803E-1   -1.134423287836015E-1    2.088215943997906E-1    1.127792749727403E-1
 2.706667632120051E5     2.096097609863828E-1    1.129677016597732E-1    7.920870957303382E-1   -1.135091032041601E-1    7.923983222085282E-1   -1.135678325125781E-1    2.093952131777255E-1    1.129019052842085E-1
 2.727319134383292E5     2.101704512321611E-1    1.130783407639550E-1    7.915050766489281E-1   -1.136206122078259E-1    7.918009106239372E-1   -1.136800418033217E-1    2.099745727109138E-1    1.130111406736628E-1
 2.748128204772244E5     2.107306407973027E-1    1.131957988231239E-1    7.909167464762716E-1   -1.137364489182584E-1    7.912515737877140E-1   -1.137944440549088E-1    2.105435696556380E-1    1.131406337844523E-1
 2.769096045510074E5     2.113340637386868E-1    1.133173667845636E-1    7.903619937237982E-1   -1.138570794022547E-1    7.906414115584508E-1   -1.139084901061188E-1    2.111213233146463E-1    1.132613841773044E-1
 2.790223867992730E5     2.118927852300264E-1    1.134377137472099E-1    7.897897856250835E-1   -1.139750913005969E-1    7.901078711014325E-1   -1.140284411336878E-1    2.117139141422081E-1    1.133809617286186E-1
 2.811512892858952E5     2.124907743758767E-1    1.135517619823855E-1    7.892132862286639E-1   -1.140863131555398E-1    7.894966901180837E-1   -1.141443723847041E-1    2.122847767755484E-1    1.134887317642359E-1
 2.832964350060779E5     2.130734419049390E-1    1.136642271089645E-1    7.886109299028166E-1   -1.142057394697134E-1    7.889286236587090E-1   -1.142560731176059E-1    2.128735778476404E-1    1.136079263280162E-1
 2.854579478934632E5     2.136405436714530E-1    1.137701976073085E-1    7.880495077670275E-1   -1.143226444121248E-1    7.883455689838674E-1   -1.143688876672661E-1    2.134598640674684E-1    1.137243544974512E-1
 2.876359528272883E5     2.142076189151214E-1    1.138773614568028E-1    7.874383432269612E-1   -1.144411888490161E-1    7.877658389965315E-1   -1.144798334939922E-1    2.140320591556365E-1    1.138391593066622E-1
 2.898305756396023E5     2.147924151395995E-1    1.139938492983670E-1    7.868784105283261E-1   -1.145454563026154E-1    7.872110314709545E-1   -1.145935697869923E-1    2.146411225576590E-1    1.139564375815122E-1
 2.920419431225354E5     2.153888931278623E-1    1.140976951134907E-1    7.863099283622509E-1   -1.146633744170692E-1    7.865838524443359E-1   -1.146877758558276E-1    2.151971132503250E-1    1.140615945047646E-1
 2.942701830356239E5     2.159801396325234E-1    1.142156543887164E-1    7.857478697588531E-1   -1.147744454330080E-1    7.860320535098779E-1   -1.147966015837490E-1    2.157951829637353E-1    1.141793535310640E-1
 2.965154241131938E5     2.165557453663066E-1    1.143170949506986E-1    7.851418400032415E-1   -1.148915815119301E-1    7.854671400078426E-1   -1.149148409687092E-1    2.164070448958815E-1    1.142864523071662E-1
 2.987777960717941E5     2.171272198088338E-1    1.144314443096378E-1    7.845543834984475E-1   -1.149932672053354E-1    7.848707776193142E-1   -1.150228849618464E-1    2.169860214381573E-1    1.143964671431013E-1
 3.010574296176943E5     2.177283229186890E-1    1.145440542536312E-1    7.839737194696761E-1   -1.151015120093740E-1    7.842944207008562E-1   -1.151246883061842E-1    2.175747761826371E-1    1.145066074895315E-1
 3.033544564544337E5     2.183286030297381E-1    1.146397380259484E-1    7.833967518001843E-1   -1.152081598920471E-1    7.837424144010208E-1   -1.152389744039126E-1    2.181641857368516E-1    1.146036522572877E-1
 3.056690092904338E5     2.189241101773847E-1    1.147414091107133E-1    7.828075782152517E-1   -1.153186195427102E-1    7.831557821777485E-1   -1.153466470000312E-1    2.187516956812088E-1    1.147174196207378E-1
 3.080012218466610E5     2.195197602679088E-1    1.148592867190463E-1    7.822312153272616E-1   -1.154234436511774E-1    7.825617427454878E-1   -1.154481168755285E-1    2.193421568060364E-1    1.148154320040578E-1
 3.103512288643551E5     2.201038358912324E-1    1.149528723049426E-1    7.816431174755553E-1   -1.155331715637799E-1    7.819686926178571E-1   -1.155408143686397E-1    2.199388552791208E-1    1.149274719956247E-1
 3.127191661128128E5     2.206881820452983E-1    1.150520503614824E-1    7.810216699239361E-1   -1.156444969684409E-1    7.813997118068799E-1   -1.156587553808449E-1    2.205517957217107E-1    1.150281724164940E-1
 3.151051703972316E5     2.212802794828605E-1    1.151591163555255E-1    7.804497728315060E-1   -1.157405646659056E-1    7.807879351838125E-1   -1.157524153228796E-1    2.211189579369375E-1    1.151308408053315E-1
 3.175093795666154E5     2.218766483667829E-1    1.152502181929078E-1    7.798626537388297E-1   -1.158586578015567E-1    7.801922198077279E-1   -1.158604570267152E-1    2.217070067136558E-1    1.152305240920588E-1
 3.199319325217355E5     2.224646384932417E-1    1.153522647958415E-1    7.792967342278844E-1   -1.159546713037136E-1    7.795885476760901E-1   -1.159675342700609E-1    2.223100434893281E-1    1.153276084367678E-1
 3.223729692231574E5     2.230835486268726E-1    1.154569353190645E-1    7.786826142106095E-1   -1.160583241948278E-1    7.790208253447628E-1   -1.160607627235771E-1    2.229209952167904E-1    1.154323783138691E-1
 3.248326306993267E5     2.236707697136093E-1    1.155477487596077E-1    7.780928442298054E-1   -1.161618851911091E-1    7.784305285212364E-1   -1.161615899417506E-1    2.235026813473533E-1    1.155355354061033E-1
 3.273110590547157E5     2.242637006209827E-1    1.156454680739528E-1    7.775037257689444E-1   -1.162635401986394E-1    7.778471086968312E-1   -1.162687784364330E-1    2.241053587756913E-1    1.156304622639557E-1
 3.298083974780366E5     2.248699912734628E-1    1.157481485558586E-1    7.769017204132375E-1   -1.163544682503177E-1    7.772530347599850E-1   -1.163565364561930E-1    2.247119952453933E-1    1.157214385439322E-1
 3.323247902505097E5     2.254495204782282E-1    1.158416388987261E-1    7.763052970770493E-1   -1.164662548680399E-1    7.766767717038494E-1   -1.164581982919552E-1    2.253100913236930E-1    1.158206818600335E-1
 3.348603827542018E5     2.260652115066832E-1    1.159333386933781E-1    7.757505107925865E-1   -1.165602640993507E-1    7.760941144069150E-1   -1.165590231068412E-1    2.259064208695098E-1    1.159173719519036E-1
 3.374153214804250E5     2.266714677063914E-1    1.160307534130972E-1    7.751584048258414E-1   -1.166587398832203E-1    7.754871648997944E-1   -1.166655122824888E-1    2.265138360049827E-1    1.160114070946151E-1
 3.399897540381991E5     2.272543388951697E-1    1.161188551240199E-1    7.745517986888352E-1   -1.167592065075462E-1    7.748873771197317E-1   -1.167505025270212E-1    2.271034126165046E-1    1.161038062246390E-1
 3.425838291627830E5     2.278579059831965E-1    1.162200945025731E-1    7.739667683880810E-1   -1.168596845551523E-1    7.742898375431800E-1   -1.168499960186958E-1    2.277144695656378E-1    1.161957856656222E-1
 3.451976967242625E5     2.284521552998616E-1    1.163068109051103E-1    7.733350882849871E-1   -1.169499302799808E-1    7.737130704362134E-1   -1.169490269220246E-1    2.283171822151022E-1    1.162912927860804E-1
 3.478315077362126E5     2.290541473608048E-1    1.164049391847744E-1    7.727366502152478E-1   -1.170498908417908E-1    7.731070017177636E-1   -1.170410189671028E-1    2.289394269948771E-1    1.163850243651235E-1
 3.504854143644205E5     2.296486427744957E-1    1.164953066295683E-1    7.721465423873463E-1   -1.171406547299651E-1    7.725151368446831E-1   -1.171396584069408E-1    2.295484373922903E-1    1.164837870750935E-1
 3.531595699356794E5     2.302762904617253E-1    1.165861420223103E-1    7.715870140440647E-1   -1.172363987613042E-1    7.718960485834195E-1   -1.172339627513629E-1    2.301477700000619E-1    1.165659898590331E-1
 3.558541289466428E5     2.308661000561958E-1    1.166743459849354E-1    7.709589403712663E-1   -1.173321959544637E-1    7.712887323027794E-1   -1.173268480730773E-1    2.307407198854414E-1    1.166543513602742E-1
 3.585692470727532E5     2.314612065447550E-1    1.167638295933080E-1    7.703556364745697E-1   -1.174262045023515E-1    7.706831886848865E-1   -1.174234192822246E-1    2.313429625823009E-1    1.167417627704881E-1
 3.613050811772345E5     2.320709553180231E-1    1.168564127877411E-1    7.697593023037560E-1   -1.175217017178135E-1    7.700802649653371E-1   -1.175162801283522E-1    2.319494267917793E-1    1.168347057266559E-1
 3.640617893201578E5     2.326887016955529E-1    1.169426179706548E-1    7.691666641932945E-1   -1.176161720161843E-1    7.694991147805510E-1   -1.176064341884786E-1    2.325563351421696E-1    1.169235496956478E-1
 3.668395307675686E5     2.332775845918237E-1    1.170402391907478E-1    7.685332609878471E-1   -1.176946856640581E-1    7.688906846518762E-1   -1.176974131251384E-1    2.331594768093223E-1    1.170048359772021E-1
 3.696384660006910E5     2.338782478007762E-1    1.171180926175871E-1    7.679204572689352E-1   -1.177968032832547E-1    7.682624425800318E-1   -1.177941105266480E-1    2.337614638243327E-1    1.170876537304109E-1
 3.724587567251991E5     2.345030195661928E-1    1.172092167728064E-1    7.673235670596794E-1   -1.178871780943504E-1    7.677144568328538E-1   -1.178785956401987E-1    2.343816571558040E-1    1.171753619724046E-1
 3.753005658805580E5     2.350977174894625E-1    1.172921271111601E-1    7.667119215971696E-1   -1.179691523216182E-1    7.671017936760370E-1   -1.179716658211362E-1    2.349859526674369E-1    1.172626023156947E-1
 3.781640576494411E5     2.357211796976023E-1    1.173782824387962E-1    7.661479023511548E-1   -1.180676681710528E-1    7.664779007746648E-1   -1.180595901098222E-1    2.355994423144550E-1    1.173515860189581E-1
 3.810493974672107E5     2.363115538444521E-1    1.174719199200058E-1    7.655287443636694E-1   -1.181503416728481E-1    7.658980121515783E-1   -1.181539637334369E-1    2.361933644311263E-1    1.174291193703479E-1
 3.839567520314787E5     2.369252547405622E-1    1.175497148436062E-1    7.649018427585733E-1   -1.182403869483979E-1    7.653134040990953E-1   -1.182508004727124E-1    2.368267021398833E-1    1.175082447635125E-1
 3.868862893117373E5     2.375157839899147E-1    1.176382773906446E-1    7.642867221611624E-1   -1.183288515261588E-1    7.646823047224202E-1   -1.183384516876957E-1    2.374224681860481E-1    1.175898448776595E-1
 3.898381785590618E5     2.381363731382191E-1    1.177240591431210E-1    7.637038905522486E-1   -1.184272620539959E-1    7.640803670902397E-1   -1.184197955923162E-1    2.380324370072165E-1    1.176732762129933E-1
 3.928125903158922E5     2.387517666977450E-1    1.178129565814180E-1    7.630924324882142E-1   -1.185142247421246E-1    7.634750246727482E-1   -1.185128766928183E-1    2.386339644667023E-1    1.177486009869957E-1
 3.958096964258819E5     2.393734951262206E-1    1.178892889845820E-1    7.624752662239320E-1   -1.185988423948759E-1    7.628675072163895E-1   -1.186081279900589E-1    2.392519403809309E-1    1.178297276742294E-1
 3.988296700438284E5     2.399772419733224E-1    1.179765323733269E-1    7.618791700882384E-1   -1.186830785411188E-1    7.622886894805806E-1   -1.186869018242191E-1    2.398634762799868E-1    1.179071993434754E-1
 4.018726856456762E5     2.406121940129206E-1    1.180675646901463E-1    7.612820433634695E-1   -1.187697970386618E-1    7.617014749228799E-1   -1.187880865069868E-1    2.404883909274973E-1    1.179908268311744E-1
 4.049389190385970E5     2.412128812026350E-1    1.181403882149856E-1    7.606719423273678E-1   -1.188655795245512E-1    7.610805015897254E-1   -1.188729032409771E-1    2.410974459720884E-1    1.180667717830591E-1
 4.080285473711492E5     2.418217778639114E-1    1.182255222057574E-1    7.600673535104528E-1   -1.189521538857752E-1    7.604441654992029E-1   -1.189611438239755E-1    2.417029158972335E-1    1.181511481822364E-1
 4.111417491435081E5     2.424454826118443E-1    1.183112020599202E-1    7.594479246773514E-1   -1.190359351815963E-1    7.598331868359457E-1   -1.190464381210772E-1    2.423230353748833E-1    1.182287250153225E-1
 4.142787042177814E5     2.430613616116284E-1    1.183833327441091E-1    7.588539515260802E-1   -1.191269673907920E-1    7.592296983878735E-1   -1.191306787388702E-1    2.429388425989681E-1    1.183035682852292E-1
 4.174395938283992E5     2.436804854627516E-1    1.184576494136333E-1    7.582407342157346E-1   -1.192118030346757E-1    7.586500906404636E-1   -1.192333411914148E-1    2.435640688783628E-1    1.183866519562377E-1
 4.206246005925882E5     2.443005612979717E-1    1.185343388815831E-1    7.576453770133957E-1   -1.193037187581933E-1    7.580437437442993E-1   -1.193204626404157E-1    2.441841105893025E-1    1.184511429224356E-1
 4.238339085209167E5     2.449261725159747E-1    1.186234922004758E-1    7.570126723997790E-1   -1.193876598260557E-1    7.574456421653371E-1   -1.194062533966531E-1    2.448133538869308E-1    1.185377968573947E-1
 4.270677030279291E5     2.455465028018624E-1    1.187006298712726E-1    7.564070868389026E-1   -1.194722052423819E-1    7.568111144720774E-1   -1.194926632548491E-1    2.454188700787550E-1    1.186071890140189E-1
 4.303261709428567E5     2.461817117288544E-1    1.187788177491092E-1    7.558071785358262E-1   -1.195633756324818E-1    7.562079553859306E-1   -1.195792669831529E-1    2.460353647045450E-1    1.186870681023508E-1
 4.336095005204146E5     2.467863084294380E-1    1.188474754587795E-1    7.551962655394345E-1   -1.196383733332606E-1    7.555968619874924E-1   -1.196628525013073E-1    2.466559084451245E-1    1.187623510071586E-1
 4.369178814516730E5     2.474185811675741E-1    1.189319373022610E-1    7.545614865055367E-1   -1.197272139553560E-1    7.549830469191519E-1   -1.197610311805009E-1    2.472801854157141E-1    1.188303999778126E-1
 4.402515048750198E5     2.480466239183065E-1    1.189961911518272E-1    7.539377733336071E-1   -1.198114180580613E-1    7.543689329299499E-1   -1.198369403840601E-1    2.479108772309027E-1    1.189073483935067E-1
 4.436105633872023E5     2.486727667135550E-1    1.190661985517589E-1    7.533385544140665E-1   -1.198994342705036E-1    7.537623043710043E-1   -1.199177632832241E-1    2.485424424027877E-1    1.189824253796222E-1
 4.469952510544541E5     2.492949359944208E-1    1.191342540045056E-1    7.527061347918359E-1   -1.199753441462546E-1    7.531257839708194E-1   -1.200070165877137E-1    2.491493241622794E-1    1.190542475263280E-1
 4.504057634237097E5     2.499383522042233E-1    1.192079354530006E-1    7.520831760493044E-1   -1.200580597391270E-1    7.524805355500086E-1   -1.200823701875636E-1    2.497724595254212E-1    1.191243812232535E-1
 4.538422975338975E5     2.505469837790391E-1    1.192781337320352E-1    7.514242802771699E-1   -1.201275528026748E-1    7.518630305264700E-1   -1.201671621953630E-1    2.503936498745562E-1    1.191836600758269E-1
 4.573050519273265E5     2.511747684408525E-1    1.193452228265374E-1    7.508196657520712E-1   -1.202156343690274E-1    7.512455362349812E-1   -1.202439434963712E-1    2.510191469248733E-1    1.192546234818345E-1
 4.607942266611566E5     2.518099696148494E-1    1.194086962032322E-1    7.501956901142703E-1   -1.202910078924584E-1    7.506227327319180E-1   -1.203230896954799E-1    2.516506228844325E-1    1.193245224968491E-1
 4.643100233189550E5     2.524713192692808E-1    1.194801251661881E-1    7.496178599542374E-1   -1.203831277527025E-1    7.499891619815974E-1   -1.204042099678903E-1    2.522880551990487E-1    1.193849699028095E-1
 4.678526450223470E5     2.530934132724102E-1    1.195378787157931E-1    7.489669091323786E-1   -1.204569945567999E-1    7.493866444456659E-1   -1.204873259093347E-1    2.529182468273933E-1    1.194514736929366E-1
 4.714222964427450E5     2.537293430449714E-1    1.196045636483785E-1    7.483520489987679E-1   -1.205322818599321E-1    7.487267130536110E-1   -1.205470618845873E-1    2.535334605952461E-1    1.195136802143520E-1
 4.750191838131770E5     2.543561880416226E-1    1.196634457217383E-1    7.477103039810854E-1   -1.206045474408587E-1    7.481016655134202E-1   -1.206311315640345E-1    2.541574267880011E-1    1.195777077557814E-1
 4.786435149402010E5     2.549772577319822E-1    1.197293923147068E-1    7.470723413560945E-1   -1.206788051931120E-1    7.474753479485702E-1   -1.207067714980403E-1    2.548092401294396E-1    1.196432567800778E-1
 4.822954992159092E5     2.556101687690326E-1    1.197808448355625E-1    7.464080051337677E-1   -1.207401636113377E-1    7.468313528982019E-1   -1.207836691758867E-1    2.554214268576379E-1    1.196944597790523E-1
 4.859753476300298E5     2.562357663871360E-1    1.198461845490132E-1    7.457908621754027E-1   -1.208072385017670E-1    7.462066447952220E-1   -1.208485383365316E-1    2.560614494436062E-1    1.197542396566557E-1
 4.896832727821107E5     2.568740458905641E-1    1.198969597009057E-1    7.451693066376197E-1   -1.208881187172105E-1    7.455712373369404E-1   -1.209246644941274E-1    2.566982215757458E-1    1.198049272442686E-1
 4.934194888938060E5     2.575000526546483E-1    1.199521928148338E-1    7.445250862621464E-1   -1.209446361578856E-1    7.449551987063926E-1   -1.209923812239533E-1    2.573455088886369E-1    1.198690827238943E-1
 4.971842118212518E5     2.581520990678392E-1    1.200074616167717E-1    7.439381148662563E-1   -1.210244693646291E-1    7.443360847013157E-1   -1.210619696079109E-1    2.579894778452113E-1    1.199315071494203E-1
 5.009776590675358E5     2.587892003462801E-1    1.200496003294484E-1    7.432985937616395E-1   -1.210972931283233E-1    7.436718853057203E-1   -1.211341375059025E-1    2.586253163060525E-1    1.199750308202404E-1
 5.048000497952673E5     2.594436603624343E-1    1.200993575097641E-1    7.426489789554568E-1   -1.211519520492566E-1    7.430752543879040E-1   -1.212016968756168E-1    2.592684461640397E-1    1.200355128345224E-1
 5.086516048392332E5     2.600779931665678E-1    1.201524492892689E-1    7.420393692898625E-1   -1.212261433261454E-1    7.424370624141535E-1   -1.212667027290371E-1    2.599110332107664E-1    1.200839938958073E-1
 5.125325467191607E5     2.607254272540827E-1    1.201913792557673E-1    7.413962448126994E-1   -1.212749654919459E-1    7.417965260833287E-1   -1.213232208772966E-1    2.605255638845037E-1    1.201331582564420E-1
 5.164430996525706E5     2.613492981178306E-1    1.202396701405253E-1    7.407194774649918E-1   -1.213274095068784E-1    7.411540399420470E-1   -1.213848189671583E-1    2.611628386301238E-1    1.201821987128191E-1
 5.203834895677360E5     2.619880493184446E-1    1.202866125223840E-1    7.401066556727681E-1   -1.213888914037067E-1    7.405316329491520E-1   -1.214473222489356E-1    2.618024467745775E-1    1.202255407733245E-1
 5.243539441167285E5     2.626177363862386E-1    1.203308193061022E-1    7.394677172413713E-1   -1.214555494461163E-1    7.398811976612280E-1   -1.215144957813237E-1    2.624484755185460E-1    1.202716535246308E-1
 5.283546926885745E5     2.632664959467410E-1    1.203722954443178E-1    7.388351067494856E-1   -1.215178094249809E-1    7.392424690252549E-1   -1.215646650557735E-1    2.630876160082712E-1    1.203122596979197E-1
 5.323859664225065E5     2.639103155024435E-1    1.204172792410697E-1    7.381792078696024E-1   -1.215603274888256E-1    7.385972061492119E-1   -1.216193716641045E-1    2.637296788182636E-1    1.203583337397929E-1
 5.364479982213206E5     2.645499438931649E-1    1.204508949211021E-1    7.375362513228869E-1   -1.216134754753690E-1    7.379494541621682E-1   -1.216755810947659E-1    2.643628648176624E-1    1.203951927107750E-1
 5.405410227648258E5     2.652019240156380E-1    1.204851681972492E-1    7.368904681718066E-1   -1.216650775958641E-1    7.373360577746447E-1   -1.217231798490841E-1    2.649877669354613E-1    1.204286232634874E-1
 5.446652765234077E5     2.658380406914398E-1    1.205158384941189E-1    7.362565406219255E-1   -1.217089687038955E-1    7.366988203930304E-1   -1.217811014040418E-1    2.656457936271371E-1    1.204674117785256E-1
 5.488209977716873E5     2.664747590155135E-1    1.205549128254225E-1    7.356073586432981E-1   -1.217588500107858E-1    7.360412595291128E-1   -1.218288497665924E-1    2.662759664445344E-1    1.205084060489940E-1
 5.530084266022880E5     2.671177819230849E-1    1.205812345904174E-1    7.349753333542437E-1   -1.218080081265675E-1    7.354291339376962E-1   -1.218767683827513E-1    2.669239232044975E-1    1.205415217387402E-1
 5.572278049397101E5     2.677463206441609E-1    1.206164815530688E-1    7.343504157358441E-1   -1.218509305601275E-1    7.347845375312697E-1   -1.219232170489583E-1    2.675547833569622E-1    1.205760340001242E-1
 5.614793765543010E5     2.683840916609059E-1    1.206453329619552E-1    7.337245628324833E-1   -1.219108330560362E-1    7.341662035840406E-1   -1.219726387944874E-1    2.681973898751591E-1    1.206057089100391E-1
 5.657633870763436E5     2.690349111911973E-1    1.206668361702721E-1    7.331036181136340E-1   -1.219587480038750E-1    7.335492495073840E-1   -1.220226742948874E-1    2.688456211573102E-1    1.206371683379130E-1
 5.700800840102463E5     2.696704110888700E-1    1.207067107726582E-1    7.324580074471175E-1   -1.219999284858310E-1    7.328865441169138E-1   -1.220627483989980E-1    2.694815003865104E-1    1.206614332869157E-1
 5.744297167488408E5     2.703009558497722E-1    1.207304662331281E-1    7.318235945174829E-1   -1.220281259320812E-1    7.322571016864471E-1   -1.221084990162455E-1    2.701021972548860E-1    1.206951436748877E-1
 5.788125365877954E5     2.709267653466316E-1    1.207531717688235E-1    7.311813720645451E-1   -1.220823087421564E-1    7.316280377538927E-1   -1.221543281214224E-1    2.707269284076746E-1    1.207160514207169E-1
 5.832287967401261E5     2.715651128868590E-1    1.207826132292424E-1    7.305311037457544E-1   -1.221073363500699E-1    7.309678911911965E-1   -1.221729020335828E-1    2.713478893477885E-1    1.207413491269467E-1
 5.876787523508312E5     2.722010779117459E-1    1.208006544016768E-1    7.298730693962650E-1   -1.221359939146043E-1    7.303356261880399E-1   -1.222280354774175E-1    2.719977527306116E-1    1.207659947991096E-1
 5.921626605116295E5     2.728495706245025E-1    1.208157501094611E-1    7.292886065144241E-1   -1.221978684794623E-1    7.297229580626119E-1   -1.222814555731141E-1    2.726104736925442E-1    1.207892173488243E-1
 5.966807802758140E5     2.734877100424525E-1    1.208400244307248E-1    7.286710771094915E-1   -1.222351833365887E-1    7.290757604607248E-1   -1.222955609961873E-1    2.732465772451845E-1    1.208127697327780E-1
 6.012333726732214E5     2.741110468523100E-1    1.208649510834279E-1    7.280494538635313E-1   -1.222768970204052E-1    7.284580119771689E-1   -1.223426483433243E-1    2.738668333622046E-1    1.208373681490456E-1
 6.058207007253073E5     2.747610504340339E-1    1.208830599727573E-1    7.273795285773534E-1   -1.223012045440189E-1    7.278030428340730E-1   -1.223660071663346E-1    2.744932473297343E-1    1.208553662872736E-1
 6.104430294603459E5     2.753680004163846E-1    1.209009225295324E-1    7.267405928276889E-1   -1.223200307451462E-1    7.271823785867009E-1   -1.224090838465593E-1    2.751271378000449E-1    1.208730615012673E-1
 6.151006259287392E5     2.759982926957769E-1    1.209343206183494E-1    7.261063414635788E-1   -1.223451831963038E-1    7.265550952061991E-1   -1.224377308639186E-1    2.757844259951234E-1    1.209045443129235E-1
 6.197937592184512E5     2.766308425460549E-1    1.209398827364549E-1    7.255036013904405E-1   -1.224027234145540E-1    7.259380431017720E-1   -1.224957354121844E-1    2.764038923214700E-1    1.209196341336339E-1
 6.245227004705463E5     2.772421518735948E-1    1.209525814637877E-1    7.248787116619279E-1   -1.224420800321814E-1    7.253048332302771E-1   -1.225092454976064E-1    2.770279586276490E-1    1.209337640120577E-1
 6.292877228948588E5     2.778747825680143E-1    1.209761638316363E-1    7.242725712143147E-1   -1.224896586305699E-1    7.246672959803810E-1   -1.225579778510296E-1    2.776569227982427E-1    1.209650313246027E-1
 6.340891017857760E5     2.784917135186654E-1    1.209941197033755E-1    7.236593572473115E-1   -1.225263808205262E-1    7.240478203055966E-1   -1.226061367917403E-1    2.782883003856999E-1    1.209821787205787E-1
 6.389271145381465E5     2.791142072369678E-1    1.210132910499120E-1    7.230150441481811E-1   -1.225645848407280E-1    7.234215729307112E-1   -1.226310530004341E-1    2.789134062940354E-1    1.210002549949506E-1
 6.438020406633007E5     2.797446979719917E-1    1.210260706313266E-1    7.223934936512714E-1   -1.225986718220246E-1    7.227751469540310E-1   -1.226574221006942E-1    2.795250306924856E-1    1.210237585166988E-1
 6.487141618052023E5     2.803915200196800E-1    1.210501753543617E-1    7.217807982228658E-1   -1.226344237281428E-1    7.221692540365718E-1   -1.227139803580386E-1    2.801563933361724E-1    1.210342470591819E-1
 6.536637617567203E5     2.810085835561760E-1    1.210700557428854E-1    7.211554351547604E-1   -1.226783234472966E-1    7.215325242193886E-1   -1.227418678620623E-1    2.807892690417366E-1    1.210592611392916E-1
 6.586511264760230E5     2.816266998943011E-1    1.210913282098473E-1    7.205064610854544E-1   -1.227048006363577E-1    7.208703182086252E-1   -1.227414913137080E-1    2.813961491705555E-1    1.210862750092766E-1
 6.636765441031042E5     2.822609428415206E-1    1.210981728633187E-1    7.198982650340134E-1   -1.227329722455438E-1    7.202645180920432E-1   -1.227886339419768E-1    2.820495013065080E-1    1.211072760296079E-1
 6.687403049764220E5     2.828710496716964E-1    1.211064947755090E-1    7.192504643261941E-1   -1.227723654596607E-1    7.196551911751543E-1   -1.228385517265959E-1    2.826676816943507E-1    1.211250185922057E-1
 6.738427016496789E5     2.835107365707738E-1    1.211379627932449E-1    7.186366086000123E-1   -1.228074673477603E-1    7.190267646251990E-1   -1.228803985666599E-1    2.832879899624721E-1    1.211473211236438E-1
 6.789840289087215E5     2.841362631590890E-1    1.211544874052568E-1    7.179951220189305E-1   -1.228340845595056E-1    7.184115459387159E-1   -1.229263229925501E-1    2.839223614421481E-1    1.211596781176231E-1
 6.841645837885707E5     2.847612943521357E-1    1.211787464652692E-1    7.173615407989585E-1   -1.228715928616866E-1    7.177773962499798E-1   -1.229548411636650E-1    2.845628173136789E-1    1.212006663036757E-1
 6.893846655905881E5     2.853875279640055E-1    1.211973668565014E-1    7.167324498460890E-1   -1.228942999519103E-1    7.171908421299338E-1   -1.230219408114196E-1    2.851723576077641E-1    1.212118932297581E-1
 6.946445758997592E5     2.860131192424943E-1    1.212150486174375E-1    7.161474983013967E-1   -1.229705162326750E-1    7.165449054269456E-1   -1.230463524244702E-1    2.858087873985253E-1    1.212297522852525E-1
 6.999446186021230E5     2.866430841103049E-1    1.212332896517551E-1    7.155003417931862E-1   -1.230052170161595E-1    7.159278604947766E-1   -1.231008295254099E-1    2.864407201713736E-1    1.212483671600721E-1
 7.052850999023273E5     2.872711315809329E-1    1.212599140221375E-1    7.148737795088592E-1   -1.230419005482795E-1    7.152697336571352E-1   -1.231123032022195E-1    2.870447794133282E-1    1.212692016434522E-1
 7.106663283413178E5     2.878753758140951E-1    1.212843011562869E-1    7.142487283027713E-1   -1.230843652641669E-1    7.146483821476747E-1   -1.231486975716761E-1    2.876905000955636E-1    1.212917672388252E-1
 7.160886148141696E5     2.885268791731864E-1    1.212953444509894E-1    7.136153205991143E-1   -1.231306361951712E-1    7.140350564021595E-1   -1.232136837113384E-1    2.883161002458541E-1    1.213106375102359E-1
 7.215522725880400E5     2.891474225950398E-1    1.213219137925271E-1    7.129887593328748E-1   -1.231741037601486E-1    7.133872964196047E-1   -1.232378089261128E-1    2.889198609975807E-1    1.213347279023929E-1
 7.270576173202734E5     2.897878963459910E-1    1.213421456407392E-1    7.123523379539731E-1   -1.232162271905474E-1    7.127917121494480E-1   -1.233075830151617E-1    2.895686559564714E-1    1.213585418935826E-1
 7.326049670766364E5     2.904090707129558E-1    1.213497922863873E-1    7.117169433721184E-1   -1.232485188351892E-1    7.121606715961416E-1   -1.233378372364065E-1    2.902023458596835E-1    1.213763383432665E-1
 7.381946423496918E5     2.910417183417034E-1    1.213739043962267E-1    7.110953767592517E-1   -1.233083536461061E-1    7.115008088499941E-1   -1.233747069727820E-1    2.908304980948909E-1    1.213968829405349E-1
 7.438269660773217E5     2.916840928166803E-1    1.213935286932031E-1    7.104633348558415E-1   -1.233303873665567E-1    7.108564572399244E-1   -1.234102821006713E-1    2.914580636141369E-1    1.214177479649975E-1
 7.495022636613748E5     2.923214362458266E-1    1.214135910213744E-1    7.098355157098436E-1   -1.233933821693593E-1    7.102015100667520E-1   -1.234430967335225E-1    2.920820948005859E-1    1.214413216692737E-1
 7.552208629864733E5     2.929478261249238E-1    1.214325539572098E-1    7.091748391851898E-1   -1.234042778740025E-1    7.095870740755655E-1   -1.234972366846520E-1    2.927317701561126E-1    1.214544680109923E-1
 7.609830944389519E5     2.935879789554568E-1    1.214480902019772E-1    7.085357178522103E-1   -1.234244237636644E-1    7.089525400628707E-1   -1.235317429604109E-1    2.933647281077679E-1    1.214839099260282E-1
 7.667892909259528E5     2.942408748931697E-1    1.214728109065102E-1    7.079076805687612E-1   -1.234820245273021E-1    7.083153353359292E-1   -1.235706403848700E-1    2.940122077395948E-1    1.215014611838834E-1
 7.726397878946491E5     2.948662112701873E-1    1.214817787122784E-1    7.072515822631560E-1   -1.235118747642653E-1    7.076670898126473E-1   -1.236089911273043E-1    2.946322165357060E-1    1.215167881719162E-1
 7.785349233516312E5     2.955067056856643E-1    1.215038586952682E-1    7.065997594064017E-1   -1.235367333519622E-1    7.070075606598842E-1   -1.236235869753803E-1    2.952719064154315E-1    1.215386292432931E-1
 7.844750378824320E5     2.961484929247578E-1    1.215153437445219E-1    7.059543181210358E-1   -1.235740722957651E-1    7.063614036741093E-1   -1.236796084976097E-1    2.959048728531855E-1    1.215534386267795E-1
 7.904604746712097E5     2.967986759888470E-1    1.215277539927326E-1    7.053265070915596E-1   -1.236158269320369E-1    7.057290393072726E-1   -1.237225016338789E-1    2.965460336009350E-1    1.215723449915580E-1
 7.964915795205662E5     2.974481644531838E-1    1.215417426250096E-1    7.046856325853686E-1   -1.236425869736793E-1    7.050873798941831E-1   -1.237530587725017E-1    2.971945943791073E-1    1.215833608736529E-1
 8.025687008715309E5     2.981016523174359E-1    1.215385759088807E-1    7.040254697045493E-1   -1.236853698826652E-1    7.044608784480945E-1   -1.237987502717763E-1    2.978538831409647E-1    1.215943240050077E-1
 8.086921898236905E5     2.987389168140056E-1    1.215519292970037E-1    7.033809402729367E-1   -1.237087191331942E-1    7.038030004571769E-1   -1.238264339495025E-1    2.985077227334516E-1    1.216041925807561E-1
 8.148624001554718E5     2.993799019507767E-1    1.215669766539093E-1    7.027221836898888E-1   -1.237278286619914E-1    7.031349139140510E-1   -1.238410448890295E-1    2.991546291124442E-1    1.216139052578692E-1
 8.210796883445872E5     3.000326695245523E-1    1.215593236509805E-1    7.020592277597405E-1   -1.237468801354901E-1    7.025041448165996E-1   -1.239001727278970E-1    2.998168489150509E-1    1.216151211772649E-1
 8.273444135886204E5     3.006944697701581E-1    1.215628795600214E-1    7.014343021627335E-1   -1.238069851174149E-1    7.018580149936634E-1   -1.239240661405931E-1    3.004779460122283E-1    1.216233794907323E-1
 8.336569378257846E5     3.013172425354662E-1    1.215626102698698E-1    7.007833011914946E-1   -1.238278390898031E-1    7.012092399362981E-1   -1.239476352947577E-1    3.011298716717488E-1    1.216224095877000E-1
 8.400176257558319E5     3.019785702053498E-1    1.215551608070418E-1    7.001331078206493E-1   -1.238609145737302E-1    7.005718672180211E-1   -1.239812902613605E-1    3.017865316492691E-1    1.216307070855338E-1
 8.464268448611222E5     3.026282309512645E-1    1.215592643866506E-1    6.994718546197025E-1   -1.238613486725258E-1    6.999096659342324E-1   -1.239834241670202E-1    3.024162590962963E-1    1.216188501927833E-1
 8.528849654278599E5     3.032849448975200E-1    1.215532044180041E-1    6.988301807784578E-1   -1.238835613858581E-1    6.992548634782080E-1   -1.240305781582859E-1    3.030548011229275E-1    1.216257753037912E-1
 8.593923605674774E5     3.039348362899438E-1    1.215443753827659E-1    6.981776552489808E-1   -1.238989647598331E-1    6.985948917588966E-1   -1.240171928350108E-1    3.037085441485898E-1    1.216187888414546E-1
 8.659494062381978E5     3.045859326625482E-1    1.215374874703890E-1    6.975278465796080E-1   -1.239097813868228E-1    6.979335624085456E-1   -1.240399322058914E-1    3.043625245951955E-1    1.216067965767556E-1
 8.725564812667536E5     3.052207174670379E-1    1.215157310728371E-1    6.968598353334480E-1   -1.239134776683694E-1    6.972809012060726E-1   -1.240484582232435E-1    3.050031642637360E-1    1.216025192776417E-1
 8.792139673702718E5     3.058679407093088E-1    1.215060964796003E-1    6.962283491163851E-1   -1.239542749452377E-1    6.966221663856711E-1   -1.240629279311980E-1    3.056394850466210E-1    1.215972414011175E-1
 8.859222491783336E5     3.065325822479907E-1    1.214875730055617E-1    6.955682485289421E-1   -1.239490868163921E-1    6.959554133482890E-1   -1.240542678959374E-1    3.062885204003554E-1    1.215788213237082E-1
 8.926817142551860E5     3.071643228496381E-1    1.214801575404599E-1    6.949107228504939E-1   -1.239343924974800E-1    6.953187404221135E-1   -1.240676025610694E-1    3.069292132859424E-1    1.215613882452372E-1
 8.994927531221397E5     3.078051698781958E-1    1.214590682091543E-1    6.942645372654480E-1   -1.239718425892875E-1    6.946845516527813E-1   -1.240947299879108E-1    3.075818462415601E-1    1.215411040632170E-1
 9.063557592801275E5     3.084720720439021E-1    1.214344295804671E-1    6.936166824730711E-1   -1.239536246775987E-1    6.940254829485916E-1   -1.241145917219017E-1    3.082243256389684E-1    1.215159489835364E-1
 9.132711292324457E5     3.091056796557892E-1    1.214057768631321E-1    6.929685974405644E-1   -1.239623629771297E-1    6.933855134867870E-1   -1.241119525010008E-1    3.088748278418555E-1    1.214971932395538E-1
 9.202392625076511E5     3.097253266366424E-1    1.213771146544290E-1    6.922925875672947E-1   -1.239367404293999E-1    6.927276201978509E-1   -1.241139071323390E-1    3.095208012095297E-1    1.214846306940331E-1
 9.272605616826499E5     3.103527308120445E-1    1.213597427572574E-1    6.916604470269324E-1   -1.239622193376883E-1    6.920932905370206E-1   -1.241040866251945E-1    3.101723583569108E-1    1.214599857487783E-1
 9.343354324059531E5     3.110071579427432E-1    1.213247315627826E-1    6.910175871965237E-1   -1.239772917554479E-1    6.914321903294475E-1   -1.241049009279951E-1    3.108029077148337E-1    1.214302726079428E-1
 9.414642834211199E5     3.116565829762769E-1    1.212938600920975E-1    6.903706178863501E-1   -1.239547925565235E-1    6.907857602639491E-1   -1.240913284521249E-1    3.114367202472789E-1    1.214047627267349E-1
 9.486475265903610E5     3.122836201051183E-1    1.212728403855704E-1    6.897299167201543E-1   -1.239652025075595E-1    6.901411113660297E-1   -1.240945318917012E-1    3.120801059326084E-1    1.213788924399930E-1
 9.558855769183410E5     3.129070250648381E-1    1.212486796696916E-1    6.890788813585170E-1   -1.239686809405200E-1    6.894822194109450E-1   -1.241053010463394E-1    3.127109659698772E-1    1.213589302415864E-1
 9.631788525761530E5     3.135468586607910E-1    1.212040476150181E-1    6.884343452086575E-1   -1.239489591574796E-1    6.888548217137299E-1   -1.241084239655829E-1    3.133454928185024E-1    1.213248405235977E-1
 9.705277749254764E5     3.141709296413681E-1    1.211860394103949E-1    6.877864977957797E-1   -1.239448482345935E-1    6.882000526450247E-1   -1.241125204304279E-1    3.139691816443636E-1    1.212863538467507E-1
 9.779327685429282E5     3.148100887840090E-1    1.211478441401648E-1    6.871607963172846E-1   -1.239838226647255E-1    6.875492236006029E-1   -1.240625296471853E-1    3.145921857157605E-1    1.212696466277704E-1
 9.853942612445805E5     3.154602933968649E-1    1.211133098549907E-1    6.865412102466724E-1   -1.239538201327116E-1    6.869175104332854E-1   -1.240613247632681E-1    3.152365000037829E-1    1.212466162462112E-1
 9.929126841106854E5     3.160752752699847E-1    1.210809584578112E-1    6.858893539016975E-1   -1.239496651286967E-1    6.862702348864357E-1   -1.240684416194343E-1    3.158481219799273E-1    1.212138059353379E-1
 1.000488471510578E6     3.167115989387282E-1    1.210608907030016E-1    6.852535198704657E-1   -1.239338211413889E-1    6.856429705029572E-1   -1.240614002252812E-1    3.164734783219015E-1    1.211862724556356E-1
 1.008122061127771E6     3.173296073873581E-1    1.210389867196754E-1    6.846236407275618E-1   -1.239225267684676E-1    6.849979456449711E-1   -1.240573774008820E-1    3.171145142293322E-1    1.211607719914481E-1
 1.015813893985245E6     3.179641715670299E-1    1.210212055057297E-1    6.839857442233160E-1   -1.239135542226434E-1    6.843718624643645E-1   -1.240869281101250E-1    3.177575272318765E-1    1.211136322535503E-1
 1.023564414470923E6     3.185900017936890E-1    1.209718663458787E-1    6.833566585090586E-1   -1.239152051732671E-1    6.837309408139357E-1   -1.240556846521887E-1    3.183693425644060E-1    1.211005439521147E-1
 1.031374070363347E6     3.192363293837935E-1    1.209445629947307E-1    6.827353920450088E-1   -1.239193082463864E-1    6.831075187358546E-1   -1.240649268754384E-1    3.190077969663324E-1    1.210753969625940E-1
 1.039243312857548E6     3.198629642419859E-1    1.209273217957514E-1    6.821142077246668E-1   -1.239211318715476E-1    6.824672008244191E-1   -1.240683282491096E-1    3.196238544371716E-1    1.210485841148421E-1
 1.047172596591111E6     3.204843192090131E-1    1.208898797146450E-1    6.814755881967588E-1   -1.239137272736634E-1    6.818169389554884E-1   -1.240532705200298E-1    3.202491195290367E-1    1.210265459008961E-1
 1.055162379670449E6     3.210991628119868E-1    1.208577742018150E-1    6.808210454491429E-1   -1.238960081475669E-1    6.811994379398877E-1   -1.240614730883827E-1    3.208736195034331E-1    1.209942917767739E-1
 1.063213123697260E6     3.217241261497396E-1    1.208440215262153E-1    6.801918910027801E-1   -1.239128654096255E-1    6.805724808070489E-1   -1.240908668000047E-1    3.215006483972223E-1    1.209709756568173E-1
 1.071325293795198E6     3.223450664959451E-1    1.208155173594970E-1    6.795610382853455E-1   -1.238932376419650E-1    6.799370360843238E-1   -1.240787699915804E-1    3.221313972572891E-1    1.209529571319549E-1
 1.079499358636750E6     3.229722133374725E-1    1.207924090103471E-1    6.789362772871371E-1   -1.239108930751690E-1    6.792935922869197E-1   -1.240862791340955E-1    3.227445131772416E-1    1.209250835539861E-1
 1.087735790470306E6     3.235875957089420E-1    1.207682856686370E-1    6.782781995104458E-1   -1.238943026050145E-1    6.786575563315207E-1   -1.240621273842274E-1    3.233840255148536E-1    1.209029361508645E-1
 1.096035065147453E6     3.242293629467324E-1    1.207310941655518E-1    6.776482357558965E-1   -1.239159920930634E-1    6.780206204984712E-1   -1.240686513226438E-1    3.240220486770330E-1    1.208822097025495E-1
 1.104397662150453E6     3.248530068142537E-1    1.207131213681279E-1    6.770178250274023E-1   -1.238872449627639E-1    6.773752414268840E-1   -1.240784336925216E-1    3.246321298039427E-1    1.208627741232709E-1
 1.112824064619953E6     3.254832231151298E-1    1.206945045641488E-1    6.763820520420346E-1   -1.238945350753178E-1    6.767364239333490E-1   -1.240771014805288E-1    3.252755104714298E-1    1.208347271308962E-1
 1.121314759382903E6     3.261141741076720E-1    1.206659397224572E-1    6.757464462270555E-1   -1.239035879229042E-1    6.761097903176196E-1   -1.240746555983473E-1    3.258982868252855E-1    1.208082282156276E-1
 1.129870236980669E6     3.267383834683246E-1    1.206420638458871E-1    6.751079943931267E-1   -1.239146560516707E-1    6.754625675304494E-1   -1.240696479508849E-1    3.265406507851845E-1    1.207935086710724E-1
 1.138490991697383E6     3.273717622370653E-1    1.206158575845324E-1    6.744798721860249E-1   -1.238969949667811E-1    6.748012602810139E-1   -1.240805778708667E-1    3.271726964995609E-1    1.207728062298122E-1
 1.147177521588496E6     3.279835032364616E-1    1.205979616368198E-1    6.738237676201529E-1   -1.238742291670584E-1    6.741755758259651E-1   -1.240589336378049E-1    3.278131435399975E-1    1.207306651121440E-1
 1.155930328509552E6     3.286233190650373E-1    1.205797337601427E-1    6.731906834911385E-1   -1.238808220169781E-1    6.735367893661016E-1   -1.240642999849675E-1    3.284585910175906E-1    1.207144509209012E-1
 1.164749918145190E6     3.292597155563222E-1    1.205384759524390E-1    6.725320858626835E-1   -1.239033573349300E-1    6.728748633264304E-1   -1.240590130446592E-1    3.290804874706810E-1    1.206922168383653E-1
 1.173636800038349E6     3.298843630481509E-1    1.205162464774445E-1    6.718728265322875E-1   -1.239139567398084E-1    6.722338737884479E-1   -1.240703418711847E-1    3.297253787764560E-1    1.206555864997240E-1
 1.182591487619709E6     3.305307564697879E-1    1.204988264725102E-1    6.712283082969591E-1   -1.239012809807760E-1    6.715683096205018E-1   -1.240625628978685E-1    3.303488090262562E-1    1.206295596758478E-1
 1.191614498237359E6     3.311699190270312E-1    1.204593297147232E-1    6.705821949695889E-1   -1.238896923064274E-1    6.709132719563656E-1   -1.240568692731397E-1    3.309865850654525E-1    1.205950359159473E-1
 1.200706353186678E6     3.318237274165555E-1    1.204393106850270E-1    6.699611820629706E-1   -1.238575536352287E-1    6.702737776551154E-1   -1.240521021324909E-1    3.316534869914842E-1    1.205855112143097E-1
 1.209867577740467E6     3.324550872059285E-1    1.203899227913102E-1    6.692933275301872E-1   -1.238699552979635E-1    6.696274607717853E-1   -1.240531314956401E-1    3.322887103925415E-1    1.205465590677412E-1
 1.219098701179276E6     3.331068497788590E-1    1.203706877966512E-1    6.686501799875993E-1   -1.238393848192104E-1    6.689669246414284E-1   -1.240336260916834E-1    3.329284524342623E-1    1.205184581290852E-1
 1.228400256821998E6     3.337413027525388E-1    1.203367527298885E-1    6.679987378703969E-1   -1.238248223446747E-1    6.682953768866176E-1   -1.240376599072852E-1    3.335739769517756E-1    1.204723185066239E-1
 1.237772782056674E6     3.343973856310400E-1    1.202864674397986E-1    6.673463262940414E-1   -1.238100083892506E-1    6.676473152775499E-1   -1.240248237825957E-1    3.342184281256491E-1    1.204295481256470E-1
 1.247216818371540E6     3.350154884527371E-1    1.202331141104159E-1    6.666713243373236E-1   -1.237968212253946E-1    6.670116317138024E-1   -1.239979482107919E-1    3.348722787303697E-1    1.203909980557151E-1
 1.256732911386322E6     3.356779578838737E-1    1.201946788071592E-1    6.660262460958081E-1   -1.237960356072351E-1    6.663469425827981E-1   -1.239760558542644E-1    3.355032768174893E-1    1.203396460972301E-1
 1.266321610883739E6     3.363064904349760E-1    1.201533283493701E-1    6.653645266283170E-1   -1.237818551802528E-1    6.657018860686946E-1   -1.239461183669129E-1    3.361586873921208E-1    1.202934743565190E-1
 1.275983470841281E6     3.369416968396586E-1    1.200999643775188E-1    6.647069175197395E-1   -1.237537789675033E-1    6.650348969774696E-1   -1.239453776274141E-1    3.368317324321902E-1    1.202513252456160E-1
 1.285719049463211E6     3.375961960981876E-1    1.200585462908131E-1    6.640699541581450E-1   -1.237250726535413E-1    6.643659297244293E-1   -1.239393799870192E-1    3.374638199305729E-1    1.201962785153900E-1
 1.295528909212810E6     3.382565912975890E-1    1.199973052083771E-1    6.634229407419392E-1   -1.236980903338631E-1    6.637177231945629E-1   -1.239061524567184E-1    3.380968470888299E-1    1.201446467397722E-1
 1.305413616844883E6     3.389058960623119E-1    1.199363695401808E-1    6.627738670573398E-1   -1.236880314363582E-1    6.630814834195458E-1   -1.238571472243436E-1    3.387426223844415E-1    1.200909055607670E-1
 1.315373743438491E6     3.395353860523180E-1    1.198741980087894E-1    6.621055318211746E-1   -1.236792750374185E-1    6.624252377146138E-1   -1.238241788740433E-1    3.394019606409008E-1    1.200388556509248E-1
 1.325409864429950E6     3.401619086295890E-1    1.198291982742035E-1    6.614606633581412E-1   -1.236210768679857E-1    6.617640132312660E-1   -1.237982749502096E-1    3.400283444282716E-1    1.199699708207984E-1
 1.335522559646084E6     3.408083136933048E-1    1.197685250974614E-1    6.608051649144423E-1   -1.236105283704247E-1    6.611134465582243E-1   -1.237585324642547E-1    3.406523371913130E-1    1.199074885280346E-1
 1.345712413337699E6     3.414373032458753E-1    1.196935318233864E-1    6.601632361084792E-1   -1.235898421327216E-1    6.604672144910473E-1   -1.237177963822986E-1    3.412851460689623E-1    1.198334970754949E-1
 1.355980014213373E6     3.420704544294738E-1    1.196321855119905E-1    6.595216961819246E-1   -1.235434529213643E-1    6.598258672254153E-1   -1.236793177281467E-1    3.419282568273582E-1    1.197623667931666E-1
 1.366325955473440E6     3.427141897392788E-1    1.195700289459172E-1    6.588905261770810E-1   -1.234853024965286E-1    6.591766187977735E-1   -1.236292890555646E-1    3.425533986558110E-1    1.197155014958409E-1
 1.376750834844268E6     3.433501972129428E-1    1.195011465992497E-1    6.582310791434143E-1   -1.234632939417751E-1    6.585332895532523E-1   -1.235999328716284E-1    3.431852996240224E-1    1.196379594990741E-1
 1.387255254612807E6     3.439605739352822E-1    1.194376763232104E-1    6.575952721312901E-1   -1.234183755387773E-1    6.579009354989567E-1   -1.235367020669294E-1    3.438108269895523E-1    1.195704478232774E-1
 1.397839821661363E6     3.445910322021939E-1    1.193773023918330E-1    6.569631189858089E-1   -1.233681461786535E-1    6.572471687622433E-1   -1.235088516336589E-1    3.444525556960024E-1    1.195110746156454E-1
 1.408505147502673E6     3.452258872847053E-1    1.193031533053911E-1    6.563085121740480E-1   -1.233526372192440E-1    6.566083468778725E-1   -1.234654636842474E-1    3.450724085092752E-1    1.194343892891179E-1
 1.419251848315235E6     3.458510913373884E-1    1.192178643746973E-1    6.556822006277752E-1   -1.233148243202213E-1    6.559733640399260E-1   -1.234407630231848E-1    3.457100419444507E-1    1.193729822126572E-1
 1.430080544978898E6     3.464833731058106E-1    1.191619373659532E-1    6.550705743795986E-1   -1.232414549341341E-1    6.553501966965684E-1   -1.233901655678108E-1    3.463302004710826E-1    1.193045904639934E-1
 1.440991863110751E6     3.471002443207453E-1    1.191011762526309E-1    6.544130729939728E-1   -1.232181452177511E-1    6.547351318152634E-1   -1.233592024321912E-1    3.469631300198391E-1    1.192262113557223E-1
 1.451986433101243E6     3.477250932545873E-1    1.190225492462723E-1    6.537944976061199E-1   -1.231725688407940E-1    6.540854980290216E-1   -1.233257528977123E-1    3.475701773909658E-1    1.191587648187995E-1
 1.463064890150622E6     3.483341603520670E-1    1.189606493460667E-1    6.531489240831587E-1   -1.231561910998645E-1    6.534365979969001E-1   -1.232878766968286E-1    3.481956861474751E-1    1.190923196741120E-1
 1.474227874305625E6     3.489417384527183E-1    1.188892879698370E-1    6.525242327190992E-1   -1.231062653631333E-1    6.528263863236813E-1   -1.232335445277579E-1    3.488186605077859E-1    1.190246503815855E-1
 1.485476030496454E6     3.495605673631307E-1    1.188290497647107E-1    6.518960775428834E-1   -1.230584769294158E-1    6.522052859259047E-1   -1.231800078479771E-1    3.494301939392212E-1    1.189734172447067E-1
 1.496810008574050E6     3.501777418268621E-1    1.187665074039637E-1    6.512665022925526E-1   -1.230179542890775E-1    6.515802108055141E-1   -1.231475586745073E-1    3.500449271408489E-1    1.188936254122361E-1
 1.508230463347619E6     3.507914961760740E-1    1.187003288555133E-1    6.506479130257630E-1   -1.230008050614436E-1    6.509513676921187E-1   -1.231125386018065E-1    3.506646824591931E-1    1.188368429794115E-1
 1.519738054622472E6     3.514115249326012E-1    1.186439194687522E-1    6.500440183740969E-1   -1.229423567967516E-1    6.503307218303070E-1   -1.230857876189742E-1    3.512714013311748E-1    1.187587701278309E-1
 1.531333447238147E6     3.520287593014975E-1    1.185901306967208E-1    6.494108031376912E-1   -1.229080035674799E-1    6.497034821805562E-1   -1.230350370781005E-1    3.518943351104356E-1    1.187117362873657E-1
 1.543017311106810E6     3.526372281478375E-1    1.185120494504273E-1    6.487862947941382E-1   -1.228767582892407E-1    6.490803995224733E-1   -1.229967470336288E-1    3.525136941029476E-1    1.186373145218462E-1
 1.554790321251977E6     3.532621892118721E-1    1.184531385674857E-1    6.481576975339161E-1   -1.228536916452837E-1    6.484519545020441E-1   -1.229624886575886E-1    3.531297842184150E-1    1.185909086941497E-1
 1.566653157847488E6     3.538689627386107E-1    1.183913239019034E-1    6.475229877835911E-1   -1.228219769923791E-1    6.478074595131552E-1   -1.229377401475382E-1    3.537499545253683E-1    1.185090074546109E-1
 1.578606506256824E6     3.544791389287074E-1    1.183312417363717E-1    6.468701444477589E-1   -1.228020199606621E-1    6.471744068931716E-1   -1.229032270741698E-1    3.543587518683536E-1    1.184492913079990E-1
 1.590651057072690E6     3.551072992928557E-1    1.182716603028896E-1    6.462352893774511E-1   -1.227686971360735E-1    6.465474978942983E-1   -1.228587613887658E-1    3.549795165994521E-1    1.183964257134071E-1
 1.602787506156919E6     3.557206274979381E-1    1.182182494833822E-1    6.455996547100074E-1   -1.227429966155424E-1    6.459091973226152E-1   -1.228211621215027E-1    3.556065331480980E-1    1.183357838835578E-1
 1.615016554680682E6     3.563331772634268E-1    1.181596830078009E-1    6.449457796667201E-1   -1.226945948656316E-1    6.453033006454222E-1   -1.227687657698699E-1    3.562213624235567E-1    1.182792832367951E-1
 1.627338909164981E6     3.569666147726573E-1    1.180879856664477E-1    6.443325063434485E-1   -1.226621546691482E-1    6.446588466246560E-1   -1.227424161960950E-1    3.568567451494397E-1    1.182219868397760E-1
 1.639755281521474E6     3.575961468468299E-1    1.180283978105728E-1    6.437089262978316E-1   -1.226311982421735E-1    6.439926163035360E-1   -1.227255318575345E-1    3.574676267409077E-1    1.181452940375007E-1
 1.652266389093622E6     3.582131235596143E-1    1.179522649628995E-1    6.430634278596904E-1   -1.226006018181801E-1    6.433566476786954E-1   -1.226829266253336E-1    3.580866851160527E-1    1.180847905472545E-1
 1.664872954698102E6     3.588308421445393E-1    1.179026391553011E-1    6.424414163077692E-1   -1.225559045124311E-1    6.427198826628348E-1   -1.226409408166783E-1    3.587121690524946E-1    1.180174712988985E-1
 1.677575706666590E6     3.594550762439900E-1    1.178229951810241E-1    6.417684484949758E-1   -1.225356976431666E-1    6.420529242759812E-1   -1.226149399128412E-1    3.593522387686708E-1    1.179317787388524E-1
 1.690375378887833E6     3.600809810953056E-1    1.177471064782223E-1    6.411417898021641E-1   -1.224958455766899E-1    6.414337960191064E-1   -1.225707889995358E-1    3.599690114079560E-1    1.178708948647478E-1
 1.703272710850043E6     3.607164446530440E-1    1.176865558002914E-1    6.404995321820413E-1   -1.224473812831390E-1    6.407730580678154E-1   -1.225283858845218E-1    3.605923928994158E-1    1.178007567599658E-1
 1.716268447683636E6     3.613510423921643E-1    1.176206363646136E-1    6.398689998349663E-1   -1.223982163941622E-1    6.401158577324225E-1   -1.224886962343165E-1    3.612128690244101E-1    1.177179170213298E-1
 1.729363340204262E6     3.619726687351341E-1    1.175338610998769E-1    6.392109492671714E-1   -1.223543237268124E-1    6.394840782406983E-1   -1.224404501788878E-1    3.618496739872396E-1    1.176366768428888E-1
 1.742558144956193E6     3.625887787068369E-1    1.174644852923182E-1    6.385814943926988E-1   -1.223029925065765E-1    6.388492918319093E-1   -1.223860801298997E-1    3.624774691063166E-1    1.175669980427672E-1
 1.755853624256030E6     3.632104189976940E-1    1.173678418813761E-1    6.379290020266218E-1   -1.222566662201961E-1    6.382265233778475E-1   -1.223274804145523E-1    3.630994844112644E-1    1.174813630431865E-1
 1.769250546236744E6     3.638428596858136E-1    1.172837082007839E-1    6.372731021806097E-1   -1.222108533454539E-1    6.375961248677346E-1   -1.222725130002731E-1    3.637418958870989E-1    1.173955978911101E-1
 1.782749684892061E6     3.644891755313270E-1    1.171962789293672E-1    6.366388766887938E-1   -1.221612003429015E-1    6.369520068946315E-1   -1.222173530980158E-1    3.643703535278211E-1    1.173107716025638E-1
 1.796351820121167E6     3.650834573167838E-1    1.171105818649475E-1    6.359740885864572E-1   -1.221039773673041E-1    6.362918019105532E-1   -1.221613020924734E-1    3.649757687191181E-1    1.172288774879140E-1
 1.810057737773773E6     3.657076899521096E-1    1.170144509454347E-1    6.353324997129917E-1   -1.220488314339585E-1    6.356489755565118E-1   -1.220987059499470E-1    3.655949438650297E-1    1.171268150573250E-1
 1.823868229695514E6     3.663274803489658E-1    1.169257019614383E-1    6.346888282620752E-1   -1.219857237236124E-1    6.350179848632944E-1   -1.220315992510627E-1    3.662053309867164E-1    1.170367618135237E-1
 1.837784093773698E6     3.669484119126992E-1    1.168322499754011E-1    6.340694627781648E-1   -1.219289198628934E-1    6.343707914144950E-1   -1.219731728615799E-1    3.668446403371387E-1    1.169456226776504E-1
 1.851806133983411E6     3.675744291815892E-1    1.167443019948482E-1    6.334491935853117E-1   -1.218609610008078E-1    6.337342399536234E-1   -1.219123952245340E-1    3.674686322425029E-1    1.168530190800899E-1
 1.865935160433950E6     3.682117890372182E-1    1.166443384525817E-1    6.328364980558656E-1   -1.217898871804297E-1    6.331038354329211E-1   -1.218391565170223E-1    3.680773156874733E-1    1.167611203794824E-1
 1.880171989415638E6     3.688210462628295E-1    1.165539138548084E-1    6.321998112425093E-1   -1.217120895054217E-1    6.324774668230588E-1   -1.217783874314068E-1    3.686946591849540E-1    1.166572457217595E-1
 1.894517443446981E6     3.694248185348531E-1    1.164554243664604E-1    6.315675213765015E-1   -1.216497979051195E-1    6.318477330615936E-1   -1.217096864540598E-1    3.693246086881194E-1    1.165579194233190E-1
 1.908972351322182E6     3.700215328949948E-1    1.163430447521222E-1    6.309441719779648E-1   -1.215904281048039E-1    6.312267091890583E-1   -1.216312097202445E-1    3.699408920229741E-1    1.164585666684666E-1
 1.923537548159045E6     3.706233183773202E-1    1.162357285368227E-1    6.303285893902798E-1   -1.215153880661561E-1    6.306209964819062E-1   -1.215727789438720E-1    3.705480001570240E-1    1.163530658316470E-1
 1.938213875447196E6     3.712418804378916E-1    1.161424153898945E-1    6.296994236180951E-1   -1.214593968397850E-1    6.299645719150143E-1   -1.215038959928264E-1    3.711411671608126E-1    1.162546984256776E-1
 1.953002181096708E6     3.718497859314268E-1    1.160393970740752E-1    6.290812086551369E-1   -1.213924049723129E-1    6.293711517950823E-1   -1.214285371939798E-1    3.717510496151039E-1    1.161510270695334E-1
 1.967903319487111E6     3.724563432518486E-1    1.159452440202067E-1    6.284707301292275E-1   -1.213336774072010E-1    6.287738946563054E-1   -1.213651940689087E-1    3.723682837897054E-1    1.160599343974293E-1
 1.982918151516703E6     3.730533914977553E-1    1.158480043023151E-1    6.278435192616825E-1   -1.212610190575950E-1    6.281338960509963E-1   -1.212948972970559E-1    3.729785926011337E-1    1.159616819048123E-1
 1.998047544652348E6     3.736441626587369E-1    1.157373924785099E-1    6.272059620779872E-1   -1.211962057224266E-1    6.275107923458837E-1   -1.212280297939998E-1    3.735793179414569E-1    1.158572874692372E-1
 2.013292372979546E6     3.742266081903870E-1    1.156357482972593E-1    6.265902620339667E-1   -1.211324915957919E-1    6.268644166586538E-1   -1.211634949680640E-1    3.741518957894274E-1    1.157485277644423E-1
 2.028653517252947E6     3.748203110377896E-1    1.155314986585000E-1    6.259687485335333E-1   -1.210788272046566E-1    6.262647802884932E-1   -1.210930459647421E-1    3.747616966765561E-1    1.156510980936590E-1
 2.044131864947255E6     3.754406348020503E-1    1.154506194214263E-1    6.253581848439776E-1   -1.210123819104678E-1    6.256390110384958E-1   -1.210329251388201E-1    3.753664339423551E-1    1.155473657354391E-1
 2.059728310308467E6     3.760355280559637E-1    1.153526560445947E-1    6.247374317257036E-1   -1.209469540050268E-1    6.250183810388076E-1   -1.209656699411955E-1    3.759688690649057E-1    1.154568802075987E-1
 2.075443754405562E6     3.766217162465061E-1    1.152535877114572E-1    6.241153508135385E-1   -1.208972797504141E-1    6.244053955301266E-1   -1.208906108095395E-1    3.765599396973137E-1    1.153599094171221E-1
 2.091279105182548E6     3.772290021276715E-1    1.151617089751285E-1    6.235106013189196E-1   -1.208307799665297E-1    6.237805785856219E-1   -1.208248538925477E-1    3.771523986873975E-1    1.152570000911910E-1
 2.107235277510921E6     3.777988281522667E-1    1.150589277120947E-1    6.228846448873105E-1   -1.207723666759686E-1    6.231309116558491E-1   -1.207632273263696E-1    3.777388557980624E-1    1.151568371600100E-1
 2.123313193242529E6     3.783822569998010E-1    1.149617000713791E-1    6.222757093734174E-1   -1.207098966305259E-1    6.225100953031907E-1   -1.206933960750097E-1    3.783436739305001E-1    1.150605860896403E-1
 2.139513781262815E6     3.789882038619252E-1    1.148687779562319E-1    6.216798842955690E-1   -1.206568102776241E-1    6.218796116644336E-1   -1.206282423557921E-1    3.789317685681687E-1    1.149685026952713E-1
 2.155837977544490E6     3.796043593975150E-1    1.147771839124117E-1    6.210407213786393E-1   -1.206014793675132E-1    6.212574504091999E-1   -1.205565305005142E-1    3.795291992750130E-1    1.148586894851588E-1
 2.172286725201612E6     3.802021735651658E-1    1.146891502191832E-1    6.204338813000743E-1   -1.205450327494885E-1    6.206426958994997E-1   -1.204839045521760E-1    3.801237822250367E-1    1.147676688696567E-1
 2.188860974544063E6     3.808000465278477E-1    1.145948244685052E-1    6.197997016151801E-1   -1.204727440261915E-1    6.200108983974651E-1   -1.204071416656221E-1    3.807458261971096E-1    1.146688679513779E-1
 2.205561683132472E6     3.813768608634467E-1    1.144979684335459E-1    6.191789674094551E-1   -1.204187358935060E-1    6.194094968250839E-1   -1.203431226791708E-1    3.813420597014289E-1    1.145622622139565E-1
 2.222389815833514E6     3.819623113198460E-1    1.144024486778292E-1    6.185452040154706E-1   -1.203514383381843E-1    6.187742143891130E-1   -1.202620276287259E-1    3.819421727639926E-1    1.144598519574279E-1
 2.239346344875663E6     3.825692697579513E-1    1.143078132376650E-1    6.179168207711002E-1   -1.202998669720021E-1    6.181583853800843E-1   -1.201823553580097E-1    3.825448756040775E-1    1.143581630559915E-1
 2.256432249905369E6     3.831514597691990E-1    1.142141613894801E-1    6.173066133465249E-1   -1.202390149354431E-1    6.175035260474181E-1   -1.200857122361290E-1    3.831416402052759E-1    1.142453199942562E-1
 2.273648518043640E6     3.837629285839129E-1    1.141109525636533E-1    6.166728136139979E-1   -1.201761671881306E-1    6.168830104770682E-1   -1.199965547926923E-1    3.837484197069998E-1    1.141443778788409E-1
 2.290996143943099E6     3.843416992931696E-1    1.140163721002961E-1    6.160521338257255E-1   -1.201225968962886E-1    6.162400766939775E-1   -1.198931087941498E-1    3.843218998341307E-1    1.140280870677321E-1
 2.308476129845417E6     3.849571527075428E-1    1.139273375057060E-1    6.154438690331980E-1   -1.200638627432909E-1    6.156375954847966E-1   -1.198033661564475E-1    3.849288344370078E-1    1.139145480733049E-1
 2.326089485639235E6     3.855627557944193E-1    1.138295845174634E-1    6.148181871643306E-1   -1.199898001783229E-1    6.150313391173080E-1   -1.197055134046576E-1    3.855235268328507E-1    1.137986296784148E-1
 2.343837228918507E6     3.861687787899987E-1    1.137340358227791E-1    6.141640933612925E-1   -1.199076099512616E-1    6.144187585074344E-1   -1.196082245311530E-1    3.861200676891450E-1    1.136858508295606E-1
 2.361720385041283E6     3.867555152875528E-1    1.136274869742842E-1    6.135200763249352E-1   -1.198357356096138E-1    6.138171296074074E-1   -1.195131894501237E-1    3.867105777813185E-1    1.135614058434804E-1
 2.379739987188969E6     3.873469339113942E-1    1.135213375342796E-1    6.128941072911203E-1   -1.197435975059800E-1    6.132276075020650E-1   -1.194030444109106E-1    3.873099562306032E-1    1.134621031571457E-1
 2.397897076425990E6     3.879663614469639E-1    1.134165728332234E-1    6.122517848548114E-1   -1.196690008269969E-1    6.126166908421778E-1   -1.193146722719216E-1    3.878960151499407E-1    1.133420987520169E-1
 2.416192701759947E6     3.885733509137836E-1    1.133036392624032E-1    6.116340013221810E-1   -1.195724139837568E-1    6.120460196040560E-1   -1.192430156565635E-1    3.884985159673073E-1    1.132306557254696E-1
 2.434627920202243E6     3.891845293442639E-1    1.131898306167775E-1    6.109965972714432E-1   -1.194790896100039E-1    6.114662048431718E-1   -1.191396060570370E-1    3.890927013683605E-1    1.131178458933877E-1
 2.453203796829114E6     3.898008487042964E-1    1.130736207166970E-1    6.103843491119929E-1   -1.193909411382352E-1    6.108715313244785E-1   -1.190814761128358E-1    3.896796019676139E-1    1.129918691772235E-1
 2.471921404843189E6     3.904023746917337E-1    1.129497467615331E-1    6.097626668454053E-1   -1.192877727894179E-1    6.102836302329799E-1   -1.190097100295314E-1    3.902837695506800E-1    1.128811106541046E-1
 2.490781825635486E6     3.909873127120542E-1    1.128236674786973E-1    6.091476348704555E-1   -1.191971755629120E-1    6.096939646268663E-1   -1.189267102431898E-1    3.908584922970822E-1    1.127687406126602E-1
 2.509786148847881E6     3.930905803101402E-1    1.105821932630672E-1    6.102486737473312E-1   -1.170206575961841E-1    6.087127816556891E-1   -1.225406580300297E-1    3.921992824228614E-1    1.142226832477250E-1
 2.528935472436085E6     3.936389214137819E-1    1.105228596077690E-1    6.098421028934725E-1   -1.162470501692162E-1    6.080531316217281E-1   -1.226502559871977E-1    3.927196662344666E-1    1.141553400800536E-1
 2.548230902733043E6     3.942142038357690E-1    1.104581163964209E-1    6.092193485895743E-1   -1.161885569522849E-1    6.073786449104341E-1   -1.226776029934839E-1    3.932796563728944E-1    1.140653031357830E-1
 2.567673554512876E6     3.947709914491813E-1    1.103605228600025E-1    6.087108795093962E-1   -1.158522224695931E-1    6.068198655874935E-1   -1.224993283116131E-1    3.938476252208575E-1    1.139757425318550E-1
 2.587264551055275E6     3.953797954411020E-1    1.102937045915363E-1    6.081382028437243E-1   -1.157458422357195E-1    6.062458284758352E-1   -1.224121929056549E-1    3.944483053498706E-1    1.138223559350763E-1
 2.607005024210399E6     3.959769669552191E-1    1.102355694539862E-1    6.075918636388569E-1   -1.156167540413459E-1    6.057130169806316E-1   -1.221314799379260E-1    3.950116087345843E-1    1.137062185078658E-1
 2.626896114464281E6     3.965709757553105E-1    1.102400014020327E-1    6.069526938977318E-1   -1.156054114063595E-1    6.051383586479038E-1   -1.220560291470090E-1    3.955963084273718E-1    1.135965085814353E-1
 2.646938971004693E6     3.971295322913170E-1    1.100644253294549E-1    6.063839239477608E-1   -1.154698282683147E-1    6.045177390094144E-1   -1.220321423396242E-1    3.961848329636838E-1    1.134398850435914E-1
 2.667134751787555E6     3.977001806420812E-1    1.101873164974596E-1    6.057705798907403E-1   -1.153857022175770E-1    6.039965291450748E-1   -1.218032889690072E-1    3.967741033194255E-1    1.133655248613478E-1
 2.687484623603833E6     3.982899569129000E-1    1.100494145488207E-1    6.052333928802095E-1   -1.151922532959838E-1    6.033696929426328E-1   -1.218074228450783E-1    3.973635552687971E-1    1.132752881910827E-1
 2.707989762146940E6     3.988761208780683E-1    1.099821523106925E-1    6.046329829513365E-1   -1.151528194328128E-1    6.028314030365046E-1   -1.216397992840816E-1    3.979565075595424E-1    1.130800259838084E-1
 2.728651352080688E6     3.994363066927575E-1    1.098780224680418E-1    6.040519141187266E-1   -1.150397789281792E-1    6.023015291979150E-1   -1.214385502451127E-1    3.985345938075261E-1    1.129717530980407E-1
 2.749470587107692E6     4.000534179950650E-1    1.097841833339908E-1    6.034413059488424E-1   -1.149554113355521E-1    6.017079067374419E-1   -1.213327562172630E-1    3.991282992157796E-1    1.128331341066516E-1
 2.770448670038360E6     4.006326257840255E-1    1.097107796055332E-1    6.027960780428724E-1   -1.150318259102918E-1    6.011498693582445E-1   -1.212296545422414E-1    3.996968415503260E-1    1.127730556958612E-1
 2.791586812860380E6     4.012452848431609E-1    1.095845741852226E-1    6.021458704182391E-1   -1.150770769729842E-1    6.005807382415029E-1   -1.211302392971321E-1    4.002847892218897E-1    1.126119315301422E-1
 2.812886236808732E6     4.018336469448908E-1    1.095723523282175E-1    6.016116507308443E-1   -1.148373119180512E-1    5.999648022711485E-1   -1.210388757157883E-1    4.008732086574100E-1    1.124911841715417E-1
 2.834348172436268E6     4.024129684545869E-1    1.093469416220497E-1    6.009747502250948E-1   -1.148890643252230E-1    5.994011745520680E-1   -1.208978203262618E-1    4.014647764239951E-1    1.124426400857227E-1
 2.855973859684773E6     4.029929673382375E-1    1.092363258870883E-1    6.003887433215449E-1   -1.147972030184574E-1    5.987851634564066E-1   -1.207972129063073E-1    4.020431777783466E-1    1.123240616935991E-1
 2.877764547956619E6     4.035734548314542E-1    1.091273069058456E-1    5.998954010837538E-1   -1.145155964576108E-1    5.982683843100516E-1   -1.206310206340201E-1    4.026404156981019E-1    1.121836496887212E-1
 2.899721496186967E6     4.041632130502489E-1    1.090928190692657E-1    5.992075973110450E-1   -1.146174073832869E-1    5.976735105635723E-1   -1.205907157514229E-1    4.032204634391097E-1    1.120117395860291E-1
 2.921845972916440E6     4.047806884050835E-1    1.089817087777070E-1    5.986697366863855E-1   -1.144530447574731E-1    5.971187693027625E-1   -1.204039513676510E-1    4.038378473045424E-1    1.118926270185156E-1
 2.944139256364495E6     4.053511250989902E-1    1.089491328606463E-1    5.981182133198246E-1   -1.143230082726508E-1    5.965726248619624E-1   -1.202944260609525E-1    4.044333297411861E-1    1.117984450737934E-1
 2.966602634503201E6     4.059361753263841E-1    1.087830510902921E-1    5.974495806183461E-1   -1.143377333929403E-1    5.959317396064322E-1   -1.202643968373736E-1    4.050142790865808E-1    1.117153983507248E-1
 2.989237405131679E6     4.065330073940743E-1    1.086617629749801E-1    5.968253753632966E-1   -1.143784847389763E-1    5.953744907006551E-1   -1.200926430109811E-1    4.055811403099495E-1    1.115915696597419E-1
 3.012044875951098E6     4.068558812669191E-1    1.096136341786072E-1    5.964264391316911E-1   -1.156071223329185E-1    5.950797621738146E-1   -1.179827523802661E-1    4.065200968127680E-1    1.112636433141576E-1
 3.035026364640187E6     4.074426239276496E-1    1.095266106225041E-1    5.958619817746045E-1   -1.155182470842698E-1    5.944567082076140E-1   -1.179420819351847E-1    4.070941388694206E-1    1.111173098666036E-1
 3.058183198931389E6     4.080448137135196E-1    1.094552921631629E-1    5.952735042113371E-1   -1.154518674924613E-1    5.938787802821873E-1   -1.178052633067382E-1    4.076882232109419E-1    1.109943023817222E-1
 3.081516716687564E6     4.086121576354288E-1    1.092686170653641E-1    5.947011471745808E-1   -1.152595954059782E-1    5.933632224675646E-1   -1.176303734489111E-1    4.082741126186096E-1    1.108948211872593E-1
 3.105028265979277E6     4.092072894688480E-1    1.092306941702497E-1    5.941441136134700E-1   -1.150695599909067E-1    5.928357397480390E-1   -1.174748734564657E-1    4.088595393828716E-1    1.106917040028116E-1
 3.128719205162701E6     4.097985930250859E-1    1.091627697013898E-1    5.936155171674984E-1   -1.149627947186708E-1    5.922041879572513E-1   -1.174370774475027E-1    4.094503967672106E-1    1.105588540302171E-1
 3.152590902958065E6     4.103715565483081E-1    1.089342377229649E-1    5.929868132036934E-1   -1.149374917877192E-1    5.916523212793985E-1   -1.173223984610828E-1    4.100244773779937E-1    1.104228391709993E-1
 3.176644738528751E6     4.109653594425303E-1    1.088882465931737E-1    5.924677366477814E-1   -1.146942214939070E-1    5.910045759604580E-1   -1.172862646917908E-1    4.105727843928446E-1    1.102756930661187E-1
 3.200882101560967E6     4.115506199598608E-1    1.087202271679102E-1    5.918520889023552E-1   -1.146496373937712E-1    5.904228419108520E-1   -1.172474167397971E-1    4.111469835404445E-1    1.101328269288126E-1
 3.225304392344028E6     4.121097479084848E-1    1.085351120496675E-1    5.912599454576820E-1   -1.146867919364987E-1    5.899832479801967E-1   -1.169292528361149E-1    4.117366811928826E-1    1.100907965416514E-1
 3.249913021851289E6     4.126917147794376E-1    1.084428626578693E-1    5.907350406657711E-1   -1.144201827847498E-1    5.893546381453605E-1   -1.168921258549120E-1    4.122965734546416E-1    1.099486138883136E-1
 3.274709411821612E6     4.132295170340192E-1    1.082841807830288E-1    5.901287202658199E-1   -1.143707078583508E-1    5.888032591626192E-1   -1.167216797390408E-1    4.128606394615937E-1    1.098291899201048E-1
 3.299694994841541E6     4.138058591410766E-1    1.081601105341710E-1    5.896465216787128E-1   -1.141376548885067E-1    5.882260331950969E-1   -1.167231099201422E-1    4.134310703587032E-1    1.096435667310588E-1
 3.324871214428060E6     4.143836489907476E-1    1.077439811818459E-1    5.890315888132293E-1   -1.137382857813185E-1    5.874748366345738E-1   -1.170430370049753E-1    4.138826427927771E-1    1.096598177608103E-1
 3.350239525111979E6     4.149433424203695E-1    1.075821634444935E-1    5.884571556925363E-1   -1.136623981986929E-1    5.869299611665543E-1   -1.169050018296630E-1    4.144469391466439E-1    1.094622909966444E-1
 3.375801392522001E6     4.155055837088737E-1    1.075823880508918E-1    5.879523125205455E-1   -1.135101685943520E-1    5.863185715828131E-1   -1.168190497330698E-1    4.150307175707079E-1    1.093688779396080E-1
 3.401558293469354E6     4.160840513940298E-1    1.075964861289331E-1    5.873727838019681E-1   -1.138200172207419E-1    5.858820290794131E-1   -1.163670602210227E-1    4.156955333800991E-1    1.091709056957613E-1
 3.427511716033138E6     4.166698074006183E-1    1.074962090692763E-1    5.868415559755847E-1   -1.136435713491102E-1    5.853345744510419E-1   -1.162522315256508E-1    4.162653353656954E-1    1.089662220938477E-1
 3.453663159646295E6     4.172108297365911E-1    1.073008994336982E-1    5.862889685112831E-1   -1.135326913851989E-1    5.847749118090469E-1   -1.161520640298510E-1    4.168333208584022E-1    1.088695899307846E-1
 3.480014135182226E6     4.178004789305326E-1    1.071111070023654E-1    5.856913203967714E-1   -1.135210681385049E-1    5.841684469780475E-1   -1.161026790005502E-1    4.173961838931158E-1    1.086912849667977E-1
 3.506566165042107E6     4.183971343003537E-1    1.072392297021075E-1    5.850975965043419E-1   -1.137769348319900E-1    5.838692622647399E-1   -1.155508000168086E-1    4.180369591098538E-1    1.084229817684540E-1
 3.533320783242811E6     4.189595797626494E-1    1.070320263269147E-1    5.844146702442474E-1   -1.137459625885771E-1    5.832777191566217E-1   -1.154621347429127E-1    4.185986429963853E-1    1.083925265016056E-1
 3.560279535505542E6     4.195069421730064E-1    1.068793173436474E-1    5.839082649891606E-1   -1.135974010724612E-1    5.827114269681432E-1   -1.154308863897925E-1    4.191580920236687E-1    1.081824817459342E-1
 3.587443979345170E6     4.201118471328355E-1    1.067162607874543E-1    5.833438820983955E-1   -1.135656657950997E-1    5.821374780397506E-1   -1.152755363552704E-1    4.197136850554044E-1    1.080342862324283E-1
 3.614815684160168E6     4.206988964774683E-1    1.065052397430500E-1    5.827379474687162E-1   -1.135276874920167E-1    5.815745566691591E-1   -1.151997633836437E-1    4.202952438602134E-1    1.078256321942075E-1
 3.642396231323309E6     4.212708477235333E-1    1.063590131823833E-1    5.821986487625942E-1   -1.134093812688362E-1    5.809203382108090E-1   -1.152283882775571E-1    4.208739743884573E-1    1.077474464621400E-1
 3.670187214273024E6     4.220017846281205E-1    1.051386694964791E-1    5.814651992590152E-1   -1.114307347266036E-1    5.799066866118464E-1   -1.174257463611187E-1    4.209853183457831E-1    1.077696398989343E-1
 3.698190238605455E6     4.225761445844494E-1    1.048801939519989E-1    5.808808887093221E-1   -1.113881297750352E-1    5.792718685166915E-1   -1.173756595362087E-1    4.215527974928432E-1    1.076317796961500E-1
 3.726406922167240E6     4.231394522222534E-1    1.047951992119327E-1    5.803876394112693E-1   -1.111459534345634E-1    5.788110697788827E-1   -1.171791807970464E-1    4.221282638693167E-1    1.075936135183062E-1
 3.754838895148946E6     4.236843473122229E-1    1.046514971194215E-1    5.798118238347452E-1   -1.110698446980080E-1    5.783016747339310E-1   -1.170136291272560E-1    4.227141111992769E-1    1.073902562426938E-1
 3.783487800179276E6     4.240790614390769E-1    1.047995202152116E-1    5.792997761558112E-1   -1.114771771587135E-1    5.777320783831568E-1   -1.161341128368575E-1    4.233493214124077E-1    1.072147806445890E-1
 3.812355292419964E6     4.246200244607270E-1    1.046792224405763E-1    5.787913817531525E-1   -1.113515329514046E-1    5.771071104854004E-1   -1.161441786662337E-1    4.239140409664370E-1    1.070445711075418E-1
 3.841443039661395E6     4.251738892893305E-1    1.045041377348034E-1    5.783097201666135E-1   -1.111121288775444E-1    5.764756447665489E-1   -1.160600039870275E-1    4.244565556738920E-1    1.069708356316229E-1
 3.870752722418987E6     4.257213433694172E-1    1.044187201195047E-1    5.776961861524748E-1   -1.110315621538880E-1    5.759118878654370E-1   -1.160087964099152E-1    4.250022903263108E-1    1.067316210740694E-1
 3.900286034030236E6     4.262678396368353E-1    1.042394376626078E-1    5.771781139088626E-1   -1.109172709293453E-1    5.753195563437956E-1   -1.159831699647086E-1    4.255776189510189E-1    1.066216236936652E-1
 3.930044680752580E6     4.268220507039940E-1    1.040972004215815E-1    5.766810824719656E-1   -1.107078062227746E-1    5.747883593661277E-1   -1.158097600366934E-1    4.261073691958497E-1    1.064731794996258E-1
 3.960030381861967E6     4.273825275698233E-1    1.038779044108673E-1    5.761146619414343E-1   -1.105906334044442E-1    5.742621410331809E-1   -1.156755519806062E-1    4.266774007499589E-1    1.062969444446148E-1
 3.990244869752173E6     4.279317128677163E-1    1.037132296217551E-1    5.754810411810855E-1   -1.106139415966885E-1    5.736571509366550E-1   -1.156324485416826E-1    4.272357336118083E-1    1.061615490426779E-1
 4.020689890034929E6     4.284320690793741E-1    1.042709172074367E-1    5.750320201011296E-1   -1.114401392741340E-1    5.734371154499391E-1   -1.142244731415046E-1    4.280075091443646E-1    1.058299058191190E-1
 4.051367201640718E6     4.289799456004293E-1    1.041879583076444E-1    5.744304645848841E-1   -1.114624160475377E-1    5.728667264855651E-1   -1.141994253701445E-1    4.285584590864596E-1    1.056885512510608E-1
 4.082278576920427E6     4.295219765865541E-1    1.040337065481276E-1    5.739069231758469E-1   -1.113067778535610E-1    5.723277475636037E-1   -1.140823445526068E-1    4.291336960194163E-1    1.056153298742459E-1
 4.113425801747740E6     4.300568704405444E-1    1.038907546748180E-1    5.733513871355577E-1   -1.111344623890917E-1    5.717495853198701E-1   -1.140402151815347E-1    4.296758135726926E-1    1.054880598233144E-1
 4.144810675622302E6     4.305925853776321E-1    1.037755807381238E-1    5.728183114041288E-1   -1.109834712494259E-1    5.711951361530097E-1   -1.139438397000310E-1    4.302281742571030E-1    1.053092190700092E-1
 4.176435011773718E6     4.311392848594841E-1    1.036023393330187E-1    5.722669046385384E-1   -1.109038581474338E-1    5.707492485701009E-1   -1.136412614875951E-1    4.307724680179032E-1    1.052168280623809E-1
 4.208300637266261E6     4.317125848304329E-1    1.033474870974437E-1    5.716846738271842E-1   -1.108905234162744E-1    5.701592232592471E-1   -1.136539681521744E-1    4.313373847484842E-1    1.050435251584660E-1
 4.240409393104453E6     4.322171364619635E-1    1.032487454764332E-1    5.711918349763825E-1   -1.106638110706460E-1    5.696199675721194E-1   -1.134866298660240E-1    4.318759951004656E-1    1.049011363444249E-1
 4.272763134339464E6     4.327567168314022E-1    1.030674870297410E-1    5.706814926842619E-1   -1.105671234453952E-1    5.690131892806221E-1   -1.135047036241193E-1    4.324124217235291E-1    1.046715558606157E-1
 4.305363730176185E6     4.333117002886281E-1    1.029787343291015E-1    5.701050203922670E-1   -1.105086833694904E-1    5.684472519812567E-1   -1.133723845282349E-1    4.329430552225123E-1    1.045765770885805E-1
 4.338213064081349E6     4.338216633249659E-1    1.025052335091438E-1    5.695709771210326E-1   -1.099266207148710E-1    5.677979254234108E-1   -1.136516910329031E-1    4.333843372716471E-1    1.044376128355711E-1
 4.371313033892244E6     4.343687542827236E-1    1.023461147157222E-1    5.690676071349714E-1   -1.097806084418694E-1    5.672349215049949E-1   -1.136027524379571E-1    4.339366464820467E-1    1.043410383416007E-1
 4.404665551926396E6     4.348985655405492E-1    1.021873713275206E-1    5.684905653563495E-1   -1.096898506549023E-1    5.666571792710619E-1   -1.135252086034970E-1    4.344600833271401E-1    1.041167277791610E-1
 4.438272545092077E6     4.354379500336160E-1    1.020474975666772E-1    5.679724818403558E-1   -1.095426798018697E-1    5.660665123773334E-1   -1.135433035163834E-1    4.350296063431027E-1    1.038945454765565E-1
 4.472135954999580E6     4.359880057645821E-1    1.018897463205570E-1    5.673692825540820E-1   -1.094762035868631E-1    5.655903918202928E-1   -1.132963678249494E-1    4.355700354311094E-1    1.037702735431203E-1
 4.506257738073424E6     4.365222959066046E-1    1.016546217519208E-1    5.667963648660630E-1   -1.094486863866248E-1    5.649818804037795E-1   -1.133443385274308E-1    4.361211673364525E-1    1.035562134567932E-1
 4.540639865665382E6     4.370574144686543E-1    1.017752918466539E-1    5.663465947955657E-1   -1.096141858103009E-1    5.646325267732147E-1   -1.126889308006181E-1    4.367655697443085E-1    1.033350385282742E-1
 4.575284324168356E6     4.376070714371691E-1    1.016728236624247E-1    5.657939407402880E-1   -1.095146924575542E-1    5.641390377315467E-1   -1.125647973364347E-1    4.373063150127456E-1    1.032583466222011E-1
 4.610193115131186E6     4.381751848085152E-1    1.006783400331749E-1    5.650618046639206E-1   -1.084839584333280E-1    5.632633756967130E-1   -1.138785084048857E-1    4.375992647700380E-1    1.032084239036749E-1
 4.645368255374223E6     4.387089310334541E-1    1.004954683076095E-1    5.644868596748445E-1   -1.084091880441851E-1    5.626590692497665E-1   -1.138288254031412E-1    4.381047397947456E-1    1.030088540693223E-1
 4.680811777105891E6     4.392290107339166E-1    1.003363570521841E-1    5.640027296885957E-1   -1.081425026170267E-1    5.620982461271878E-1   -1.137588594556398E-1    4.386328106056967E-1    1.028424048775726E-1
 4.716525728040087E6     4.397757502388669E-1    1.001214639935432E-1    5.634729158073641E-1   -1.080543917707517E-1    5.616088565751141E-1   -1.136083004988733E-1    4.391774551058482E-1    1.026302251492816E-1
 4.752512171514469E6     4.403352573998852E-1    9.997096734377131E-2    5.629790521532348E-1   -1.078754512732235E-1    5.610539548714538E-1   -1.136217322967475E-1    4.397033557618230E-1    1.025332190228530E-1
 4.788773186609713E6     4.408555704206020E-1    9.978094597240261E-2    5.624147734992890E-1   -1.078092108774306E-1    5.605530943889462E-1   -1.134965842290130E-1    4.402424210722683E-1    1.023328593806708E-1
 4.825310868269563E6     4.415705960865657E-1    9.912489807547695E-2    5.616702318746378E-1   -1.073819519191487E-1    5.600632616587450E-1   -1.142309635756886E-1    4.406630922640816E-1    1.022551588028513E-1
 4.862127327421905E6     4.420870652361959E-1    9.894076488001231E-2    5.611460989362517E-1   -1.071835216069739E-1    5.595469010334012E-1   -1.140360541993652E-1    4.412013840343198E-1    1.021358071615310E-1
 4.899224691100715E6     4.426032468247467E-1    9.876075396441024E-2    5.605834564727030E-1   -1.071211802422125E-1    5.590466059348226E-1   -1.139316674249941E-1    4.417536468604049E-1    1.019649811950370E-1
 4.936605102568937E6     4.431132084555035E-1    9.857962179964433E-2    5.601048067799613E-1   -1.068890068987132E-1    5.585587461902644E-1   -1.137470074765175E-1    4.422548075588372E-1    1.018681656905438E-1
 4.974270721442348E6     4.436362863207123E-1    9.842109767615480E-2    5.595661260804613E-1   -1.067189710823531E-1    5.580264475946535E-1   -1.136530438287254E-1    4.427926071142893E-1    1.016539813860083E-1
 5.012223723814265E6     4.441946306282413E-1    9.825725423097444E-2    5.591049501638194E-1   -1.064871665103785E-1    5.574572471818038E-1   -1.136523172676863E-1    4.433031102719839E-1    1.014678581887336E-1
 5.050466302381308E6     4.447049427083647E-1    9.807544386837125E-2    5.585308429790381E-1   -1.064131744476078E-1    5.569100303769191E-1   -1.136436575232981E-1    4.438451864093889E-1    1.013108452594536E-1
 5.089000666570071E6     4.452173187800824E-1    9.788788275550393E-2    5.579744076305475E-1   -1.063400784289481E-1    5.563784058736110E-1   -1.135295194649691E-1    4.443673984103134E-1    1.010646818540098E-1
 5.127829042664761E6     4.457305597238723E-1    9.770714343955188E-2    5.575009356386198E-1   -1.061223691306583E-1    5.559169126488018E-1   -1.133552218055277E-1    4.449263474839918E-1    1.009964799993820E-1
 5.166953673935857E6     4.462633659578465E-1    9.752604305270107E-2    5.569371729225301E-1   -1.060498286162980E-1    5.553647122677630E-1   -1.132930989275128E-1    4.454250268873703E-1    1.008276584717640E-1
 5.206376820769652E6     4.468036692816789E-1    9.737338596163898E-2    5.564399585590539E-1   -1.058914061768095E-1    5.548184541467568E-1   -1.132451417955642E-1    4.459461209068933E-1    1.005018361074666E-1
 5.246100760798878E6     4.473115022348425E-1    9.719290069470268E-2    5.558275305440897E-1   -1.059297764467718E-1    5.542740640907460E-1   -1.132489606090898E-1    4.464687972633891E-1    1.003836716805970E-1
 5.286127789034322E6     4.478165274208689E-1    9.701062755022488E-2    5.553795166099653E-1   -1.056103171522388E-1    5.537383238576213E-1   -1.131908901713924E-1    4.469837374071389E-1    1.002728249435881E-1
 5.326460217997355E6     4.482370370418580E-1    9.859737657777226E-2    5.552801321610451E-1   -1.074749745963516E-1    5.538741176525510E-1   -1.101731641818691E-1    4.480525658132199E-1    9.964334836862808E-2
 5.367100377853584E6     4.487733473713617E-1    9.844482739783608E-2    5.546881204140216E-1   -1.074481786173555E-1    5.533796422945443E-1   -1.100453879171203E-1    4.485795603353283E-1    9.944979254189684E-2
 5.408050616547454E6     4.492702607065427E-1    9.826146669341666E-2    5.541810711155870E-1   -1.073446813459262E-1    5.528221315085959E-1   -1.100052221245185E-1    4.491027228619530E-1    9.943570137737369E-2
 5.449313299937895E6     4.497936101906037E-1    9.810739205372021E-2    5.536700252583806E-1   -1.072023260381105E-1    5.523565558528712E-1   -1.098835303008684E-1    4.496180245672365E-1    9.922291964575455E-2
 5.490890811935049E6     4.504006817322848E-1    9.608958360251479E-2    5.527092464516439E-1   -1.052017229538418E-1    5.512115265676217E-1   -1.126403757970899E-1    4.495699810061451E-1    9.951652335932870E-2
 5.532785554637930E6     4.509030242935998E-1    9.590024586290384E-2    5.521556090221694E-1   -1.050533921842159E-1    5.506889723645130E-1   -1.124968685994023E-1    4.500527733188237E-1    9.934732173768158E-2
 5.574999948473252E6     4.513255209846958E-1    9.754571185920252E-2    5.520539554453636E-1   -1.068566498389058E-1    5.507657303604865E-1   -1.096090632777517E-1    4.511536304792125E-1    9.870463656432210E-2
 5.617536432335250E6     4.518488287881965E-1    9.738988314467494E-2    5.515277628653071E-1   -1.067566008260801E-1    5.502830193197530E-1   -1.094585022028612E-1    4.516714992346403E-1    9.854046210327751E-2
 5.660397463726575E6     4.523420243779322E-1    9.720100776564045E-2    5.510585300638285E-1   -1.065523255408283E-1    5.497954005479543E-1   -1.093826485590551E-1    4.521766841037300E-1    9.830534499611916E-2
 5.703585518900323E6     4.529658931022960E-1    9.516840041358055E-2    5.500526684680020E-1   -1.047220031404252E-1    5.486893277483470E-1   -1.120996382321575E-1    4.521159106303180E-1    9.856879362313643E-2
 5.747103093003022E6     4.535000406099458E-1    9.498561664308022E-2    5.495434318257179E-1   -1.046186396257905E-1    5.482052600724804E-1   -1.119870473669478E-1    4.526429566175729E-1    9.837375468169092E-2
 5.790952700218840E6     4.539932872465018E-1    9.477721291878072E-2    5.489988992528304E-1   -1.044917741145574E-1    5.476732664465609E-1   -1.119247075900882E-1    4.531133151610652E-1    9.814390292609272E-2
 5.835136873914825E6     4.543693584569040E-1    9.648383773695007E-2    5.489474430365546E-1   -1.062350214960653E-1    5.477715022415593E-1   -1.090048059534500E-1    4.542013079551622E-1    9.760424696122981E-2
 5.879658166787256E6     4.549044034721832E-1    9.632768269554912E-2    5.484145801285014E-1   -1.060780074494522E-1    5.472715841983173E-1   -1.089091964627988E-1    4.547081782517223E-1    9.728705810914759E-2
 5.924519151009166E6     4.553802385845747E-1    9.612784707122386E-2    5.478872657648618E-1   -1.060082254951129E-1    5.468223655138726E-1   -1.086961467585525E-1    4.552178982044139E-1    9.725453508878491E-2
 5.969722418378883E6     4.558715898980362E-1    9.594783176560857E-2    5.473976824904913E-1   -1.058501245430486E-1    5.463031164837321E-1   -1.086072763677313E-1    4.557415780767853E-1    9.702077435616800E-2
 6.015270580469812E6     4.564025358861383E-1    9.579017881641153E-2    5.468560733824075E-1   -1.058464586576417E-1    5.458383659292946E-1   -1.084236278494349E-1    4.562323050088307E-1    9.681770611611046E-2
 6.061166268781302E6     4.569140281540222E-1    9.560582022331346E-2    5.463031407154882E-1   -1.058205251136449E-1    5.453113529000978E-1   -1.083395396379630E-1    4.567486965451408E-1    9.661520873644104E-2
 6.107412134890671E6     4.572964156965418E-1    9.525407493197818E-2    5.457671317932756E-1   -1.055154697761969E-1    5.446872004403732E-1   -1.084192468001414E-1    4.571821312950364E-1    9.659852204023511E-2
 6.154010850606443E6     4.577977956283407E-1    9.508230718494842E-2    5.452923452773543E-1   -1.052788417909956E-1    5.441416932134249E-1   -1.083466364568344E-1    4.576641560430825E-1    9.639776880785772E-2
 6.200965108122637E6     4.582954346716890E-1    9.488895627063218E-2    5.447893918063695E-1   -1.052106540318900E-1    5.436451243687865E-1   -1.082950958318211E-1    4.581446774621325E-1    9.624260272975134E-2
 6.248277620174343E6     4.587830871518587E-1    9.469045257461786E-2    5.442375001142046E-1   -1.051119081687419E-1    5.431724434150258E-1   -1.081270946857069E-1    4.586513747325081E-1    9.601994547975509E-2
 6.295951120194497E6     4.592945806493687E-1    9.451648536392335E-2    5.437573125091038E-1   -1.049331419640284E-1    5.426477075120855E-1   -1.080442496532282E-1    4.591391002413043E-1    9.582647810858773E-2
 6.343988362471664E6     4.598647493683901E-1    9.450256835584415E-2    5.432480890671423E-1   -1.050778498801153E-1    5.423416888148930E-1   -1.077050274595276E-1    4.597304646559349E-1    9.556723754347131E-2
 6.392392122309345E6     4.603743831204917E-1    9.430834401103227E-2    5.427743807048786E-1   -1.049696264005346E-1    5.418698115030598E-1   -1.076271674092527E-1    4.602110935902348E-1    9.533089060089454E-2
 6.441165196186168E6     4.608624290236583E-1    9.412543679752496E-2    5.422666661489156E-1   -1.048855065698046E-1    5.413692537307354E-1   -1.074979683523287E-1    4.607074380121704E-1    9.529911505445980E-2
 6.490310401917514E6     4.613175906508685E-1    9.393269992870218E-2    5.417468413385618E-1   -1.047731000239040E-1    5.408981570430741E-1   -1.073927024814156E-1    4.612178642097897E-1    9.505962317437285E-2
 6.539830578818345E6     4.618189483867405E-1    9.375171514216937E-2    5.412554643909335E-1   -1.046671554484784E-1    5.403959583998346E-1   -1.072553109215555E-1    4.617126716113523E-1    9.480580672605673E-2
 6.589728587867169E6     4.622911093075165E-1    9.355566961390097E-2    5.406999381304319E-1   -1.046074486648281E-1    5.399308949318190E-1   -1.071610672355564E-1    4.622053425414240E-1    9.464232517390614E-2
 6.640007311871376E6     4.627950433736736E-1    9.336611217490784E-2    5.402358192966221E-1   -1.044570638896616E-1    5.394301824933015E-1   -1.070140149758250E-1    4.627078232124540E-1    9.446454661029972E-2
 6.690669655633785E6     4.633047858267412E-1    9.317732870014871E-2    5.397011157775303E-1   -1.044244727015238E-1    5.389498249621993E-1   -1.068530095764618E-1    4.631791949168671E-1    9.431953938545870E-2
 6.741718546120445E6     4.637974976652668E-1    9.298342857703458E-2    5.392430313702192E-1   -1.041975259922343E-1    5.384646687700991E-1   -1.068665587081463E-1    4.636788572657446E-1    9.408905975813865E-2
 6.793156932629797E6     4.642770967251956E-1    9.278913336824715E-2    5.387337976687248E-1   -1.041527209807102E-1    5.379658224297963E-1   -1.067515824910345E-1    4.641438197502076E-1    9.393052338699262E-2
 6.844987786962981E6     4.647231213466156E-1    9.260945160902108E-2    5.382020793147362E-1   -1.040877301127611E-1    5.374869149322603E-1   -1.066983018878796E-1    4.646104499384637E-1    9.377235838020549E-2
 6.897214103595586E6     4.650514411986449E-1    9.193702944881059E-2    5.376596245471039E-1   -1.035034396381068E-1    5.366014834110799E-1   -1.071846419209680E-1    4.649158692832983E-1    9.370756181139994E-2
 6.949838899850640E6     4.655271876167233E-1    9.174337551051348E-2    5.372009620677928E-1   -1.033618514705684E-1    5.361197928136553E-1   -1.070450511292115E-1    4.654076461981932E-1    9.356097481976300E-2
 7.002865216072913E6     4.660960152827857E-1    9.042874164355498E-2    5.365416887303857E-1   -1.025195846054056E-1    5.352897942618892E-1   -1.084734215971659E-1    4.656298200268033E-1    9.352351769717833E-2
 7.056296115804635E6     4.665811517995290E-1    9.022706140330616E-2    5.360470599916515E-1   -1.024683801856906E-1    5.348099750049519E-1   -1.083789966045580E-1    4.661036748181502E-1    9.331862323160499E-2
 7.110134685962399E6     4.670713210306562E-1    9.002282284969298E-2    5.355641438905396E-1   -1.023609764105226E-1    5.342962133240700E-1   -1.082618737856969E-1    4.665555512057718E-1    9.310191089181330E-2
 7.164384037015557E6     4.675569654682085E-1    8.983357129702293E-2    5.350636787175478E-1   -1.022900566509365E-1    5.338061423030654E-1   -1.081917564145011E-1    4.670395679205871E-1    9.291943420909110E-2
 7.219047303165923E6     4.680482413894729E-1    8.961520601802959E-2    5.345975586883173E-1   -1.021971733685536E-1    5.333433720212531E-1   -1.080856387560755E-1    4.675109391068877E-1    9.273008789554368E-2
 7.274127642528819E6     4.685354111654903E-1    8.941804386413502E-2    5.341152534074781E-1   -1.020771290335618E-1    5.328708647333390E-1   -1.079615335756318E-1    4.679855954854913E-1    9.250668545552924E-2
 7.329628237315600E6     4.692321353603341E-1    8.860506268965962E-2    5.334737633336459E-1   -1.016211554166938E-1    5.324155241839801E-1   -1.087610998002144E-1    4.683854927506449E-1    9.234337916524504E-2
 7.385552294017412E6     4.697035860709905E-1    8.840335155428407E-2    5.329965673986081E-1   -1.015251869413681E-1    5.319335997928593E-1   -1.086898643908954E-1    4.688552276544781E-1    9.214952132664084E-2
 7.441903043590503E6     4.699534695368836E-1    9.026280692048065E-2    5.328554132462502E-1   -1.028602209005950E-1    5.320054511025014E-1   -1.057162064319018E-1    4.698340751110318E-1    9.174607411855656E-2
 7.498683741642874E6     4.704267865750106E-1    9.006767271547721E-2    5.324076418326578E-1   -1.027401145217222E-1    5.315153485909748E-1   -1.056019459706021E-1    4.702942652821002E-1    9.153969293685316E-2
 7.555897668622349E6     4.709232848201969E-1    8.841372807736653E-2    5.317449904249920E-1   -1.016038217950820E-1    5.304763282133353E-1   -1.074592485127524E-1    4.703810142406322E-1    9.155652419390656E-2
 7.613548130006171E6     4.714044166740884E-1    8.819905217560380E-2    5.312428972131441E-1   -1.014820520613216E-1    5.300027238862509E-1   -1.073662063798493E-1    4.708517382455414E-1    9.135804973796689E-2
 7.671638456491867E6     4.727557072285795E-1    8.651397305929809E-2    5.303339120886963E-1   -1.005850884682038E-1    5.299543317840185E-1   -1.095572716989261E-1    4.711356993868542E-1    9.116489275140012E-2
 7.730172004189732E6     4.732129392648948E-1    8.628757037281495E-2    5.298570742847203E-1   -1.004954058074665E-1    5.294798267467840E-1   -1.094626386519425E-1    4.715977784077706E-1    9.096803860304831E-2
 7.789152154816771E6     4.737229626207665E-1    8.606746712306367E-2    5.293672215803934E-1   -1.003836328923986E-1    5.290273905270513E-1   -1.093711105650791E-1    4.720556555238279E-1    9.076743908201598E-2
 7.848582315891974E6     4.732914507973196E-1    8.735793258547500E-2    5.293823025704746E-1   -1.010908997878429E-1    5.280859781353170E-1   -1.069852589048702E-1    4.727329223294309E-1    9.059565234184999E-2
 7.908465920933248E6     4.737649554465002E-1    8.714436435895838E-2    5.289066259927971E-1   -1.009908403009482E-1    5.275904777336273E-1   -1.068705208717249E-1    4.731816238883945E-1    9.040346278021957E-2
 7.968806429655775E6     4.742411256139504E-1    8.693080755427883E-2    5.284167102232178E-1   -1.008758509669687E-1    5.271566317160994E-1   -1.067706008874642E-1    4.736609604716456E-1    9.020799814795567E-2
 8.029607328171868E6     4.746885649718965E-1    8.672047532942966E-2    5.279629222623234E-1   -1.007970825914730E-1    5.266639240026721E-1   -1.066697086205396E-1    4.741194353349600E-1    9.000476325554584E-2
 8.090872129192449E6     4.751664332716363E-1    8.651529629071700E-2    5.275043405124238E-1   -1.007099740227325E-1    5.262021430322713E-1   -1.065748907790441E-1    4.745834288234909E-1    8.980406251351208E-2
 8.152604372229892E6     4.756140333418359E-1    8.631067541076680E-2    5.270539672225522E-1   -1.006117244921897E-1    5.257419337109717E-1   -1.064868822805326E-1    4.750427453092147E-1    8.959489266790226E-2
 8.214807623802581E6     4.761050573497674E-1    8.609627414288731E-2    5.265857528486937E-1   -1.005064926587051E-1    5.252790246950192E-1   -1.064058068618690E-1    4.755340178022070E-1    8.941012308203498E-2
 8.277485477640945E6     4.765384226261450E-1    8.588873405316520E-2    5.261106512762039E-1   -1.004259938578840E-1    5.248157701550732E-1   -1.063031266432906E-1    4.759666424140339E-1    8.922057615174829E-2
 8.340641554895067E6     4.770111768602510E-1    8.565358003664771E-2    5.256465599918666E-1   -1.003181219648224E-1    5.243642508411259E-1   -1.062193125615142E-1    4.764555739786161E-1    8.902310982103294E-2
 8.404279504343957E6     4.774833440201670E-1    8.545620834264930E-2    5.252151382748255E-1   -1.002092658349249E-1    5.239142574256117E-1   -1.061093271557984E-1    4.769205149834605E-1    8.882076743070255E-2
 8.468403002606256E6     4.779232823009205E-1    8.524758954915704E-2    5.247451943225214E-1   -1.001412134776192E-1    5.234567376230598E-1   -1.060322239666999E-1    4.773853703332822E-1    8.860016194012992E-2
 8.533015754352720E6     4.782650150550538E-1    8.579766649314408E-2    5.243988893252026E-1   -1.004711029637139E-1    5.231728552830555E-1   -1.049026136017821E-1    4.779764632984086E-1    8.838104921920892E-2
 8.598121492520234E6     4.787187813800122E-1    8.559087489239024E-2    5.239335047835815E-1   -1.003699110753636E-1    5.226985248090671E-1   -1.047949738680845E-1    4.784217120645879E-1    8.818641342599796E-2
 8.663723978527457E6     4.802359237311385E-1    8.299695808376238E-2    5.229232092228105E-1   -9.905251682890565E-2    5.225546382943035E-1   -1.081618898200945E-1    4.785753212345417E-1    8.798132088125196E-2
 8.729827002492212E6     4.806825319035923E-1    8.275966950796948E-2    5.224316652116915E-1   -9.896085291410078E-2    5.220610003062647E-1   -1.080814057950788E-1    4.790484357508359E-1    8.778336919953501E-2
 8.796434383450346E6     4.811286952746449E-1    8.253070719371838E-2    5.219700501261533E-1   -9.887605401862444E-2    5.216454382920267E-1   -1.080151154160605E-1    4.795232551303118E-1    8.758680318734482E-2
 8.863549969576446E6     4.809334674343552E-1    8.324617776254604E-2    5.218609094293322E-1   -9.921099738180295E-2    5.207567175292149E-1   -1.064858539546156E-1    4.800317328417486E-1    8.739997775981749E-2
 8.931177638406139E6     4.813881520611474E-1    8.302053495889714E-2    5.213922283695772E-1   -9.911634312777892E-2    5.203050951952005E-1   -1.063963412531791E-1    4.804908690099470E-1    8.720269038760348E-2
 8.999321297060097E6     4.818347620290798E-1    8.279130993412681E-2    5.209383798954983E-1   -9.904104903534139E-2    5.198464575673478E-1   -1.063065190174863E-1    4.809159696132031E-1    8.699984582502029E-2
 9.067984882469844E6     4.823066099138699E-1    8.257988413242452E-2    5.205340869719249E-1   -9.895841225997083E-2    5.193993575293204E-1   -1.062256511768744E-1    4.813867755935453E-1    8.680188735645669E-2
 9.137172361605095E6     4.827878202145385E-1    8.234212900275112E-2    5.200858947630166E-1   -9.887486041735626E-2    5.189238800803927E-1   -1.061475989147630E-1    4.818362630221883E-1    8.659299796718647E-2
 9.206887731702998E6     4.828502561376929E-1    8.414120051708922E-2    5.199204549065730E-1   -9.984769277859702E-2    5.188206269930962E-1   -1.033634320899810E-1    4.826227864392677E-1    8.632071205543994E-2
 9.277135020499127E6     4.833236638082177E-1    8.391551586759326E-2    5.194965080486990E-1   -9.978666789518235E-2    5.184020367392641E-1   -1.032913808093980E-1    4.830964018068437E-1    8.611980553952880E-2
 9.347918286460072E6     4.837794698475629E-1    8.370467066399732E-2    5.190760826514360E-1   -9.968969540893348E-2    5.179541196196865E-1   -1.031800806903448E-1    4.835323658854317E-1    8.592650539496781E-2
 9.419241619017981E6     4.842100797446526E-1    8.348537971375358E-2    5.186026617915601E-1   -9.960312602169474E-2    5.175263505219954E-1   -1.031036705374636E-1    4.840128229984456E-1    8.570242984540552E-2
 9.491109138806809E6     4.846377425007932E-1    8.325620744932841E-2    5.181709348275328E-1   -9.950803375003084E-2    5.170771737603120E-1   -1.030124233984057E-1    4.844378445986343E-1    8.550023096537807E-2
 9.563524997900363E6     4.850750146267064E-1    8.304639228588379E-2    5.177155732195711E-1   -9.941163943031053E-2    5.166125189030545E-1   -1.029152546912957E-1    4.848622751226528E-1    8.528566423379279E-2
 9.636493380052259E6     4.855135333464226E-1    8.284877109413914E-2    5.172677577973362E-1   -9.931946220588694E-2    5.161604165305876E-1   -1.028264274929472E-1    4.853048758406983E-1    8.507936803495286E-2
 9.710018500937525E6     4.859708795594387E-1    8.263387023795235E-2    5.168469314221830E-1   -9.924048938805426E-2    5.157192939674830E-1   -1.027552612695780E-1    4.857469549491719E-1    8.486681663308605E-2
 9.784104608396223E6     4.865393924530168E-1    8.104789872077317E-2    5.162412307903821E-1   -9.841412140305128E-2    5.148875061501113E-1   -1.044435669464152E-1    4.859652720371130E-1    8.473085431734964E-2
 9.858755982678859E6     4.869960612276507E-1    8.081798117764903E-2    5.158193572001856E-1   -9.830923621575165E-2    5.144634377026137E-1   -1.043672745981712E-1    4.863866278479912E-1    8.452432355502110E-2
 9.933976936693633E6     4.874244340149549E-1    8.059006404863696E-2    5.153551604911184E-1   -9.821857782544086E-2    5.140347975608992E-1   -1.042863938233460E-1    4.868458762364113E-1    8.430901782280133E-2
 1.000977181625571E7     4.878859673093117E-1    8.035505883423619E-2    5.149450455978469E-1   -9.814416528365449E-2    5.135905674316122E-1   -1.042056531890090E-1    4.872873485361305E-1    8.411479742451017E-2
 1.008614500033817E7     4.883262000497091E-1    8.013810483742125E-2    5.145145159218938E-1   -9.806689709708961E-2    5.131558350169879E-1   -1.041150027271191E-1    4.877141244123718E-1    8.390942373177490E-2
 1.016310090132507E7     4.887602377879583E-1    7.992259092741207E-2    5.140745894395623E-1   -9.800351347265016E-2    5.127308577983314E-1   -1.040502057260986E-1    4.881516119275287E-1    8.368915150742108E-2
 1.024064396526634E7     4.890560871518357E-1    8.106293094680246E-2    5.138102337836155E-1   -9.862215537191826E-2    5.126896468598412E-1   -1.021900803550070E-1    4.887916988014490E-1    8.341618267290309E-2
 1.031877867213467E7     4.894993018246002E-1    8.084195881712701E-2    5.133796864876438E-1   -9.852438084779645E-2    5.122540703804681E-1   -1.020977804676423E-1    4.892368351637341E-1    8.320348395993754E-2
 1.039750953608436E7     4.899501209655492E-1    8.063107862429947E-2    5.129211775435529E-1   -9.846021827218912E-2    5.118301728661516E-1   -1.020205271365005E-1    4.896870883148980E-1    8.301659353127654E-2
 1.047684110571204E7     4.903792275145225E-1    8.041447045273317E-2    5.125097222343797E-1   -9.837799677782753E-2    5.114012313104884E-1   -1.019452128618088E-1    4.901315655227221E-1    8.279019830275976E-2
 1.055677796431950E7     4.908038595925249E-1    8.018520556529873E-2    5.120926961290078E-1   -9.829063987902571E-2    5.109813073033206E-1   -1.018728888252062E-1    4.905633222697745E-1    8.258736180980482E-2
 1.063732473017859E7     4.924035574178915E-1    7.679691037418318E-2    5.110859724025660E-1   -9.676266391424546E-2    5.106322425262181E-1   -1.061629229060857E-1    4.906621297432424E-1    8.234377502913519E-2
 1.071848605679777E7     4.928331455779848E-1    7.653896551253329E-2    5.106523862119078E-1   -9.670363349934878E-2    5.102013854580719E-1   -1.061129300252927E-1    4.910892997631307E-1    8.211801094549238E-2
 1.080026663319129E7     4.925557189359087E-1    7.732647724486094E-2    5.105345329989099E-1   -9.704317891053880E-2    5.093234050719426E-1   -1.045040462832292E-1    4.915945606708607E-1    8.194744550791672E-2
 1.088267118414987E7     4.930097497311610E-1    7.710625246565575E-2    5.100855528404045E-1   -9.694532144624685E-2    5.088964309944106E-1   -1.044110329160919E-1    4.920108871384239E-1    8.173143545027965E-2
 1.096570447051370E7     4.941874338410371E-1    7.583638116653266E-2    5.093942678120560E-1   -9.648508535325999E-2    5.089116435084928E-1   -1.059036694189786E-1    4.923845194402364E-1    8.145906510960883E-2
 1.104937128944762E7     4.945709687001755E-1    7.557764848422947E-2    5.089373546628977E-1   -9.639328685594351E-2    5.085087361746939E-1   -1.058553092033949E-1    4.928406403282649E-1    8.125532929532359E-2
 1.113367647471805E7     4.950515166110450E-1    7.535433990249901E-2    5.085462203046991E-1   -9.632965023487060E-2    5.080759856185724E-1   -1.058057277408385E-1    4.932548945427646E-1    8.103533037490648E-2
 1.121862489697252E7     4.945140039680386E-1    7.923829591329369E-2    5.087357552439903E-1   -9.834576509158112E-2    5.082217272876123E-1   -1.002478161912652E-1    4.942607568276925E-1    8.064955805617290E-2
 1.130422146402085E7     4.949457148647209E-1    7.901659002400814E-2    5.083260166667677E-1   -9.827753397903521E-2    5.078068013216801E-1   -1.001839279713512E-1    4.946584692929314E-1    8.041838780801298E-2
 1.139047112111875E7     4.953710147854420E-1    7.879159235415036E-2    5.078968125219059E-1   -9.818696065744741E-2    5.073928311402400E-1   -1.000820803280497E-1    4.950868718381802E-1    8.019490504757493E-2
 1.147737885125368E7     4.958139433026611E-1    7.857490012381964E-2    5.074951568521197E-1   -9.812679637736607E-2    5.069822734192637E-1   -1.000232121811125E-1    4.955338002423650E-1    8.000680053851764E-2
 1.156494967543242E7     4.962149625577373E-1    7.834641110915821E-2    5.070809538818276E-1   -9.806855458081788E-2    5.065452007073306E-1   -9.993443246241203E-2    4.959211146038052E-1    7.977549459952059E-2
 1.165318865297152E7     4.965548551719916E-1    7.790806316166637E-2    5.066680713595076E-1   -9.777697865397919E-2    5.059618226596518E-1   -1.000919602142633E-1    4.962749954196798E-1    7.966153294548652E-2
 1.174210088178934E7     4.980474981084855E-1    7.369790119314590E-2    5.056540902755280E-1   -9.584404528330727E-2    5.051593433401733E-1   -1.053640562077525E-1    4.962386972618356E-1    7.948117518333939E-2
 1.183169149870061E7     4.984868435084734E-1    7.341963530450171E-2    5.052344399500442E-1   -9.582111639152044E-2    5.047592640454692E-1   -1.053129577855787E-1    4.966660954787901E-1    7.929453232971907E-2
 1.192196567971337E7     4.988993735926612E-1    7.319025274304881E-2    5.048055443726326E-1   -9.572611968845401E-2    5.043461504893432E-1   -1.052594383810585E-1    4.970992298188158E-1    7.907451534444894E-2
 1.201292864032780E7     4.993276717222188E-1    7.294888344034668E-2    5.043818671606526E-1   -9.566363515008566E-2    5.039399974193963E-1   -1.052056497769449E-1    4.975319333646703E-1    7.885390152739830E-2
 1.210458563583766E7     4.997511130358673E-1    7.270228670263339E-2    5.039894521056379E-1   -9.560388593145912E-2    5.035198316623800E-1   -1.051601092103452E-1    4.979333631144645E-1    7.860621372119081E-2
 1.219694196163385E7     5.001641927801141E-1    7.244857941390979E-2    5.035846976871579E-1   -9.554381949064068E-2    5.031027498280558E-1   -1.051206932548788E-1    4.983588551968564E-1    7.838074563331786E-2
 1.229000295351040E7     4.993265649039676E-1    7.501025187449081E-2    5.036987739769745E-1   -9.653945894689972E-2    5.023977988554771E-1   -1.011712536728339E-1    4.989536584599337E-1    7.823865246015084E-2
 1.238377398797275E7     4.997304354076885E-1    7.476776949968117E-2    5.033074462299753E-1   -9.649614916649786E-2    5.019782788028243E-1   -1.011120661949049E-1    4.993851506068888E-1    7.802470811242548E-2
 1.247826048254829E7     5.001644621772487E-1    7.454348581852512E-2    5.029103842158346E-1   -9.642116527640950E-2    5.015937875698765E-1   -1.010308710538658E-1    4.998103326841705E-1    7.780252864787428E-2
 1.257346789609938E7     5.009176630658595E-1    7.595563594203075E-2    5.025565097136372E-1   -9.748307942062352E-2    5.022374116272880E-1   -9.905156406718299E-2    5.006065068841026E-1    7.729597798807394E-2
 1.266940172913885E7     5.013094464373056E-1    7.572507691298933E-2    5.021512081354135E-1   -9.741362115405965E-2    5.018367429292928E-1   -9.898122423083051E-2    5.010227592233775E-1    7.705733576727501E-2
 1.276606752414753E7     5.017310136251115E-1    7.548309298804001E-2    5.017565815610452E-1   -9.734266219442578E-2    5.014385579072095E-1   -9.892504694359794E-2    5.014356032129219E-1    7.682603176295293E-2
 1.286347086589479E7     5.021466217256552E-1    7.526094345777973E-2    5.013463125977179E-1   -9.728736753176476E-2    5.010415714150463E-1   -9.886353977117579E-2    5.018184674979367E-1    7.659858769150846E-2
 1.296161738176090E7     5.025530619463394E-1    7.502065970618688E-2    5.009647970605319E-1   -9.723628253655339E-2    5.006222935851500E-1   -9.880942704741157E-2    5.022046991056113E-1    7.636723943702879E-2
 1.306051274206230E7     5.029587303608568E-1    7.478111847285852E-2    5.005339565910761E-1   -9.717430929031971E-2    5.002347417634333E-1   -9.874623213316605E-2    5.026222196981036E-1    7.614094359018211E-2
 1.316016266037924E7     5.033602790202940E-1    7.456095466539514E-2    5.001354820641374E-1   -9.709530242845205E-2    4.998197582065824E-1   -9.868115382090263E-2    5.030152337740025E-1    7.591573884606881E-2
 1.326057289388563E7     5.035954889959562E-1    7.394854951938534E-2    4.997362927219128E-1   -9.667078178402333E-2    4.990817417230237E-1   -9.903444648440932E-2    5.033023705198757E-1    7.587252248648620E-2
 1.336174924368203E7     5.039991361207016E-1    7.371152532015349E-2    4.993865428270107E-1   -9.661585604586920E-2    4.986632609211530E-1   -9.896454994057013E-2    5.036947444827052E-1    7.564055351502308E-2
 1.346369755513046E7     5.046035630713092E-1    7.385989848294988E-2    4.989810626358767E-1   -9.694206506952788E-2    4.986501543063278E-1   -9.851309919580946E-2    5.042387435733997E-1    7.524671543206685E-2
 1.356642371819227E7     5.049809040163622E-1    7.361114204863020E-2    4.985692713503008E-1   -9.687424398443976E-2    4.982577669312110E-1   -9.846327610608124E-2    5.046436148882016E-1    7.502476437725289E-2
 1.366993366776852E7     5.053884916116721E-1    7.337661072112293E-2    4.981804635147965E-1   -9.683742482661227E-2    4.978522293320172E-1   -9.839985584408988E-2    5.050464674805706E-1    7.479672363812524E-2
 1.377423338404255E7     5.057889284928466E-1    7.315299016067392E-2    4.977905477908824E-1   -9.676561448972808E-2    4.974534062950290E-1   -9.833419487349399E-2    5.054319583182325E-1    7.455697637870766E-2
 1.387932889282586E7     5.060601847513068E-1    7.020330206935606E-2    4.972413150200915E-1   -9.530188175506166E-2    4.957873336121921E-1   -1.015234757262998E-1    5.054175357745982E-1    7.456125297358430E-2
 1.398522626590596E7     5.076202605752788E-1    6.799470810116365E-2    4.964273699271941E-1   -9.461643923215438E-2    4.959180527338205E-1   -1.042615986705716E-1    5.057723371590035E-1    7.426532490549347E-2
 1.409193162139728E7     5.080284164469413E-1    6.773749274737516E-2    4.960615947818203E-1   -9.456977040716043E-2    4.955192176485882E-1   -1.042406584106740E-1    5.061705587079325E-1    7.403017274220103E-2
 1.419945112409473E7     5.072800646436741E-1    6.942237645893005E-2    4.960788900054793E-1   -9.516238396663501E-2    4.946268776267644E-1   -1.014297889017017E-1    5.066451378249698E-1    7.390051606540995E-2
 1.430779098582953E7     5.076705301868346E-1    6.918661754681842E-2    4.956892644262094E-1   -9.511603902592314E-2    4.942216125892442E-1   -1.013869259157308E-1    5.070395181274271E-1    7.364356699467162E-2
 1.441695746582855E7     5.080708851595951E-1    6.892674661251140E-2    4.953024629330335E-1   -9.507547225252606E-2    4.938322935797301E-1   -1.013444824966238E-1    5.074534909216166E-1    7.340189932012271E-2
 1.452695687107559E7     5.084858434349213E-1    6.868065646946021E-2    4.949450387119847E-1   -9.506216515653729E-2    4.934583364722175E-1   -1.012970540032154E-1    5.078499273650011E-1    7.318456991088707E-2
 1.463779555667585E7     5.088760814256141E-1    6.844575696010763E-2    4.945390752911921E-1   -9.502508903416329E-2    4.930486726199562E-1   -1.012632784690651E-1    5.082273203653156E-1    7.292259395383478E-2
 1.474947992622320E7     5.092601523131415E-1    6.818911918777358E-2    4.941536728823122E-1   -9.498827763452333E-2    4.926835288526762E-1   -1.012303528782357E-1    5.086185097706506E-1    7.271125378901749E-2
 1.486201643216998E7     5.094462686743938E-1    6.953631549444375E-2    4.939250359430172E-1   -9.552380343657944E-2    4.927490760949761E-1   -9.917263480503445E-2    5.091494821582322E-1    7.250463659267312E-2
 1.497541157619987E7     5.100272219479569E-1    6.765835238066810E-2    4.934023297137869E-1   -9.489849887221799E-2    4.919109467911374E-1   -1.011413183589173E-1    5.094075134636843E-1    7.222138185526282E-2
 1.508967190960350E7     5.104134301049504E-1    6.740755267253333E-2    4.930302336161492E-1   -9.485273930040453E-2    4.915360978456899E-1   -1.011220507107752E-1    5.098075100219587E-1    7.198031420174823E-2
 1.520480403365694E7     5.108486084250226E-1    6.716214516515563E-2    4.926447152129673E-1   -9.481864696899227E-2    4.911431842640528E-1   -1.010893962788823E-1    5.101808632639790E-1    7.175416971352533E-2
 1.532081460000315E7     5.112329300729445E-1    6.691297353431089E-2    4.922665166869299E-1   -9.479916906023192E-2    4.907639789678180E-1   -1.010611018264180E-1    5.105794189445952E-1    7.148541120762801E-2
 1.543771031103615E7     5.116256801854079E-1    6.667257973295174E-2    4.918929830729055E-1   -9.475258674108941E-2    4.903994897478536E-1   -1.010282337496507E-1    5.109748665351562E-1    7.125491389229095E-2
 1.555549792028828E7     5.120048049583255E-1    6.640702663282427E-2    4.915185768610739E-1   -9.471867770501143E-2    4.900162122119788E-1   -1.010066327012747E-1    5.113774462730188E-1    7.102439662493966E-2
 1.567418423282054E7     5.121692412390652E-1    6.779073155600240E-2    4.912794593399263E-1   -9.525887162587708E-2    4.900908788044193E-1   -9.895977044483341E-2    5.118624178604915E-1    7.081762189795300E-2
 1.579377610561541E7     5.125584409568696E-1    6.753873576977008E-2    4.908896166622977E-1   -9.524097546355385E-2    4.896959481389982E-1   -9.891416754132444E-2    5.122325324736660E-1    7.056181716210001E-2
 1.591428044797338E7     5.129313039099599E-1    6.729239277568037E-2    4.905213995844876E-1   -9.521767517662102E-2    4.893403740054521E-1   -9.890367520420636E-2    5.126302773137469E-1    7.031334056534638E-2
 1.603570422191187E7     5.133195143921433E-1    6.704123366632417E-2    4.901431717098254E-1   -9.517859721187839E-2    4.889519542498602E-1   -9.886262451418582E-2    5.130082017568296E-1    7.007200550049225E-2
 1.615805444256752E7     5.137028057987467E-1    6.678057896919938E-2    4.897587405441439E-1   -9.515199430865520E-2    4.885728262668492E-1   -9.882545901798070E-2    5.133695381176850E-1    6.984297793128345E-2
 1.628133817860163E7     5.140783235909762E-1    6.652405111479050E-2    4.894035228920403E-1   -9.514031158814518E-2    4.882085167472872E-1   -9.880402801617379E-2    5.137628699440148E-1    6.959836176038656E-2
 1.640556255260818E7     5.144638056793287E-1    6.563601337172552E-2    4.889949532112707E-1   -9.486363637939774E-2    4.875628164176706E-1   -9.954821699817062E-2    5.140900319458477E-1    6.934092966184023E-2
 1.653073474152580E7     5.148401138749317E-1    6.536722377388014E-2    4.886298146778110E-1   -9.485296535511646E-2    4.872160966972993E-1   -9.949724303537730E-2    5.144890382558326E-1    6.909980421809071E-2
 1.665686197705204E7     5.152323892081819E-1    6.510524450552203E-2    4.882715479180753E-1   -9.482942261084520E-2    4.868421994586605E-1   -9.947839478598286E-2    5.148396435246145E-1    6.883821232090333E-2
 1.678395154606132E7     5.156095585197874E-1    6.484932444833330E-2    4.878956879065121E-1   -9.480836260101451E-2    4.864611166198797E-1   -9.946710979942053E-2    5.152060559222662E-1    6.861729533357817E-2
 1.691201079102603E7     5.161978220706024E-1    6.355552047379730E-2    4.874430919156353E-1   -9.444980648331318E-2    4.859026807170350E-1   -1.007347167907039E-1    5.155410833526776E-1    6.833596849758324E-2
 1.704104711044038E7     5.165780108715423E-1    6.328445173345934E-2    4.870752526531705E-1   -9.445929523088546E-2    4.855271781550142E-1   -1.007261720727951E-1    5.159197322678841E-1    6.809443752527973E-2
 1.717106795924834E7     5.169435235912274E-1    6.301968379121767E-2    4.867062731821889E-1   -9.442043186306655E-2    4.851817206284139E-1   -1.007031584758465E-1    5.163204823225962E-1    6.787777042650057E-2
 1.730208084927390E7     5.185897227205183E-1    6.072160277954074E-2    4.859829775131599E-1   -9.382762319256240E-2    4.853562266987219E-1   -1.036243793320988E-1    5.166567980483269E-1    6.751121004804879E-2
 1.743409334965526E7     5.177135652568017E-1    6.248600175358196E-2    4.860094649401944E-1   -9.441061400452336E-2    4.844598167265596E-1   -1.007124451816126E-1    5.170753342445819E-1    6.738562334929904E-2
 1.756711308728221E7     5.180952133567923E-1    6.223262649977449E-2    4.856466505244165E-1   -9.440139501847422E-2    4.840658153155682E-1   -1.006996828183008E-1    5.174280626547209E-1    6.712012460067369E-2
 1.770114774723655E7     5.184661274879286E-1    6.197053522518774E-2    4.852983287453850E-1   -9.438732968583492E-2    4.837177175943075E-1   -1.006804935857341E-1    5.178048160682366E-1    6.687141135548362E-2
 1.783620507323623E7     5.188743566608547E-1    6.469908107721228E-2    4.850826368534820E-1   -9.559282074528630E-2    4.846812355277117E-1   -9.721163246306250E-2    5.184889645610350E-1    6.652183668141014E-2
 1.797229286808272E7     5.190415760141213E-1    6.396528731872096E-2    4.847003891722187E-1   -9.526644204029183E-2    4.839652240151547E-1   -9.764523939896906E-2    5.187471851321989E-1    6.640211235350191E-2
 1.810941899411174E7     5.195759677101953E-1    6.416362432138335E-2    4.843473673751616E-1   -9.557429678710937E-2    4.839817362324999E-1   -9.717739812342513E-2    5.192323083970156E-1    6.602833779756496E-2
 1.824759137364766E7     5.199581985150548E-1    6.391215465085255E-2    4.840030136765949E-1   -9.558095804237700E-2    4.836228705261348E-1   -9.718186545975510E-2    5.195926644123730E-1    6.578157813850971E-2
 1.838681798946100E7     5.203297161393744E-1    6.366354852177231E-2    4.836472347046812E-1   -9.556849683328318E-2    4.832623361496359E-1   -9.715449030093866E-2    5.199512624862778E-1    6.553238626107563E-2
 1.852710688522972E7     5.210467241915668E-1    5.949807455227854E-2    4.830530386713223E-1   -9.412605054062742E-2    4.816182813841819E-1   -1.018233540244765E-1    5.200168783797473E-1    6.535870948015685E-2
 1.866846616600409E7     5.210343634858517E-1    6.011860358384864E-2    4.828191388186029E-1   -9.437558414761858E-2    4.812173312938948E-1   -1.006332686215802E-1    5.203759806041991E-1    6.513132212129982E-2
 1.881090399867451E7     5.213376547167184E-1    6.268496742103086E-2    4.825765470408295E-1   -9.539159008949827E-2    4.820429545794753E-1   -9.734920450269850E-2    5.209789884280664E-1    6.485319324241302E-2
 1.895442861244394E7     5.216819591719338E-1    6.240777366760548E-2    4.822277678120669E-1   -9.538934661382245E-2    4.816948469498487E-1   -9.734206109559741E-2    5.213380696034227E-1    6.459941969873412E-2
 1.909904829930285E7     5.220387647015848E-1    6.214169644025801E-2    4.818776621116376E-1   -9.539056217384258E-2    4.813494383603024E-1   -9.732599692293219E-2    5.217074122551089E-1    6.436927960161966E-2
 1.924477141450845E7     5.223850985963515E-1    6.189035398011609E-2    4.815354530590750E-1   -9.540427300411089E-2    4.810059050363700E-1   -9.730647586796963E-2    5.220378032901443E-1    6.409108379268089E-2
 1.939160637706759E7     5.227583047514999E-1    6.163007423786807E-2    4.811782998966634E-1   -9.540616944466684E-2    4.806427602293799E-1   -9.732809230948576E-2    5.224008804815105E-1    6.384010350403845E-2
 1.953956167022271E7     5.231037378769967E-1    6.135471394382289E-2    4.808425079304136E-1   -9.540522910985537E-2    4.803073830385965E-1   -9.733136290200363E-2    5.227553547418127E-1    6.358868480386817E-2
 1.968864584194249E7     5.233927374792327E-1    6.084595219771430E-2    4.804918113687778E-1   -9.525909954151994E-2    4.797409255460345E-1   -9.760862022811631E-2    5.230478192411240E-1    6.335194117803820E-2
 1.983886750541528E7     5.243095780501003E-1    5.707000540635480E-2    4.799321789799003E-1   -9.418854760592923E-2    4.784445267827278E-1   -1.018910467696646E-1    5.232295109384685E-1    6.304584498915695E-2
 1.999023533954688E7     5.246702623639120E-1    5.678949718338523E-2    4.795823673066928E-1   -9.423261167825077E-2    4.780914769398068E-1   -1.019182938616663E-1    5.235755671534280E-1    6.279113918807867E-2
 2.014275808946211E7     5.250264259376245E-1    5.652779766640408E-2    4.792491427689260E-1   -9.421888759511955E-2    4.777413672158921E-1   -1.019566228055580E-1    5.239465050939088E-1    6.252920574238433E-2
 2.029644456700960E7     5.253769034909335E-1    5.623308755098626E-2    4.789063457837446E-1   -9.425591224126753E-2    4.774088400729993E-1   -1.019689884759166E-1    5.243047168053246E-1    6.230372030766568E-2
 2.045130365127147E7     5.257355187845278E-1    5.596575930866573E-2    4.785771801514770E-1   -9.425822773928730E-2    4.770610270750737E-1   -1.019868695034072E-1    5.246628971383162E-1    6.203734164174969E-2
 2.060734428907584E7     5.260908691750986E-1    5.567024739272101E-2    4.782296616543389E-1   -9.430195365839027E-2    4.767147306112671E-1   -1.020107089137157E-1    5.249957609924654E-1    6.178001590186073E-2
 2.076457549551392E7     5.264503701244965E-1    5.538935302006705E-2    4.778962299051007E-1   -9.432632212369273E-2    4.763710565261662E-1   -1.020285923066459E-1    5.253427720914104E-1    6.150432421643273E-2
 2.092300635446098E7     5.267822496277313E-1    5.510811226777931E-2    4.775389350512160E-1   -9.434474910293859E-2    4.760236924857215E-1   -1.020659513920802E-1    5.256780547926990E-1    6.124337511117909E-2
 2.108264601910070E7     5.271391948663967E-1    5.483073337906080E-2    4.772142651716818E-1   -9.436250734068070E-2    4.756928880665520E-1   -1.020865656492045E-1    5.260322641165873E-1    6.099333903081965E-2
 2.124350371245464E7     5.270603748451680E-1    5.861693508539348E-2    4.770908181714134E-1   -9.568939845634819E-2    4.766989268869753E-1   -9.729878718971503E-2    5.266172651415848E-1    6.070594797337641E-2
 2.140558872791451E7     5.274105891382054E-1    5.834828545059827E-2    4.767568809901677E-1   -9.572345399376614E-2    4.763727512685487E-1   -9.730062545061206E-2    5.269862227104514E-1    6.046924570055925E-2
 2.156891042977939E7     5.275222846467298E-1    5.602679811429440E-2    4.763812412456296E-1   -9.494019424339496E-2    4.748569809635008E-1   -9.956494315190184E-2    5.271108975018430E-1    6.028690556104616E-2
 2.173347825379676E7     5.278710269326848E-1    5.576042944012322E-2    4.760563935605226E-1   -9.494812674055277E-2    4.745348222014380E-1   -9.960307462297673E-2    5.274651299045563E-1    6.001016521289894E-2
 2.189930170770744E7     5.281949811154774E-1    5.545067681680729E-2    4.757036637650102E-1   -9.498636166824813E-2    4.741846263254555E-1   -9.964308079276044E-2    5.278045086391072E-1    5.977358987239083E-2
 2.206639037179505E7     5.285520497136522E-1    5.518910481430219E-2    4.753957128168957E-1   -9.502697635411252E-2    4.738506029160517E-1   -9.967184289837684E-2    5.281369701718632E-1    5.949046165484627E-2
 2.223475389943947E7     5.291052374731964E-1    5.697256225492979E-2    4.751062781663827E-1   -9.584536272454759E-2    4.746971666688070E-1   -9.745824612308009E-2    5.287022682793189E-1    5.917338856665133E-2
 2.240440201767448E7     5.294613600151389E-1    5.669733287273013E-2    4.747756218130141E-1   -9.590116145409858E-2    4.743518292091919E-1   -9.748805854464726E-2    5.290184476129527E-1    5.890364165602565E-2
 2.257534452774993E7     5.297760190555281E-1    5.641722371031763E-2    4.744454370176925E-1   -9.591356097220412E-2    4.740343355133267E-1   -9.751552589831231E-2    5.293609412884169E-1    5.864696208754493E-2
 2.274759130569773E7     5.301218127914444E-1    5.614181804463311E-2    4.741289178980101E-1   -9.597409155379519E-2    4.736958750575260E-1   -9.755853161741712E-2    5.296941562836243E-1    5.839122672046811E-2
 2.292115230290256E7     5.304634643216020E-1    5.587675234759962E-2    4.738010843825966E-1   -9.600247461521905E-2    4.733818891054591E-1   -9.759602594332820E-2    5.300303773593248E-1    5.810623477415604E-2
 2.309603754667697E7     5.307975676208756E-1    5.559813071925261E-2    4.734799575212588E-1   -9.605340944985766E-2    4.730532712397788E-1   -9.762289993765851E-2    5.303583561718542E-1    5.784578312181540E-2
 2.327225714084021E7     5.311261969390773E-1    5.530237101547003E-2    4.731505075757625E-1   -9.609710293827917E-2    4.727160746881985E-1   -9.766867383006370E-2    5.306902294318273E-1    5.757605563401010E-2
 2.344982126630262E7     5.312008221855687E-1    5.363149307395505E-2    4.728055395575099E-1   -9.556612551791938E-2    4.714976318774278E-1   -9.916616132571868E-2    5.308727293518768E-1    5.740992779761097E-2
 2.362874018165328E7     5.315282104207805E-1    5.335195171776823E-2    4.724709270207911E-1   -9.561290695656469E-2    4.711425960992099E-1   -9.923308769233605E-2    5.311872170213497E-1    5.714253899559104E-2
 2.380902422375290E7     5.321737963847115E-1    5.129616784168291E-2    4.720751200459916E-1   -9.523274583878982E-2    4.703145151205345E-1   -1.014699431610847E-1    5.314737057708320E-1    5.678693812609375E-2
 2.399068380833123E7     5.325077003049988E-1    5.099169754630734E-2    4.717449227903338E-1   -9.528852181468206E-2    4.699838592210163E-1   -1.015292457336575E-1    5.318128328528149E-1    5.652719045272304E-2
 2.417372943058824E7     5.325261254717839E-1    5.252593990079584E-2    4.715034400103254E-1   -9.574971782618480E-2    4.701591734152475E-1   -9.937844319508224E-2    5.321819588055279E-1    5.633855646426560E-2
 2.435817166580120E7     5.328414717608010E-1    5.224447070872416E-2    4.711770909011922E-1   -9.581697628709963E-2    4.698331840381291E-1   -9.941690856273337E-2    5.324972962692706E-1    5.606532836453657E-2
 2.454402116993507E7     5.334848859998066E-1    5.013751167168243E-2    4.707909372926918E-1   -9.548001304477345E-2    4.690063760107599E-1   -1.017107289402658E-1    5.327983649124023E-1    5.571332309184387E-2
 2.473128868025839E7     5.338146492169329E-1    4.985724579061056E-2    4.704878784886300E-1   -9.553373270039385E-2    4.686740153984356E-1   -1.017705743073747E-1    5.331149452320995E-1    5.546177844080358E-2
 2.491998501596375E7     5.341396209738426E-1    4.957288797503313E-2    4.701667367462847E-1   -9.559165085740744E-2    4.683518746474514E-1   -1.018417091931743E-1    5.334384148220515E-1    5.517900966208436E-2
 2.511012107879237E7     5.343943126431115E-1    5.251440131818030E-2    4.699383107104081E-1   -9.662255719931004E-2    4.694689994874163E-1   -9.818273291049943E-2    5.339349295022141E-1    5.491521169824798E-2
 2.530170785366461E7     5.347242653456594E-1    5.224462535821744E-2    4.696241198087322E-1   -9.667226198633878E-2    4.691598567569376E-1   -9.824938403922719E-2    5.342553687375162E-1    5.463266023468454E-2
 2.549475640931404E7     5.350518915040807E-1    5.196316119125578E-2    4.692987008983585E-1   -9.674718712200522E-2    4.688321560679615E-1   -9.830383291538883E-2    5.345686286039519E-1    5.435516376642884E-2
 2.568927789892715E7     5.353737565011013E-1    5.167125080983987E-2    4.689894883891850E-1   -9.681924277644914E-2    4.685264755575281E-1   -9.838182524992582E-2    5.348995716730000E-1    5.410450546400921E-2
 2.588528356078789E7     5.355247802031885E-1    5.089269695749285E-2    4.686587144855834E-1   -9.660732251482922E-2    4.678030827592639E-1   -9.895476106816822E-2    5.351396596121936E-1    5.389740084463153E-2
 2.608278471892660E7     5.360039738015937E-1    5.112109596328111E-2    4.683544775508241E-1   -9.693655766958066E-2    4.679005803096883E-1   -9.851889870197010E-2    5.355418635022193E-1    5.355102414743230E-2
 2.628179278377446E7     5.363284351780072E-1    5.083182330637159E-2    4.680519933484868E-1   -9.700961474536079E-2    4.675922198679946E-1   -9.859003128392232E-2    5.358588689400949E-1    5.328295298350276E-2
 2.648231925282269E7     5.364187065000308E-1    4.909101566901859E-2    4.677165396487366E-1   -9.655843728393512E-2    4.663411927562324E-1   -1.001674366811974E-1    5.360372687988960E-1    5.307680859519100E-2
 2.668437571128672E7     5.367222969253967E-1    4.881373344147933E-2    4.674151690341853E-1   -9.664105874912718E-2    4.660171268340584E-1   -1.002590297818497E-1    5.363490644049507E-1    5.279618273465175E-2
 2.688797383277575E7     5.370356229633129E-1    4.851563510771387E-2    4.670932153891882E-1   -9.671260682281715E-2    4.657083053683019E-1   -1.003420455249816E-1    5.366603513837659E-1    5.252262517196960E-2
 2.709312537996687E7     5.374188251441727E-1    4.913933935352231E-2    4.667938575793491E-1   -9.706946254348457E-2    4.659338531599594E-1   -9.941532935446366E-2    5.370509762079776E-1    5.223791343993282E-2
 2.729984220528475E7     5.377268668797879E-1    4.886347201335720E-2    4.664887265899256E-1   -9.716887520297245E-2    4.656296904503290E-1   -9.951101502542420E-2    5.373580083548800E-1    5.195965862380339E-2
 2.750813625158667E7     5.380542463365776E-1    4.858297210865157E-2    4.661805910807787E-1   -9.725766016782132E-2    4.653143818595815E-1   -9.960505941895605E-2    5.376642005346671E-1    5.167724822778133E-2
 2.771801955285188E7     5.390328466709037E-1    4.458999416574739E-2    4.657488047720077E-1   -9.661949228044496E-2    4.639579042959914E-1   -1.042586215744059E-1    5.379193295695517E-1    5.127930416397326E-2
 2.792950423487763E7     5.386314308361502E-1    4.634701165037435E-2    4.655425554623778E-1   -9.705397515946820E-2    4.638478041050034E-1   -1.016333552362846E-1    5.382120364972263E-1    5.110032833944242E-2
 2.814260251597910E7     5.389456519494913E-1    4.605763100743431E-2    4.652362357840900E-1   -9.714396184952893E-2    4.635367998294910E-1   -1.017258177562062E-1    5.385277072861134E-1    5.080065905363249E-2
 2.835732670769557E7     5.392557619435946E-1    4.575041815335339E-2    4.649338899906432E-1   -9.726705519734234E-2    4.632273400864041E-1   -1.018333884752435E-1    5.388300862193571E-1    5.053572998230516E-2
 2.857368921550186E7     5.397510207565701E-1    4.763206111347858E-2    4.646706345757700E-1   -9.802166521750333E-2    4.641784093356138E-1   -9.956519334015730E-2    5.392922301486560E-1    5.022303127441045E-2
 2.879170253952448E7     5.400509382412523E-1    4.732952520895563E-2    4.643778510863376E-1   -9.811128955453531E-2    4.638568240753800E-1   -9.968193420173745E-2    5.395840420499346E-1    4.995289726768807E-2
 2.901137927526460E7     5.403629655364731E-1    4.703705163502531E-2    4.640619502306893E-1   -9.820633229723873E-2    4.635580019029751E-1   -9.977864876159796E-2    5.398888216733363E-1    4.967346677179413E-2
 2.923273211432508E7     5.406630342294627E-1    4.672013641680302E-2    4.637549559495547E-1   -9.831895758150937E-2    4.632538384231311E-1   -9.988758019958859E-2    5.401865822659380E-1    4.939783050007685E-2
 2.945577384514398E7     5.409616618559721E-1    4.643457491015750E-2    4.634600199556019E-1   -9.843335261495412E-2    4.629506613285961E-1   -9.999476708283941E-2    5.404886637326958E-1    4.911464196245473E-2
 2.968051735373363E7     5.412682556534221E-1    4.612907556415453E-2    4.631562368016479E-1   -9.855226532980155E-2    4.626423427614296E-1   -1.001126866681138E-1    5.407870167581349E-1    4.882368639749661E-2
 2.990697562442441E7     5.413380716342119E-1    4.489931559528766E-2    4.628392458765094E-1   -9.831214588309403E-2    4.616562269981984E-1   -1.011661456451714E-1    5.409918265362956E-1    4.861290576509222E-2
 3.013516174061584E7     5.417017234505809E-1    4.501266357721387E-2    4.625431132060791E-1   -9.854683119764589E-2    4.616209768818855E-1   -1.008474074742715E-1    5.413171652161345E-1    4.830805573326558E-2
 3.036508888553168E7     5.419253811453740E-1    4.431336694486707E-2    4.622273920325761E-1   -9.854544471074528E-2    4.610443684128278E-1   -1.014085549218540E-1    5.415841953061210E-1    4.802715083147809E-2
 3.059677034298190E7     5.422348182033944E-1    4.400976627733955E-2    4.619282246165761E-1   -9.868439543895968E-2    4.607343492770766E-1   -1.015410294688769E-1    5.418804592120751E-1    4.774707004127070E-2
 3.083021949813037E7     5.442566495011700E-1    3.908744353535269E-2    4.614381659029377E-1   -9.815740155701320E-2    4.601408978273142E-1   -1.078663213474496E-1    5.422099711331043E-1    4.724886057609937E-2
 3.106544983826748E7     5.445579452075200E-1    3.877174896411965E-2    4.611518664172519E-1   -9.829999682380673E-2    4.598289154679546E-1   -1.080240989853306E-1    5.425060703473046E-1    4.697877291920275E-2
 3.130247495359022E7     5.433323151574001E-1    4.402875836761158E-2    4.610557912511444E-1   -9.941177251124471E-2    4.605058973274249E-1   -1.009804463174825E-1    5.428576741236489E-1    4.683249686700950E-2
 3.154130853798668E7     5.436129063244404E-1    4.370210748988508E-2    4.607501414306571E-1   -9.955609675286149E-2    4.602098867388107E-1   -1.011167275788853E-1    5.431506164292130E-1    4.652054339973601E-2
 3.178196438982744E7     5.438968395579068E-1    4.342838961243655E-2    4.604555853530873E-1   -9.968009929284470E-2    4.599107488206003E-1   -1.012528717447114E-1    5.434442089426631E-1    4.623649796126598E-2
 3.202445641276293E7     5.440629959281542E-1    4.260663301434819E-2    4.601545381894471E-1   -9.959767529666667E-2    4.591675973962498E-1   -1.019314031919608E-1    5.436607622855465E-1    4.598499106126052E-2
 3.226879861652631E7     5.444924654148587E-1    4.283971064702737E-2    4.598717970390891E-1   -9.994632557884882E-2    4.593006767638266E-1   -1.015558357608133E-1    5.440174119723727E-1    4.566311498339534E-2
 3.251500511774320E7     5.452604857835498E-1    3.819835685595641E-2    4.594776772834884E-1   -9.933788125071198E-2    4.574632555530206E-1   -1.068987782711843E-1    5.442153606867540E-1    4.527943823439774E-2
 3.276309014074709E7     5.455413608800891E-1    3.788620706937545E-2    4.591735648822128E-1   -9.949076657426455E-2    4.571515827901276E-1   -1.070470667449109E-1    5.445045236881623E-1    4.499286773041887E-2
 3.301306801840112E7     5.458114120276745E-1    3.755573285359837E-2    4.588666087613132E-1   -9.966969456053586E-2    4.568374116942038E-1   -1.072193043363686E-1    5.447814711607563E-1    4.470811865540172E-2
 3.326495319292643E7     5.461104925651264E-1    3.726063575493817E-2    4.585857681395403E-1   -9.983026729590588E-2    4.565242903473375E-1   -1.073843569318051E-1    5.450689502314969E-1    4.441072680068957E-2
 3.351876021673609E7     5.459238200690067E-1    4.125927182303833E-2    4.583858965461986E-1   -1.007334837642856E-1    4.577860989106327E-1   -1.023041375362476E-1    5.454380727379414E-1    4.422678865194434E-2
 3.377450375327612E7     5.461975533979548E-1    4.096778264452565E-2    4.580938296193771E-1   -1.009028690345982E-1    4.574811516454834E-1   -1.024375871916625E-1    5.457142543342612E-1    4.392783689269810E-2
 3.403219857787284E7     5.462532225131719E-1    3.972829065783490E-2    4.577530523323753E-1   -1.007269733952337E-1    4.564704254333490E-1   -1.035414960090953E-1    5.458979916757025E-1    4.368679256858045E-2
 3.429185957858586E7     5.465229462459790E-1    3.939841677603739E-2    4.574525699513077E-1   -1.009089081629809E-1    4.561653427773966E-1   -1.036930399904438E-1    5.461869546262503E-1    4.339493044658767E-2
 3.455350175706909E7     5.467871236849117E-1    3.909950290475669E-2    4.571427726979476E-1   -1.010933796009029E-1    4.558620700298121E-1   -1.038471914553041E-1    5.464603090590466E-1    4.312890116173904E-2
 3.481714022943672E7     5.477161165032094E-1    3.538721876878911E-2    4.567922385819681E-1   -1.008922829668958E-1    4.547018375461522E-1   -1.083372526113936E-1    5.467576393386760E-1    4.267350304832689E-2
 3.508279022713681E7     5.479775040466704E-1    3.505099129846486E-2    4.564701615068474E-1   -1.010794691786214E-1    4.543899402636194E-1   -1.085086557114032E-1    5.470327887721328E-1    4.238622740527932E-2
 3.535046709783159E7     5.482189828034278E-1    3.476620885788020E-2    4.561705622088149E-1   -1.012565096454749E-1    4.540862303178922E-1   -1.086988819281302E-1    5.473114382721167E-1    4.210424097144953E-2
 3.562018630628331E7     5.484704361322488E-1    3.445903968194790E-2    4.558625490503658E-1   -1.014229084808989E-1    4.537864611740304E-1   -1.088760034024738E-1    5.476020246575961E-1    4.179570746391429E-2
 3.589196343524875E7     5.487288194627639E-1    3.415362640255003E-2    4.555510649460796E-1   -1.016100445996345E-1    4.534967690006098E-1   -1.090755747480394E-1    5.478808413694792E-1    4.150897076110054E-2
 3.616581418637872E7     5.490281373628265E-1    3.385888164120395E-2    4.552750873107844E-1   -1.017620835494803E-1    4.531947565370548E-1   -1.092713077026294E-1    5.481548154421626E-1    4.121806610709018E-2
 3.644175438112541E7     5.493099283662951E-1    3.354240585925515E-2    4.550033557122996E-1   -1.019577933254277E-1    4.529029546121892E-1   -1.094628260352432E-1    5.484442252883432E-1    4.090888279640740E-2
 3.671979996165685E7     5.489629943165908E-1    3.537792788851746E-2    4.547613460977872E-1   -1.023239075661034E-1    4.528679328470341E-1   -1.067949979822620E-1    5.486905455872141E-1    4.071741426509039E-2
 3.699996699177712E7     5.492321798061314E-1    3.505942275149310E-2    4.544720201601104E-1   -1.025369496588058E-1    4.525702465844619E-1   -1.069738135288131E-1    5.489689058501810E-1    4.041635262921230E-2
 3.728227165785540E7     5.494946745398517E-1    3.473447977401732E-2    4.541842946071001E-1   -1.027232826579957E-1    4.522817074787057E-1   -1.071800780636512E-1    5.492395170760114E-1    4.012656833290421E-2
 3.756673026976037E7     5.497748373297279E-1    3.440354445885977E-2    4.538962189907202E-1   -1.029449525946080E-1    4.519687474177050E-1   -1.073812339722713E-1    5.495115169481631E-1    3.981785957617155E-2
 3.785335926180276E7     5.503157660762746E-1    3.629736402266285E-2    4.536602309134994E-1   -1.036181566884118E-1    4.530536238503330E-1   -1.051166750020329E-1    5.498892987817121E-1    3.950469442691434E-2
 3.814217519368506E7     5.505864002872477E-1    3.597137255557036E-2    4.533707841571776E-1   -1.038265263310035E-1    4.527587842259835E-1   -1.053472893792428E-1    5.501646783246045E-1    3.920183158358252E-2
 3.843319475145779E7     5.508361064919642E-1    3.564424056337389E-2    4.530711012306933E-1   -1.040465013831488E-1    4.524637500718909E-1   -1.055516387114786E-1    5.504324089108081E-1    3.891253720858563E-2
 3.872643474848381E7     5.511143389781523E-1    3.531584106394454E-2    4.527832098502186E-1   -1.042601454735483E-1    4.521705250589319E-1   -1.057603053606715E-1    5.507040413715022E-1    3.859518815966773E-2
 3.902191212640966E7     5.513882592741092E-1    3.497169397190236E-2    4.524732748855061E-1   -1.044831830229917E-1    4.518696833441854E-1   -1.059811769552241E-1    5.509822237193485E-1    3.829578420540417E-2
 3.931964395614420E7     5.516545986537708E-1    3.466730410691745E-2    4.521886862315764E-1   -1.047028031303367E-1    4.515746252582014E-1   -1.061985947791228E-1    5.512532284558062E-1    3.799282817543473E-2
 3.961964743884522E7     5.517316702259010E-1    3.382908066292355E-2    4.518667071239671E-1   -1.047104601503200E-1    4.508157559676497E-1   -1.069690702095800E-1    5.514591407731249E-1    3.773838837744335E-2
 3.992193990691278E7     5.519943816057784E-1    3.348339440508973E-2    4.515553104062403E-1   -1.049435572324736E-1    4.505127286924037E-1   -1.071955388066742E-1    5.517238379602819E-1    3.743381728253656E-2
 4.022653882499073E7     5.521052708890103E-1    3.148665890752309E-2    4.512375345515668E-1   -1.049604352337342E-1    4.492524978765986E-1   -1.093741027001433E-1    5.519316128966679E-1    3.707690171490689E-2
 4.053346179097611E7     5.523534098008875E-1    3.115230838822873E-2    4.509357279547563E-1   -1.051876006815260E-1    4.489627412672273E-1   -1.096305237362198E-1    5.522038610318263E-1    3.676185535109508E-2
 4.084272653703488E7     5.526087917790302E-1    3.081811521682390E-2    4.506288019397623E-1   -1.054205633390528E-1    4.486411651098298E-1   -1.098690341201660E-1    5.524577916903871E-1    3.647034524162107E-2
 4.115435093062763E7     5.530249835184428E-1    2.927913773333091E-2    4.503192594626320E-1   -1.056105297432323E-1    4.480255859992727E-1   -1.116590043835673E-1    5.527387839208029E-1    3.609726030868218E-2
 4.146835297554084E7     5.532684985099827E-1    2.895210328329494E-2    4.500041973903036E-1   -1.058466991628212E-1    4.477116838221918E-1   -1.119278529823342E-1    5.529914026295168E-1    3.578389418439980E-2
 4.178475081292742E7     5.547602217343264E-1    2.618628559744460E-2    4.496906635092677E-1   -1.060175399276461E-1    4.479064442413817E-1   -1.157228193815303E-1    5.533225430818113E-1    3.534780677607047E-2
 4.210356272235513E7     5.549882462078239E-1    2.585324087859819E-2    4.493860986529757E-1   -1.062853341068588E-1    4.475874227798664E-1   -1.159746971643274E-1    5.535795362631184E-1    3.503795407708040E-2
 4.242480712286174E7     5.552145610627470E-1    2.552042340123141E-2    4.490930711515097E-1   -1.065361427467399E-1    4.472898987932217E-1   -1.162585370866416E-1    5.538420065072730E-1    3.471672834984343E-2
 4.274850257402029E7     5.554518057260196E-1    2.517912992721351E-2    4.487878083634848E-1   -1.068070661399759E-1    4.469746311767452E-1   -1.165089402626004E-1    5.540928124935744E-1    3.440819128667434E-2
 4.307466777701053E7     5.547004023094310E-1    3.069549181825954E-2    4.486109527218740E-1   -1.076035546619713E-1    4.479449907546382E-1   -1.091413163697870E-1    5.543911237466352E-1    3.428986884173092E-2
 4.340332157569963E7     5.559125384520889E-1    2.449984373414897E-2    4.481871917311799E-1   -1.073629895524420E-1    4.463479424335672E-1   -1.170406391457194E-1    5.546072280110410E-1    3.377928241511226E-2
 4.373448295773120E7     5.561335269812131E-1    2.415740479317791E-2    4.478670700651629E-1   -1.076167142867672E-1    4.460377807027094E-1   -1.173170046308387E-1    5.548698443367606E-1    3.347064012375103E-2
 4.406817105562137E7     5.551798863536538E-1    2.627481130642185E-2    4.475887916585154E-1   -1.079353564848723E-1    4.452329352933042E-1   -1.140180815570602E-1    5.550449067114749E-1    3.330363490741495E-2
 4.440440514786536E7     5.554027628135139E-1    2.594433934224702E-2    4.472830434546048E-1   -1.082193221175840E-1    4.449201444304339E-1   -1.142855755733505E-1    5.552961815583197E-1    3.298231120273126E-2
 4.474320466005030E7     5.556042273624172E-1    2.560873442553833E-2    4.469688402648063E-1   -1.084983038736538E-1    4.446214134809026E-1   -1.145628721300326E-1    5.555491960777771E-1    3.266318511253083E-2
 4.508458916597787E7     5.557461032645513E-1    2.722297249016173E-2    4.466892772825942E-1   -1.088913551196923E-1    4.450101717495429E-1   -1.123640935900254E-1    5.558021627521830E-1    3.246213470340281E-2
 4.542857838879555E7     5.559873169510412E-1    2.688824816666438E-2    4.463952736096593E-1   -1.091940276383421E-1    4.447018757825601E-1   -1.126551997504450E-1    5.560500376957583E-1    3.214650299962024E-2
 4.577519220213508E7     5.562296602958130E-1    2.654202971758551E-2    4.460954386646774E-1   -1.094765016318930E-1    4.443999988780928E-1   -1.129414978022457E-1    5.563060016918306E-1    3.183008990995589E-2
 4.612445063126191E7     5.564702905619030E-1    2.621224168663488E-2    4.457989048101421E-1   -1.097763562101527E-1    4.440883818093507E-1   -1.132448244566003E-1    5.565591245083299E-1    3.150565281150283E-2
 4.647637385423118E7     5.567103994608015E-1    2.587791023479385E-2    4.454840917636936E-1   -1.100784042060763E-1    4.437814939386714E-1   -1.135320499908587E-1    5.568177888504602E-1    3.119569031485208E-2
 4.683098220305377E7     5.569416525584475E-1    2.553371856971100E-2    4.451753870679880E-1   -1.103767602680364E-1    4.434760006098957E-1   -1.138378744143183E-1    5.570684220644984E-1    3.085874325939103E-2
 4.718829616487134E7     5.571638831571560E-1    2.518843570887759E-2    4.448617819720623E-1   -1.107039086074831E-1    4.431634021363348E-1   -1.141453550865552E-1    5.573090314604668E-1    3.054030910153498E-2
 4.754833638313931E7     5.574172922808454E-1    2.288640519514407E-2    4.445168503436747E-1   -1.108860095570440E-1    4.421219792100670E-1   -1.169388798193634E-1    5.575461716016676E-1    3.012943658951303E-2
 4.791112365881994E7     5.576502750374523E-1    2.255066286200287E-2    4.441851263355872E-1   -1.111918017954104E-1    4.418154968300015E-1   -1.172517678225159E-1    5.577793866121741E-1    2.981373851169444E-2
 4.827667895158397E7     5.578507872619954E-1    2.220914898336055E-2    4.438743431183464E-1   -1.114930418717850E-1    4.414995385351650E-1   -1.175545192547331E-1    5.580179804056932E-1    2.950112505685376E-2
 4.864502338102144E7     5.580824406400371E-1    2.186634969681752E-2    4.435531382064031E-1   -1.118138359664213E-1    4.411700466646512E-1   -1.178960327193701E-1    5.582672189495239E-1    2.918057765502754E-2
 4.901617822786229E7     5.582973744372983E-1    2.150615514997182E-2    4.432455458730477E-1   -1.121138874504508E-1    4.408653440862336E-1   -1.182145295687793E-1    5.585059379857591E-1    2.888535777846721E-2
 4.939016493520518E7     5.585170384768138E-1    2.116030476701204E-2    4.429329297432787E-1   -1.124500299525676E-1    4.405466173395084E-1   -1.185460267539549E-1    5.587482610047596E-1    2.855028361149711E-2
 4.976700510975666E7     5.587302140834477E-1    2.080460409193834E-2    4.426111798409839E-1   -1.127819909839297E-1    4.402255596487201E-1   -1.188848905810217E-1    5.589958732777099E-1    2.822832667821329E-2
 5.014672052307993E7     5.589438300807521E-1    2.045452442519200E-2    4.422913266191835E-1   -1.131011566377249E-1    4.399072587588592E-1   -1.192099832857730E-1    5.592334022541798E-1    2.792201393704151E-2
 5.052933311285146E7     5.591676973570745E-1    2.009509278138103E-2    4.419677987683976E-1   -1.134522759581308E-1    4.395726435905870E-1   -1.195611540753905E-1    5.594782216927678E-1    2.758583265567836E-2
 5.091486498412994E7     5.593748615805898E-1    1.975588547293804E-2    4.416563715048122E-1   -1.137757632444436E-1    4.392514690798100E-1   -1.199035654114058E-1    5.597193039778245E-1    2.727436078435121E-2
 5.130333841063219E7     5.596011377278605E-1    1.939142615992949E-2    4.413449216636605E-1   -1.141210246349537E-1    4.389355238262239E-1   -1.202755175373314E-1    5.599758759951817E-1    2.694760197524973E-2
 5.169477583602042E7     5.598087001310471E-1    1.902815218299547E-2    4.410196557233619E-1   -1.144770273490241E-1    4.386245417997500E-1   -1.206293519461343E-1    5.602169724513670E-1    2.661757230559882E-2
 5.208919987519933E7     5.600345689006020E-1    1.867854581061979E-2    4.407101547110769E-1   -1.148236636543322E-1    4.383101238391995E-1   -1.209948813561755E-1    5.604591283916844E-1    2.629365209703600E-2
 5.248663331562151E7     5.602408464380786E-1    1.831962295643492E-2    4.403885550085375E-1   -1.151812840267234E-1    4.379724894795853E-1   -1.213455289947422E-1    5.607016004357585E-1    2.598245362414787E-2
 5.288709911860541E7     5.604544461233519E-1    1.794383045859522E-2    4.400661276337723E-1   -1.155344211405029E-1    4.376410283513729E-1   -1.217151511857831E-1    5.609493258800988E-1    2.565814954554500E-2
 5.329062042066076E7     5.606692442298369E-1    1.758705254564959E-2    4.397313797930715E-1   -1.159086345360388E-1    4.373129147954987E-1   -1.220867976886511E-1    5.611900622253488E-1    2.533745195586900E-2
 5.369722053482568E7     5.608607667670409E-1    1.722997634493980E-2    4.394044405218370E-1   -1.162780728176044E-1    4.369890896965710E-1   -1.224500430996688E-1    5.614145078893119E-1    2.500133522461757E-2
 5.410692295201402E7     5.610653086947677E-1    1.685874520032047E-2    4.390706422784442E-1   -1.166387786057139E-1    4.366369639843753E-1   -1.228273641423483E-1    5.616551133633474E-1    2.467670223866301E-2
 5.451975134237129E7     5.612702691264093E-1    1.649730430730726E-2    4.387387013848037E-1   -1.170177707794530E-1    4.363018065886328E-1   -1.232028213006653E-1    5.618846627474865E-1    2.432752138203754E-2
 5.493572955664375E7     5.614749294594588E-1    1.615445598456704E-2    4.383960997674072E-1   -1.173888026261981E-1    4.359639241104626E-1   -1.235978841769477E-1    5.621220679466906E-1    2.399663999820340E-2
 5.535488162755510E7     5.616803579756006E-1    1.579348548772577E-2    4.380627210518672E-1   -1.177679425248013E-1    4.356375995641218E-1   -1.239867514943228E-1    5.623730526394772E-1    2.366739135456002E-2
 5.577723177119546E7     5.618840306957257E-1    1.543652803039649E-2    4.377233805652611E-1   -1.181426391249540E-1    4.353005781603024E-1   -1.243921536504771E-1    5.626029430756260E-1    2.334088339891717E-2
 5.620280438842070E7     5.620938751758611E-1    1.504929985318193E-2    4.374021581561655E-1   -1.185348951787872E-1    4.349602374056492E-1   -1.247764936512386E-1    5.628394016819636E-1    2.300594601541222E-2
 5.663162406626155E7     5.622961969331615E-1    1.467341258805906E-2    4.370621035330597E-1   -1.189252499156982E-1    4.346245084457211E-1   -1.251827031891753E-1    5.630876173325480E-1    2.266461867638955E-2
 5.706371557934452E7     5.624954399864868E-1    1.431099226411647E-2    4.367215205722276E-1   -1.193296149791443E-1    4.342891899336551E-1   -1.255915402219115E-1    5.633380428579365E-1    2.234294237475158E-2
 5.749910389132310E7     5.627236499007630E-1    1.394566570183211E-2    4.363863228203436E-1   -1.197275158531356E-1    4.339449311783633E-1   -1.260119977146682E-1    5.635904805832034E-1    2.199812353502721E-2
 5.793781415631992E7     5.629316706650946E-1    1.356933076953023E-2    4.360441061591945E-1   -1.201302239679805E-1    4.335919927676751E-1   -1.264223564533069E-1    5.638209284027668E-1    2.166895940493472E-2
 5.837987172038046E7     5.639473250951300E-1    1.659851851182059E-2    4.358278674782370E-1   -1.212165210967595E-1    4.352581704247161E-1   -1.227916042954069E-1    5.641969273525369E-1    2.130117734372580E-2
 5.882530212293670E7     5.641690390025238E-1    1.623046459351447E-2    4.354573032176624E-1   -1.216406154400364E-1    4.349201045484163E-1   -1.232132956234787E-1    5.644150355648203E-1    2.095384432517396E-2
 5.927413109828297E7     5.643789101841999E-1    1.586814714012239E-2    4.351144878728310E-1   -1.220606061134859E-1    4.345698624116813E-1   -1.236513425738142E-1    5.646568397011458E-1    2.061058095685807E-2
 5.972638457706322E7     5.646047226896956E-1    1.547951262218976E-2    4.347718400120580E-1   -1.224952689382940E-1    4.342246926895856E-1   -1.240833246984012E-1    5.648956044290769E-1    2.026489156892006E-2
 6.018208868776779E7     5.648292162909094E-1    1.511801680702835E-2    4.344022434614279E-1   -1.229196167797411E-1    4.338846377715769E-1   -1.245224173135638E-1    5.651369361186055E-1    1.992365856328466E-2
 6.064126975824468E7     5.650475050293224E-1    1.472498308221183E-2    4.340536585069433E-1   -1.233683257838298E-1    4.335374582317887E-1   -1.249721531796868E-1    5.653793178739802E-1    1.955827286085443E-2
 6.110395431721926E7     5.652658408077791E-1    1.434279343713874E-2    4.337039399902323E-1   -1.238121202774421E-1    4.331904887570871E-1   -1.254264254535892E-1    5.656196706699764E-1    1.922264114620539E-2
 6.157016909582742E7     5.654786847448976E-1    1.396541286483778E-2    4.333370793878538E-1   -1.242590482331863E-1    4.328324005497590E-1   -1.258849463352645E-1    5.658691087462197E-1    1.886713073055078E-2
 6.203994102916045E7     5.657060770351513E-1    1.359292137464834E-2    4.329779923215617E-1   -1.247257959990551E-1    4.324703476101182E-1   -1.263420358757629E-1    5.661096198936358E-1    1.851528995454027E-2
 6.251329725781982E7     5.659248408855964E-1    1.321147735638238E-2    4.326159193725531E-1   -1.251850351188681E-1    4.321105906404107E-1   -1.267865366284617E-1    5.663436997435441E-1    1.815742446958781E-2
 6.299026512948693E7     5.661416261554989E-1    1.282521094197477E-2    4.322426214602869E-1   -1.256467895851053E-1    4.317563191331298E-1   -1.272579107618237E-1    5.665959950545121E-1    1.781530111084972E-2
 6.347087220050172E7     5.663589967076219E-1    1.246260662562923E-2    4.318705088388484E-1   -1.261164907972417E-1    4.313887435413552E-1   -1.277363951483688E-1    5.668463554544100E-1    1.746921694295780E-2
 6.395514623745525E7     5.665819913046382E-1    1.205669262002371E-2    4.315119925784425E-1   -1.265902268548667E-1    4.310145136454825E-1   -1.282153081151372E-1    5.670877579689517E-1    1.711895342345247E-2
 6.444311521879433E7     5.668076716010402E-1    1.166432377761970E-2    4.311525324297146E-1   -1.270518418389156E-1    4.306458633472035E-1   -1.286774007288544E-1    5.673193387961879E-1    1.675083169302494E-2
 6.493480733643661E7     5.670209321081469E-1    1.130268671577517E-2    4.307604638319230E-1   -1.275419847138652E-1    4.302656349082157E-1   -1.291567726698252E-1    5.675484511909870E-1    1.640088352696823E-2
 6.543025099740107E7     5.672411660135538E-1    1.091839019615238E-2    4.303835492737401E-1   -1.280305171183431E-1    4.298921135306111E-1   -1.296386236965482E-1    5.677864841019196E-1    1.602615580457893E-2
 6.592947482544785E7     5.671029965992311E-1    4.392346586976908E-3    4.297443468832887E-1   -1.269859886161721E-1    4.275883288180765E-1   -1.374412351256636E-1    5.678832750848274E-1    1.566613482903676E-2
 6.643250766273243E7     5.673674789581751E-1    3.935694161359311E-3    4.293965276213478E-1   -1.274809696355451E-1    4.272487364718376E-1   -1.380052671242278E-1    5.681815977238527E-1    1.531694787473894E-2
 6.693937857147253E7     5.675972241970100E-1    3.507439994319434E-3    4.290230532151733E-1   -1.279873632023903E-1    4.269046955041147E-1   -1.384997857733462E-1    5.684433761503214E-1    1.496694399188983E-2
 6.745011683562562E7     5.678422009072844E-1    3.035184988296286E-3    4.286492626395621E-1   -1.284674424666077E-1    4.265183705858199E-1   -1.390383865536436E-1    5.686909997182976E-1    1.461937717258612E-2
 6.796475196258274E7     5.680809868788361E-1    2.656295764875929E-3    4.282763860452408E-1   -1.289647034405272E-1    4.261637301323684E-1   -1.395159485215524E-1    5.689475302276701E-1    1.427161339401284E-2
 6.848331368487169E7     5.683159413597348E-1    2.281415257859348E-3    4.278921266469186E-1   -1.294530521649845E-1    4.258315066892061E-1   -1.399372017519873E-1    5.692063457462095E-1    1.395916457253123E-2
 6.900583196187538E7     5.678917120273310E-1    4.739246018530121E-3    4.277300156590778E-1   -1.304766636813811E-1    4.252655672980877E-1   -1.368933409323212E-1    5.694821488160920E-1    1.371411658071820E-2
 6.953233698156311E7     5.681196579883913E-1    4.371429146688138E-3    4.273807510221970E-1   -1.309298888990536E-1    4.248385198083019E-1   -1.374915882438824E-1    5.697338991379117E-1    1.328247332601701E-2
 7.006285916223384E7     5.683468148783627E-1    3.955351245942846E-3    4.270408427001913E-1   -1.313284932937019E-1    4.243777361848262E-1   -1.381874240238828E-1    5.699875238042842E-1    1.288138107711321E-2
 7.059742915427396E7     5.685750934259084E-1    3.430249723725217E-3    4.266579588954084E-1   -1.318497198043516E-1    4.239532203630233E-1   -1.387799574954673E-1    5.702381101676559E-1    1.256989913764658E-2
 7.113607784192866E7     5.688030700823580E-1    3.024478155776713E-3    4.262306638326878E-1   -1.324518063449216E-1    4.235892701229269E-1   -1.392591258744752E-1    5.705064862967734E-1    1.222439602905468E-2
 7.167883634508467E7     5.690470676880167E-1    2.651465990645891E-3    4.258298526663380E-1   -1.330229823087406E-1    4.232242901921326E-1   -1.397598460403896E-1    5.707650784998811E-1    1.186722815756170E-2
 7.222573602107021E7     5.692961012623949E-1    2.245130272943578E-3    4.254346617140733E-1   -1.335947610707488E-1    4.228644539746813E-1   -1.402219169186423E-1    5.710209744102120E-1    1.155898104192615E-2
 7.277680846646504E7     5.695142248952124E-1    1.877042714750689E-3    4.250238850631634E-1   -1.341583291588897E-1    4.224871082923733E-1   -1.407065576994148E-1    5.712799624721220E-1    1.119722729788205E-2
 7.333208551892644E7     5.697570294826843E-1    1.486283763699399E-3    4.246443370175522E-1   -1.346485590785971E-1    4.220233712914350E-1   -1.413439585893411E-1    5.715325008406562E-1    1.073947126641963E-2
 7.389159925902925E7     5.700079751334981E-1    1.014948333268092E-3    4.242802098943333E-1   -1.350961276330698E-1    4.215315030347062E-1   -1.420722336320767E-1    5.717950105012555E-1    1.034487779473411E-2
 7.445538201211768E7     5.702483742707454E-1    5.217133353283797E-4    4.238775233522640E-1   -1.356360654466039E-1    4.210767274035769E-1   -1.426827405871191E-1    5.720416463295129E-1    1.005662577460559E-2
 7.502346635017487E7     5.704968844865005E-1    1.000481360649043E-4    4.234283152927766E-1   -1.362872592929451E-1    4.206897317020817E-1   -1.431784274999346E-1    5.723233337730235E-1    9.702413383307268E-3
 7.559588509370317E7     5.707438809457284E-1   -2.846138702052971E-4    4.230043372677171E-1   -1.368788620267944E-1    4.203233707739228E-1   -1.436625128836391E-1    5.726172278622224E-1    9.356386494901985E-3
 7.617267131362079E7     5.709916349831858E-1   -6.731052853789533E-4    4.225897788628942E-1   -1.374875910360895E-1    4.199240956433423E-1   -1.441623647007129E-1    5.729213988637288E-1    8.998965914323719E-3
 7.675385833317320E7     5.712412401114624E-1   -1.061088273713949E-3    4.221656398938151E-1   -1.380748815980525E-1    4.195146838023571E-1   -1.446828018619417E-1    5.731964585254059E-1    8.642589174694921E-3
 7.733947972985649E7     5.715038871021446E-1   -1.490464908417336E-3    4.217796747689713E-1   -1.385795322359333E-1    4.190240880708536E-1   -1.454033395884537E-1    5.734795422356110E-1    8.220455669298049E-3
 7.792956933735959E7     5.717458815383660E-1   -1.970107559288313E-3    4.213866724875851E-1   -1.390689566334810E-1    4.185261393579510E-1   -1.461650567217356E-1    5.737952357317323E-1    7.838714137320159E-3
 7.852416124751715E7     5.719788203539956E-1   -2.447679079013140E-3    4.209484882218756E-1   -1.396705351868759E-1    4.180740487145535E-1   -1.467785541217841E-1    5.740833706345035E-1    7.500492113763610E-3
 7.912328981227988E7     5.722248230918459E-1   -2.829176053086444E-3    4.205102600665916E-1   -1.402923924310053E-1    4.176665861581011E-1   -1.473022961816429E-1    5.743829045805015E-1    7.102293116730279E-3
 7.972698964569975E7     5.724574735925484E-1   -3.198975141676993E-3    4.200730001994620E-1   -1.408970703528782E-1    4.172274728254469E-1   -1.478504729468028E-1    5.746717414473543E-1    6.711375142917760E-3
 8.033529562592810E7     5.727400543120431E-1   -3.612891850333545E-3    4.196475835199681E-1   -1.415024394466755E-1    4.167939261259806E-1   -1.484944513924490E-1    5.749902811723607E-1    6.292094873543993E-3
 8.094824289723292E7     5.730235543823460E-1   -4.045579033703380E-3    4.192342956037386E-1   -1.421178319402973E-1    4.163514321188217E-1   -1.491396984400235E-1    5.752737296225213E-1    5.905154336108163E-3
 8.156586687202743E7     5.732777439882731E-1   -4.471223935036657E-3    4.188011366426661E-1   -1.427413277872003E-1    4.159105875117656E-1   -1.497729013637089E-1    5.755704862983662E-1    5.490931505976228E-3
 8.218820323291673E7     5.735278764417364E-1   -4.900530968651057E-3    4.183509931920166E-1   -1.434122304597373E-1    4.154782585219690E-1   -1.503818390770154E-1    5.758366850901829E-1    5.093443909589141E-3
 8.281528793475981E7     5.738035704930099E-1   -5.278669855326762E-3    4.179250961195922E-1   -1.440763272647853E-1    4.150361105359806E-1   -1.510049081706666E-1    5.761130342293918E-1    4.685930363413498E-3
 8.344715720674579E7     5.741319064041515E-1   -5.687224688619714E-3    4.174819792240687E-1   -1.447465651305868E-1    4.145927089437643E-1   -1.516799286622011E-1    5.763872628747141E-1    4.307638119753364E-3
 8.408384755448765E7     5.744238829260059E-1   -6.107871676248764E-3    4.170312950527210E-1   -1.454130597701961E-1    4.141228521677646E-1   -1.523350299943616E-1    5.766950995926217E-1    3.927900737586351E-3
 8.472539576213124E7     5.747098968202439E-1   -6.526142689686022E-3    4.165662210189070E-1   -1.460851049483071E-1    4.136468127934682E-1   -1.529951479895344E-1    5.769891789676274E-1    3.563246479537957E-3
 8.537183889448020E7     5.750006095347449E-1   -6.930317777418140E-3    4.161020219685228E-1   -1.467595927623155E-1    4.131778405633098E-1   -1.536627942353209E-1    5.773326696061910E-1    3.172095500610829E-3
 8.602321429913802E7     5.753067981486372E-1   -7.330791376632249E-3    4.156376734559742E-1   -1.474446312293749E-1    4.127099240752160E-1   -1.543600288647650E-1    5.776826288890485E-1    2.767207131500071E-3
 8.667955960866481E7     5.756439429646255E-1   -7.758036686506885E-3    4.151675961030354E-1   -1.481367700794632E-1    4.122245377663492E-1   -1.550456825608715E-1    5.780220960163692E-1    2.350296776561181E-3
 8.734091274275188E7     5.759875788070788E-1   -8.190268478590624E-3    4.146918260100015E-1   -1.488392797310180E-1    4.117350067923069E-1   -1.557295196959001E-1    5.783156015510739E-1    1.964233332576852E-3
 8.800731191041334E7     5.763112744856448E-1   -8.624118504522093E-3    4.142130799797434E-1   -1.495491766063896E-1    4.112374163592250E-1   -1.564286851320990E-1    5.786232774375487E-1    1.581127865692668E-3
 8.867879561219153E7     5.766230503297264E-1   -9.048111518068698E-3    4.137189989825039E-1   -1.502694416493092E-1    4.107354448388450E-1   -1.571336798483176E-1    5.789441597960263E-1    1.216746436692618E-3
 8.935540264238395E7     5.769762641795465E-1   -9.488218237334853E-3    4.132401992398678E-1   -1.510156575796097E-1    4.102214145034359E-1   -1.578634758581397E-1    5.793187574186800E-1    8.291725602638494E-4
 9.003717209128250E7     5.772539111651931E-1   -9.894563866678738E-3    4.126586592579067E-1   -1.517095146474009E-1    4.096325553188996E-1   -1.585097481491288E-1    5.796207477017861E-1    4.275683419323307E-4
 9.072414334743266E7     5.776133865153956E-1   -1.032540907867732E-2    4.121536770473964E-1   -1.524834146548979E-1    4.091109839409543E-1   -1.592664343322606E-1    5.800113987132854E-1    1.783459483240728E-5
 9.141635609990983E7     5.779735400448295E-1   -1.072399209099794E-2    4.116035610457686E-1   -1.532531867789835E-1    4.085689982410160E-1   -1.600273878979525E-1    5.804038243539019E-1   -4.065042029522494E-4
 9.211385034061028E7     5.784023249411926E-1   -1.116018928407968E-2    4.110521602565169E-1   -1.540270901381759E-1    4.079990567806683E-1   -1.607891451442330E-1    5.807716202931812E-1   -8.198911069167893E-4
 9.281666636656430E7     5.788116476471550E-1   -1.161507451392545E-2    4.104948191235552E-1   -1.548039628936750E-1    4.074264320577495E-1   -1.615424535997738E-1    5.811817800699727E-1   -1.234950398870792E-3
 9.352484478226222E7     5.792203992029581E-1   -1.208162113616002E-2    4.099171669680971E-1   -1.555785781392244E-1    4.068151461757398E-1   -1.622836641895572E-1    5.815603639856652E-1   -1.658960349540642E-3
 9.423842650200106E7     5.796406576408591E-1   -1.256296186419271E-2    4.093263468384939E-1   -1.563644509486213E-1    4.062004859072944E-1   -1.630364647239539E-1    5.819863422993270E-1   -2.084716128029344E-3
 9.495745275224906E7     5.800359267182473E-1   -1.304062072933262E-2    4.087103054682773E-1   -1.571482666801272E-1    4.055794068571656E-1   -1.637902942113247E-1    5.824261584769500E-1   -2.533043625264734E-3
 9.568196507402541E7     5.804680780447050E-1   -1.352988972792501E-2    4.081251614874096E-1   -1.579484767001485E-1    4.049494914054882E-1   -1.645314579602558E-1    5.828459319181699E-1   -3.003554270837718E-3
 9.641200532530291E7     5.808380108877282E-1   -1.402970497382918E-2    4.075191877312297E-1   -1.587518359193908E-1    4.043335287761148E-1   -1.652701875461603E-1    5.832651346267153E-1   -3.474733262480314E-3
 9.714761568342420E7     5.812780453925324E-1   -1.448589046124459E-2    4.068934452093934E-1   -1.596001150785753E-1    4.037001737893646E-1   -1.660517542633547E-1    5.836844965139151E-1   -3.912744260503391E-3
 9.788883864753923E7     5.817004828172373E-1   -1.496124033029608E-2    4.062088429267360E-1   -1.604248215689257E-1    4.030304359875738E-1   -1.668200506995026E-1    5.841574758579339E-1   -4.384237577365479E-3
 9.863571704106140E7     5.821696897644341E-1   -1.545285338568746E-2    4.055299009942703E-1   -1.612440932294262E-1    4.023594039259107E-1   -1.675763223678717E-1    5.846285134516224E-1   -4.885616078397619E-3
 9.938829401413949E7     5.826293160258921E-1   -1.591296185063247E-2    4.048343126957316E-1   -1.620699886746263E-1    4.016853310352439E-1   -1.683565397249622E-1    5.850720222725854E-1   -5.382643526446171E-3
 1.001466130461536E8     5.831291989603019E-1   -1.638300259684166E-2    4.041324047518525E-1   -1.629278141193709E-1    4.009943640933218E-1   -1.691539541398742E-1    5.855327009906038E-1   -5.851986250478763E-3
 1.009107179482240E8     5.836457963501077E-1   -1.682168622857803E-2    4.033433847341619E-1   -1.638187550277889E-1    4.002491962403775E-1   -1.700032104623697E-1    5.860785287181666E-1   -6.311743808151958E-3
 1.016806528657447E8     5.842737800468366E-1   -1.728869665675416E-2    4.024818655038552E-1   -1.646724590030658E-1    3.993853062595089E-1   -1.708057786465833E-1    5.866987253195385E-1   -6.834414756192888E-3
 1.024564622809335E8     5.849559293114602E-1   -1.781757117526146E-2    4.015871854654478E-1   -1.654929697967868E-1    3.985040908536735E-1   -1.715357573294449E-1    5.873664240317341E-1   -7.430464689830875E-3
 1.032381910153997E8     5.856768787107924E-1   -1.841112716819055E-2    4.006140243971067E-1   -1.662513597636253E-1    3.975935130291489E-1   -1.721759937095767E-1    5.880178818053203E-1   -8.107610040043258E-3
 1.040258842327368E8     5.864689952759428E-1   -1.909142930276591E-2    3.995809214989274E-1   -1.669402701922603E-1    3.966816460451731E-1   -1.727603693079067E-1    5.886847683318496E-1   -8.866352713945171E-3
 1.048195874411304E8     5.872609975297531E-1   -1.994123428183007E-2    3.985341441068288E-1   -1.674446738021214E-1    3.958520735592304E-1   -1.732224084296371E-1    5.892804941048043E-1   -9.797850363215465E-3
 1.056193464959857E8     5.879439524406487E-1   -2.090996395772084E-2    3.976250045821845E-1   -1.678366627174891E-1    3.951583176855720E-1   -1.736763663580329E-1    5.896893526802550E-1   -1.075656085893461E-2
 1.064252076025801E8     5.884683906868200E-1   -2.195718077347135E-2    3.968916230251197E-1   -1.681719620762282E-1    3.945803364619808E-1   -1.742225570209914E-1    5.899533004949512E-1   -1.161338373237420E-2
 1.072372173187304E8     5.889296831153297E-1   -2.281043519890931E-2    3.961901809036593E-1   -1.687322307346166E-1    3.938813144308517E-1   -1.749820332779049E-1    5.903390691130961E-1   -1.226532939270527E-2
 1.080554225574824E8     5.894692812303997E-1   -2.375627983968579E-2    3.953925557897824E-1   -1.692068365749831E-1    3.930677827478598E-1   -1.755695094786373E-1    5.908268953434067E-1   -1.309111741879137E-2
 1.088798705898232E8     5.899567954297409E-1   -2.475599038660978E-2    3.946666504234200E-1   -1.696035586622364E-1    3.922988380081990E-1   -1.761287672830168E-1    5.912426946930441E-1   -1.395950909807808E-2
 1.097106090474096E8     5.904523515029532E-1   -2.578532048600830E-2    3.939805311757527E-1   -1.700599321969994E-1    3.915473084281360E-1   -1.766257255922411E-1    5.915712230905146E-1   -1.481671906521239E-2
 1.105476859253232E8     5.909374811722313E-1   -2.692753861629058E-2    3.933052741771160E-1   -1.704369756870598E-1    3.908645518746082E-1   -1.771073059995176E-1    5.919122209422216E-1   -1.567091887063750E-2
 1.113911495848395E8     5.912240215647571E-1   -2.814458742936470E-2    3.927993749189105E-1   -1.707531756890825E-1    3.902891126292004E-1   -1.776034906199958E-1    5.921553299076785E-1   -1.653388046148855E-2
 1.122410487562254E8     5.913625032348004E-1   -2.927650572681938E-2    3.924462823151026E-1   -1.712132979626603E-1    3.897649504138911E-1   -1.782345470791407E-1    5.923880809367055E-1   -1.724625352512570E-2
 1.130974325415529E8     5.914929891506209E-1   -3.024607910145966E-2    3.920583358962600E-1   -1.718660888555373E-1    3.891431630182499E-1   -1.789753590377761E-1    5.927568798866956E-1   -1.785721235909863E-2
 1.139603504175348E8     5.917274666831491E-1   -3.118600092951464E-2    3.915206887048552E-1   -1.725531775550637E-1    3.883662925747748E-1   -1.796948369262764E-1    5.933063068862988E-1   -1.855254085021506E-2
 1.148298522383858E8     5.919806156022670E-1   -3.217843795339347E-2    3.909546737813454E-1   -1.731704248609987E-1    3.875432846369187E-1   -1.802788069251406E-1    5.938808149632705E-1   -1.940697597682731E-2
 1.157059882387014E8     5.922107327190552E-1   -3.320835357730686E-2    3.903988455999610E-1   -1.737294316735322E-1    3.867369208396667E-1   -1.807379932142862E-1    5.943918922035799E-1   -2.041258892692089E-2
 1.165888090363587E8     5.924094951195242E-1   -3.426120613160533E-2    3.898158216298555E-1   -1.742676287442722E-1    3.859562541512455E-1   -1.810887379907128E-1    5.948630634993337E-1   -2.153040651712127E-2
 1.174783656354443E8     5.924716803927909E-1   -3.538936311564179E-2    3.893921143436646E-1   -1.746929698313638E-1    3.853660973443975E-1   -1.812958925236507E-1    5.951512665846874E-1   -2.282798188075587E-2
 1.183747094291968E8     5.923203205556209E-1   -3.645535377901586E-2    3.892094113368573E-1   -1.752220029885252E-1    3.850899800091730E-1   -1.815450695884039E-1    5.950930734169576E-1   -2.408736778156937E-2
 1.192778922029803E8     5.920799868178894E-1   -3.725162871427729E-2    3.891118695588089E-1   -1.760628823340769E-1    3.849642054468707E-1   -1.821672428827922E-1    5.949033937760728E-1   -2.493874478108405E-2
 1.201879661372721E8     5.920929343652537E-1   -3.789087709927290E-2    3.887051214034450E-1   -1.771027451033965E-1    3.845680841645336E-1   -1.829886443426294E-1    5.950076882974034E-1   -2.560016346494536E-2
 1.211049838106809E8     5.922747126470522E-1   -3.877186217859319E-2    3.881303529834709E-1   -1.779167191293108E-1    3.840713004670366E-1   -1.836452367330416E-1    5.952552482868682E-1   -2.646657572153921E-2
 1.220289982029829E8     5.922785287951837E-1   -3.970001831797108E-2    3.877568075918271E-1   -1.786616847403993E-1    3.837581196137617E-1   -1.843005623133997E-1    5.952870495957373E-1   -2.737867795527387E-2
 1.229600626981811E8     5.921885825965804E-1   -4.046756860852593E-2    3.874360577585012E-1   -1.795955347236680E-1    3.834584058229807E-1   -1.851420521449132E-1    5.952710931168611E-1   -2.811975642429891E-2
 1.238982310875929E8     5.921771306467637E-1   -4.109571478139568E-2    3.870144476747825E-1   -1.806900805896064E-1    3.830530637321087E-1   -1.861520719226240E-1    5.953617926873582E-1   -2.867716529258497E-2
 1.248435575729559E8     5.924015046154361E-1   -4.170695916984194E-2    3.863175172558510E-1   -1.818072122525343E-1    3.823522225811862E-1   -1.871592971416774E-1    5.957416451625775E-1   -2.922781800690359E-2
 1.257960967695579E8     5.927147386000566E-1   -4.261062757634424E-2    3.854233174547544E-1   -1.825630916200307E-1    3.814957513128216E-1   -1.877816728507704E-1    5.962536577403976E-1   -3.012911238605245E-2
 1.267559037093956E8     5.927687920641126E-1   -4.374144339780762E-2    3.848718442837475E-1   -1.831232856248689E-1    3.809873818592890E-1   -1.882650796336539E-1    5.965113318082264E-1   -3.132853867677719E-2
 1.277230338443520E8     5.925139001100821E-1   -4.461563420418969E-2    3.846694198797833E-1   -1.839149028109505E-1    3.807711194009728E-1   -1.889861426366181E-1    5.964029456095600E-1   -3.233482111681046E-2
 1.286975430493991E8     5.924347387891835E-1   -4.514105744287043E-2    3.843161069556429E-1   -1.850761102238033E-1    3.804173684837144E-1   -1.900031542423294E-1    5.963594650712065E-1   -3.300092598848028E-2
 1.296794876258291E8     5.926502450484658E-1   -4.576355658091714E-2    3.836365985551453E-1   -1.861765214749332E-1    3.798272524544077E-1   -1.909583873926482E-1    5.965620987564807E-1   -3.370493638793142E-2
 1.306689243045034E8     5.928050295432657E-1   -4.656723569034555E-2    3.830219220471024E-1   -1.871114642223985E-1    3.793048208937639E-1   -1.918141255938329E-1    5.967034491692722E-1   -3.451193271305903E-2
 1.316659102491341E8     5.929258698200066E-1   -4.735888957243182E-2    3.824411112808394E-1   -1.880883315760696E-1    3.787939613881625E-1   -1.927325114817159E-1    5.968418982087070E-1   -3.525385374371771E-2
 1.326705030595824E8     5.930503593488703E-1   -4.813919660638311E-2    3.818247196375780E-1   -1.890765639158193E-1    3.782556869274519E-1   -1.936667130922161E-1    5.970187477537775E-1   -3.597877307759308E-2
 1.336827607751903E8     5.931828794776691E-1   -4.895337595817092E-2    3.811858078430423E-1   -1.900512962131344E-1    3.776739025762634E-1   -1.946128262310214E-1    5.972609177214788E-1   -3.672470475158073E-2
 1.347027418781318E8     5.933213120725734E-1   -4.980433583014417E-2    3.805335391305441E-1   -1.909995627474159E-1    3.770630590503591E-1   -1.954969941988121E-1    5.975100242367478E-1   -3.756657822270715E-2
 1.357305052967905E8     5.934353328807315E-1   -5.071700327493983E-2    3.798963171321346E-1   -1.919372676964688E-1    3.765041539691218E-1   -1.963120409392829E-1    5.976949345182510E-1   -3.846468032098112E-2
 1.367661104091667E8     5.934715880811994E-1   -5.164184499114750E-2    3.792747085453461E-1   -1.928483845136534E-1    3.760781134908876E-1   -1.971690180507180E-1    5.977666384919553E-1   -3.932099085882487E-2
 1.378096170463071E8     5.934518663402002E-1   -5.255890413428155E-2    3.786513745092374E-1   -1.937808055709189E-1    3.756221486639820E-1   -1.981264615144158E-1    5.978572495723065E-1   -4.013152107083538E-2
 1.388610854957592E8     5.933930667083605E-1   -5.349328980676919E-2    3.780576182508910E-1   -1.946811640423149E-1    3.751981469461653E-1   -1.991017147999039E-1    5.979372612363686E-1   -4.098304769521875E-2
 1.399205765050585E8     5.932365263659591E-1   -5.435755270461051E-2    3.775610906177562E-1   -1.955855853235533E-1    3.748160225470289E-1   -2.001613885658621E-1    5.979162894667658E-1   -4.176965276216214E-2
 1.409881512852336E8     5.930835931847664E-1   -5.512767691615674E-2    3.771132498657268E-1   -1.966238229693650E-1    3.744055603240274E-1   -2.013660483284734E-1    5.978879791828422E-1   -4.244140168706324E-2
 1.420638715143470E8     5.929662793798643E-1   -5.583036265084807E-2    3.766185659774409E-1   -1.977373039920879E-1    3.739019596200970E-1   -2.026141419643964E-1    5.979169218358105E-1   -4.303203242875019E-2
 1.431477993410541E8     5.928675509222880E-1   -5.647949643879349E-2    3.761076512986587E-1   -1.989231192917990E-1    3.733320255576015E-1   -2.039097646499770E-1    5.980001035619540E-1   -4.358148390220536E-2
 1.442399973881980E8     5.928523817780130E-1   -5.705915783566508E-2    3.755198534106372E-1   -2.002167170190929E-1    3.726742456572529E-1   -2.052610820598220E-1    5.981535422775366E-1   -4.407361246949837E-2
 1.453405287564251E8     5.929645439376364E-1   -5.763275251768127E-2    3.747617676504247E-1   -2.015394022772484E-1    3.718651267176548E-1   -2.066163966068210E-1    5.984643338927420E-1   -4.454093240328270E-2
 1.464494570278296E8     5.931505832913143E-1   -5.835850812810188E-2    3.738988186978331E-1   -2.027044935488169E-1    3.709611049869026E-1   -2.078101822997261E-1    5.988902168991173E-1   -4.515538290396259E-2
 1.475668462696298E8     5.932612116818985E-1   -5.911594457816673E-2    3.730882104314531E-1   -2.038368555445620E-1    3.700916478562695E-1   -2.089639604839397E-1    5.992547209699031E-1   -4.584764542895938E-2
 1.486927610378684E8     5.933821783576109E-1   -5.991157109187820E-2    3.722547955481285E-1   -2.049681430739878E-1    3.691762243800521E-1   -2.100939403483006E-1    5.996476131517133E-1   -4.658410473351263E-2
 1.498272663811400E8     5.935120384814463E-1   -6.078172039013016E-2    3.714078751720301E-1   -2.060324777208479E-1    3.682948332487520E-1   -2.111160384318923E-1    6.000358011806365E-1   -4.741000839213478E-2
 1.509704278443526E8     5.935459521944580E-1   -6.175164717758011E-2    3.706053988465716E-1   -2.070559944363890E-1    3.674824916198936E-1   -2.120753268117266E-1    6.003758310863322E-1   -4.830772569184628E-2
 1.521223114725131E8     5.933740877580346E-1   -6.268907406039456E-2    3.699556826820892E-1   -2.080682474707437E-1    3.668184443128424E-1   -2.130417557325143E-1    6.005896679173947E-1   -4.923711560243177E-2
 1.532829838145407E8     5.931520244619926E-1   -6.340770902172728E-2    3.693793388152619E-1   -2.092450883101578E-1    3.661729748905764E-1   -2.141814336378604E-1    6.007603099144305E-1   -5.005851781653366E-2
 1.544525119271165E8     5.930311204844133E-1   -6.394607198235688E-2    3.687792805758605E-1   -2.105097023277284E-1    3.654660919719251E-1   -2.154210036961138E-1    6.009496974803168E-1   -5.083144005255798E-2
 1.556309633785520E8     5.930760745376071E-1   -6.449076506220415E-2    3.680741105681762E-1   -2.118284868164405E-1    3.646891669369364E-1   -2.167275405099256E-1    6.011748813149724E-1   -5.159540573435192E-2
 1.568184062526983E8     5.932012307645111E-1   -6.501364052755310E-2    3.673464205805937E-1   -2.131069214487023E-1    3.638897657713963E-1   -2.181104558835155E-1    6.013775809993001E-1   -5.232428136898618E-2
 1.580149091528745E8     5.934238170229084E-1   -6.558547155331951E-2    3.665639506728270E-1   -2.144004053644960E-1    3.629726274437164E-1   -2.195722056284277E-1    6.016143694913784E-1   -5.292576049837641E-2
 1.592205412058353E8     5.937176906366542E-1   -6.613936356942422E-2    3.657118930959004E-1   -2.156211379673966E-1    3.619901846666403E-1   -2.210277148627320E-1    6.019720899516343E-1   -5.358033104932845E-2
 1.604353720657634E8     5.940654757500653E-1   -6.674638207743641E-2    3.648181182283324E-1   -2.168047443488001E-1    3.609686913763614E-1   -2.224441743443351E-1    6.023270377979484E-1   -5.427442841376919E-2
 1.616594719182909E8     5.944688251007567E-1   -6.743103645275636E-2    3.639048673278079E-1   -2.179852679322564E-1    3.599215709774127E-1   -2.238161142093889E-1    6.027048004989755E-1   -5.499763621691871E-2
 1.628929114845590E8     5.948780957884165E-1   -6.818545933851396E-2    3.629424894567338E-1   -2.191472772200207E-1    3.588402492035435E-1   -2.251600606623856E-1    6.031045430558820E-1   -5.572986339787966E-2
 1.641357620253014E8     5.952353104568090E-1   -6.885080683355850E-2    3.620013230154997E-1   -2.201551626978020E-1    3.578081017712044E-1   -2.263430320179362E-1    6.035420932857219E-1   -5.659351019401316E-2
 1.653880953449593E8     5.954945333275711E-1   -6.975519819028686E-2    3.610396294226800E-1   -2.213636066112053E-1    3.568401944640230E-1   -2.275157354975261E-1    6.038830114822731E-1   -5.741257798612154E-2
 1.666499837958347E8     5.956746251333627E-1   -7.065681781057834E-2    3.600821415243924E-1   -2.226047511948581E-1    3.559001397779450E-1   -2.287079261415915E-1    6.042131646325258E-1   -5.825328292280915E-2
 1.679215002822650E8     5.958920669232711E-1   -7.146959278585363E-2    3.591071134223217E-1   -2.240395235152615E-1    3.549538887623170E-1   -2.299909529725657E-1    6.045196373139172E-1   -5.899562979544763E-2
 1.692027182648404E8     5.962145318175962E-1   -7.230409310627268E-2    3.580367798228245E-1   -2.254260204869644E-1    3.539080515405665E-1   -2.313152289602562E-1    6.049196772228331E-1   -5.978818967643761E-2
 1.704937117646426E8     5.965414566328471E-1   -7.320553360304227E-2    3.569473502814883E-1   -2.267939702278496E-1    3.528190856277176E-1   -2.326379930568658E-1    6.053586420071756E-1   -6.058858807680675E-2
 1.717945553675260E8     5.969091803068349E-1   -7.417729008802122E-2    3.558153257839280E-1   -2.281306764131473E-1    3.517017706515601E-1   -2.339501262237438E-1    6.057833666594222E-1   -6.143178980996668E-2
 1.731053242284249E8     5.971355757818342E-1   -7.517363868164008E-2    3.547320452200110E-1   -2.294473374245607E-1    3.506069606361545E-1   -2.352725089741559E-1    6.061623046551845E-1   -6.226786046235722E-2
 1.744260940756933E8     5.974088926140615E-1   -7.611978566042527E-2    3.536092977910016E-1   -2.307951826382288E-1    3.494546512875279E-1   -2.366365427678479E-1    6.066088449205088E-1   -6.308726755064809E-2
 1.757569412154842E8     5.975502772032044E-1   -7.709582159231215E-2    3.524871264126082E-1   -2.320865464156423E-1    3.482790911081142E-1   -2.379153788518563E-1    6.070555116639672E-1   -6.394623564748031E-2
 1.770979425361561E8     5.976541192174738E-1   -7.787038214578645E-2    3.513886791884601E-1   -2.334678955330007E-1    3.471450952482840E-1   -2.392674143628952E-1    6.074819143568692E-1   -6.485414002314531E-2
 1.784491755127131E8     5.978857814503992E-1   -7.852653160076938E-2    3.502110801433628E-1   -2.348955399381290E-1    3.459240416447738E-1   -2.406749093447916E-1    6.078850853685028E-1   -6.570899162509308E-2
 1.798107182112848E8     5.982673074972927E-1   -7.921075623032811E-2    3.489384062589891E-1   -2.363145469819596E-1    3.446207683806414E-1   -2.420621051549095E-1    6.083415643761300E-1   -6.655891137012643E-2
 1.811826492936349E8     5.986676183405349E-1   -7.996959595083768E-2    3.475977442040517E-1   -2.376672073625155E-1    3.432656330209636E-1   -2.433735317661431E-1    6.087933755445919E-1   -6.745231624353766E-2
 1.825650480217040E8     5.991142547103087E-1   -8.076985528555990E-2    3.462372499333971E-1   -2.389888337894014E-1    3.418619547106289E-1   -2.446955457612142E-1    6.093337612104489E-1   -6.838840657877569E-2
 1.839579942621904E8     5.995623982153692E-1   -8.157719410244435E-2    3.448763450714027E-1   -2.402712670528858E-1    3.404469726878512E-1   -2.459421437500633E-1    6.098569755714284E-1   -6.934188587364251E-2
 1.853615684911660E8     6.000845795365266E-1   -8.241375903369090E-2    3.435522061120218E-1   -2.414845409267698E-1    3.390799272932966E-1   -2.471208098565018E-1    6.103832131723033E-1   -7.041549249523080E-2
 1.867758517987237E8     6.006276213834979E-1   -8.331257322460886E-2    3.422156869313576E-1   -2.427707111028807E-1    3.377061120678078E-1   -2.483237085153414E-1    6.107788446324238E-1   -7.148778633427361E-2
 1.882009258936609E8     6.012193246224729E-1   -8.425990986554421E-2    3.409043593474231E-1   -2.439981091823402E-1    3.363615607643574E-1   -2.494826597987166E-1    6.111823305014773E-1   -7.249395473334411E-2
 1.896368731082037E8     6.017080895261987E-1   -8.532516456611858E-2    3.396043927803153E-1   -2.452366596032829E-1    3.350582747522379E-1   -2.506525097009709E-1    6.115998048382673E-1   -7.353297685237810E-2
 1.910837764027621E8     6.020957388264170E-1   -8.639076016025388E-2    3.383472167858549E-1   -2.465098893183582E-1    3.337913208997862E-1   -2.518481769051736E-1    6.120099092580028E-1   -7.456263422864828E-2
 1.925417193707203E8     6.024058223586942E-1   -8.736710194828284E-2    3.370611273885200E-1   -2.478411642001709E-1    3.325208090327363E-1   -2.531255090433783E-1    6.123631161609276E-1   -7.559829295710686E-2
 1.940107862432706E8     6.027290236701008E-1   -8.822538484483816E-2    3.357147609371762E-1   -2.491932834706568E-1    3.311845319035245E-1   -2.543998485968089E-1    6.126745909987948E-1   -7.658183985043765E-2
 1.954910618942780E8     6.031255661370004E-1   -8.901734263019230E-2    3.343905855086945E-1   -2.505226001861259E-1    3.298793716926475E-1   -2.556607669128798E-1    6.130359969668316E-1   -7.745360015602450E-2
 1.969826318451810E8     6.036689866943115E-1   -8.979883333144245E-2    3.330474387643795E-1   -2.519447640714452E-1    3.285443757708664E-1   -2.570161448531505E-1    6.135510759612250E-1   -7.840877269669053E-2
 1.984855822699381E8     6.042359557422002E-1   -9.063299786098261E-2    3.316109974076343E-1   -2.533376317717129E-1    3.271509475559538E-1   -2.583386516018046E-1    6.139496398851660E-1   -7.943688883906820E-2
 2.000000000000000E8     6.048419278947545E-1   -9.149911946096612E-2    3.301480977813632E-1   -2.546979144850612E-1    3.257494469993933E-1   -2.596587349224557E-1    6.143499163189965E-1   -8.035522957827153E-2
