#  HZ   S   RI   R     50.00 
! Rohde & Schwarz Vector Network Analyzer 
! Rohde-Schwarz,ZNLE6-2Port,1323001256200024,1.71.1.10-23.02.1.238
! Created: UTC 4/11/2025, 7:47:25 AM
! freq[Hz]                re:S11                  im:S11                  re:S21                  im:S21                  re:S12                  im:S12                  re:S22                  im:S22
 1.000000000000000E5     2.926167932366588E-1    1.587489165175532E-1    7.101414950316050E-1   -1.590279777848384E-1    7.106098349896107E-1   -1.590060976507578E-1    2.923764992909617E-1    1.585738052504087E-1
 1.007629862646662E5     2.933453918154045E-1    1.586570064819741E-1    7.093894999674684E-1   -1.589641462958882E-1    7.098647535987764E-1   -1.589511723944749E-1    2.931251885440058E-1    1.584850443353181E-1
 1.015317940097331E5     2.940443104144398E-1    1.585897452564179E-1    7.086418724693948E-1   -1.588918328540843E-1    7.091458204831070E-1   -1.588863603545386E-1    2.938573864097093E-1    1.584171705880245E-1
 1.023064676522963E5     2.947754507820723E-1    1.585068883374353E-1    7.079020239997688E-1   -1.588251588683971E-1    7.083796528189100E-1   -1.588254631216668E-1    2.945698944831148E-1    1.583368770087757E-1
 1.030870519483485E5     2.954923846684200E-1    1.584280949741000E-1    7.071725727031027E-1   -1.587646521193175E-1    7.076489630419165E-1   -1.587633040926127E-1    2.952862053448978E-1    1.582658280226539E-1
 1.038735919953636E5     2.962134858746326E-1    1.583645642798871E-1    7.064323790817508E-1   -1.587011924066620E-1    7.069161927251801E-1   -1.586822818093204E-1    2.960124403758915E-1    1.582034267484498E-1
 1.046661332349037E5     2.969193247496665E-1    1.582876799276848E-1    7.056781132027048E-1   -1.586266023191286E-1    7.061844066039775E-1   -1.586277535397369E-1    2.967366458678152E-1    1.581414669186596E-1
 1.054647214552430E5     2.976481626711796E-1    1.582259912545964E-1    7.049564367044753E-1   -1.585762847558913E-1    7.054628071100356E-1   -1.585667224770524E-1    2.974696923262158E-1    1.580715856387867E-1
 1.062694027940149E5     2.983706063201471E-1    1.581566404304367E-1    7.042335735174581E-1   -1.585152395156751E-1    7.047362482126667E-1   -1.585025294774821E-1    2.981958867088795E-1    1.580065233211025E-1
 1.070802237408760E5     2.990895295067806E-1    1.580901573998513E-1    7.035061484454228E-1   -1.584491136272684E-1    7.040142712633504E-1   -1.584561951957419E-1    2.989115356803861E-1    1.579545200904240E-1
 1.078972311401927E5     2.998206546706207E-1    1.580304871081986E-1    7.027845147336510E-1   -1.583912119813818E-1    7.032923100647214E-1   -1.583907679237431E-1    2.996227751992732E-1    1.578991781111020E-1
 1.087204721937475E5     3.005412441018138E-1    1.579746923765576E-1    7.020773849788942E-1   -1.583409209001850E-1    7.025651570366026E-1   -1.583356659195353E-1    3.003479679385299E-1    1.578343857198018E-1
 1.095499944634658E5     3.012532230156058E-1    1.579208747495529E-1    7.013448724583061E-1   -1.582825777919433E-1    7.018312026627440E-1   -1.582690627012477E-1    3.010481079342393E-1    1.577845925504768E-1
 1.103858458741646E5     3.019826495735673E-1    1.578691897975173E-1    7.006159233233257E-1   -1.582414024266277E-1    7.011103580818911E-1   -1.582264303702173E-1    3.017761153761592E-1    1.577213481421648E-1
 1.112280747163201E5     3.027040661966292E-1    1.578089753295345E-1    6.998978642104552E-1   -1.581891549869190E-1    7.003717304685323E-1   -1.581828244612045E-1    3.024824906835549E-1    1.576624327396036E-1
 1.120767296488583E5     3.034106631565218E-1    1.577615630033863E-1    6.991656731535322E-1   -1.581183173772640E-1    6.996509355909322E-1   -1.581415174586117E-1    3.032091468712901E-1    1.576119103860155E-1
 1.129318597019661E5     3.041400727017513E-1    1.576993639063388E-1    6.984440154096820E-1   -1.580809252950194E-1    6.989389886916364E-1   -1.580907986328862E-1    3.039417734303037E-1    1.575595522902858E-1
 1.137935142799240E5     3.048573470660789E-1    1.576660065576282E-1    6.977157896771424E-1   -1.580273475611663E-1    6.982140199233742E-1   -1.580379525953366E-1    3.046606800804290E-1    1.575257515785386E-1
 1.146617431639607E5     3.055849055178880E-1    1.576122694527361E-1    6.970173150404410E-1   -1.579978467432450E-1    6.974997885137395E-1   -1.579995331256278E-1    3.053968306671992E-1    1.574811975352934E-1
 1.155365965151286E5     3.062975440505802E-1    1.575757930525724E-1    6.962953103923142E-1   -1.579481029262319E-1    6.967688097300880E-1   -1.579604198220515E-1    3.060886560792841E-1    1.574315488307716E-1
 1.164181248772018E5     3.070143202747114E-1    1.575210261328749E-1    6.955852364187171E-1   -1.578992234893416E-1    6.960510571015033E-1   -1.579226542227630E-1    3.068046547907403E-1    1.573863336770542E-1
 1.173063791795965E5     3.077335124038494E-1    1.574758236944961E-1    6.948512415856992E-1   -1.578678537366633E-1    6.953279185643110E-1   -1.578904374384687E-1    3.075324754469786E-1    1.573487921523147E-1
 1.182014107403141E5     3.084345809389826E-1    1.574412034466348E-1    6.941339331542967E-1   -1.578278794982714E-1    6.945979921422719E-1   -1.578385668570412E-1    3.082519699315096E-1    1.573095206390128E-1
 1.191032712689044E5     3.091654764971745E-1    1.574043715090440E-1    6.934023542190820E-1   -1.577952186074009E-1    6.938777907328481E-1   -1.578093192268149E-1    3.089738883458216E-1    1.572614115702704E-1
 1.200120128694542E5     3.098808900114841E-1    1.573554019906116E-1    6.926736626838244E-1   -1.577619079810577E-1    6.931428830746889E-1   -1.577694121931657E-1    3.096721808175744E-1    1.572332444434072E-1
 1.209276880435975E5     3.105903330690270E-1    1.573306690761460E-1    6.919497973844935E-1   -1.577137814291533E-1    6.924302308824567E-1   -1.577404550909905E-1    3.104026755830248E-1    1.571873760516324E-1
 1.218503496935483E5     3.113005708194078E-1    1.572777050183348E-1    6.912252339117272E-1   -1.576865204317192E-1    6.917070871473707E-1   -1.577040452832696E-1    3.111053143087116E-1    1.571589053017917E-1
 1.227800511251578E5     3.120501194776303E-1    1.572483488583850E-1    6.905192018442967E-1   -1.576619056665496E-1    6.909856981971919E-1   -1.576693015472961E-1    3.118397442942937E-1    1.571304781334989E-1
 1.237168460509929E5     3.127544267787238E-1    1.572178813408766E-1    6.897909467899984E-1   -1.576283219917818E-1    6.902839122519397E-1   -1.576372071945896E-1    3.125616415809451E-1    1.571009405492136E-1
 1.246607885934402E5     3.134761741165277E-1    1.571844984620882E-1    6.890678915892655E-1   -1.576055989897501E-1    6.895518680374013E-1   -1.576240821128874E-1    3.132797135499047E-1    1.570631271820566E-1
 1.256119332878327E5     3.141897552002088E-1    1.571573699258867E-1    6.883411556926788E-1   -1.575754268640561E-1    6.888343070145421E-1   -1.575930959538450E-1    3.139904483367124E-1    1.570326219511447E-1
 1.265703350856002E5     3.148975599746028E-1    1.571177548124235E-1    6.876207698585359E-1   -1.575587124706234E-1    6.881268596108959E-1   -1.575717941176956E-1    3.147116130385580E-1    1.570057032490675E-1
 1.275360493574453E5     3.156161006089129E-1    1.571034871472030E-1    6.869063430965637E-1   -1.575296911300723E-1    6.874003521182254E-1   -1.575471122983221E-1    3.154481711736229E-1    1.569777963884619E-1
 1.285091318965405E5     3.163219750789690E-1    1.570757229922274E-1    6.861811956623729E-1   -1.574966411644935E-1    6.866906292450754E-1   -1.575246136818545E-1    3.161605807321708E-1    1.569571984380204E-1
 1.294896389217529E5     3.170374679044950E-1    1.570416085929620E-1    6.854521437014222E-1   -1.574763780860778E-1    6.859513869544118E-1   -1.574968783366900E-1    3.168527683986916E-1    1.569417658470572E-1
 1.304776270808914E5     3.177503584791945E-1    1.570243237338136E-1    6.847307887366095E-1   -1.574656060237901E-1    6.852288282303376E-1   -1.574837469218332E-1    3.175836541571318E-1    1.569234637262132E-1
 1.314731534539810E5     3.184765636189887E-1    1.570010270754061E-1    6.840043179709370E-1   -1.574477851998696E-1    6.845061493394118E-1   -1.574761001895806E-1    3.183095917303069E-1    1.568915901411170E-1
 1.324762755565583E5     3.192018326065968E-1    1.569916159056299E-1    6.832983910924637E-1   -1.574288925689662E-1    6.837786630305149E-1   -1.574498545017196E-1    3.190231726381165E-1    1.568729316415725E-1
 1.334870513429962E5     3.199217707232096E-1    1.569700432996381E-1    6.825732874122784E-1   -1.574221672657225E-1    6.830827826570210E-1   -1.574331661409165E-1    3.197697731654752E-1    1.568641947959072E-1
 1.345055392098512E5     3.206461119407831E-1    1.569568711841500E-1    6.818334544691749E-1   -1.573997838318292E-1    6.823386718373380E-1   -1.574162021158435E-1    3.204734478931290E-1    1.568404081915331E-1
 1.355317979992373E5     3.213647987517035E-1    1.569504353355921E-1    6.811100409084220E-1   -1.573820641419024E-1    6.815909157873504E-1   -1.574083862374815E-1    3.211818324096200E-1    1.568297216197556E-1
 1.365658870022265E5     3.220814803442312E-1    1.569229570102758E-1    6.803723061670323E-1   -1.573670931325222E-1    6.808614520037928E-1   -1.573900775802330E-1    3.219096558288340E-1    1.568083849061921E-1
 1.376078659622731E5     3.228214005500907E-1    1.569022891253626E-1    6.796606312010539E-1   -1.573616687942225E-1    6.801445570208944E-1   -1.573863158288484E-1    3.226378850127136E-1    1.568059935136419E-1
 1.386577950786655E5     3.235473434645467E-1    1.568867074618867E-1    6.789446703733861E-1   -1.573515189423498E-1    6.794053145515514E-1   -1.573763916938816E-1    3.233277015061452E-1    1.567835650888181E-1
 1.397157350100044E5     3.242674669416676E-1    1.568732725351555E-1    6.782133801431750E-1   -1.573423020305510E-1    6.786879408136610E-1   -1.573675230947573E-1    3.240501617582673E-1    1.567719071876703E-1
 1.407817468777081E5     3.249961587964952E-1    1.568673397043635E-1    6.774919866609261E-1   -1.573375062594075E-1    6.779603945052903E-1   -1.573682767474313E-1    3.247790291544208E-1    1.567584245310031E-1
 1.418558922695422E5     3.257280131544297E-1    1.568598138200543E-1    6.767749027520329E-1   -1.573295742132785E-1    6.772203611871068E-1   -1.573561941010914E-1    3.255093105882340E-1    1.567553723191753E-1
 1.429382332431784E5     3.264416566048058E-1    1.568453388440161E-1    6.760323434156248E-1   -1.573217184368731E-1    6.764971366218978E-1   -1.573409546514565E-1    3.262369247568327E-1    1.567592983131856E-1
 1.440288323297804E5     3.271766976811862E-1    1.568495743073414E-1    6.752980937551536E-1   -1.573265475245410E-1    6.757659868147993E-1   -1.573415562654065E-1    3.269500808366123E-1    1.567475872833011E-1
 1.451277525376154E5     3.278785176859599E-1    1.568417375908285E-1    6.745758524890898E-1   -1.573197824162331E-1    6.750357263454605E-1   -1.573572364261580E-1    3.276829014028095E-1    1.567306849109289E-1
 1.462350573556962E5     3.286230278673571E-1    1.568375085279249E-1    6.738343519369437E-1   -1.573229445897626E-1    6.743422267045538E-1   -1.573506225769996E-1    3.284375106677017E-1    1.567210442879995E-1
 1.473508107574468E5     3.293429301202121E-1    1.568187803412779E-1    6.731019875038216E-1   -1.573240623059739E-1    6.735994374577194E-1   -1.573524211273658E-1    3.291587537739104E-1    1.567220021540837E-1
 1.484750772044004E5     3.300714721187433E-1    1.568278015664142E-1    6.723823183199863E-1   -1.573250763565001E-1    6.728772231967668E-1   -1.573498301622466E-1    3.298665544268763E-1    1.567245500303870E-1
 1.496079216499225E5     3.308059556071505E-1    1.568257017987430E-1    6.716454068547040E-1   -1.573172793418550E-1    6.721317263590805E-1   -1.573540962806191E-1    3.306022832829009E-1    1.567242574616703E-1
 1.507494095429637E5     3.315273143458357E-1    1.568284820427817E-1    6.709096961911040E-1   -1.573211356862832E-1    6.713933284701574E-1   -1.573581968670681E-1    3.313322641354295E-1    1.567367309343419E-1
 1.518996068318418E5     3.322806391109314E-1    1.568243810230989E-1    6.701827549942361E-1   -1.573370672169393E-1    6.706604123416882E-1   -1.573636888937297E-1    3.320980916417212E-1    1.567297978620694E-1
 1.530585799680507E5     3.329968047201128E-1    1.568260674877327E-1    6.694514573150647E-1   -1.573275671460748E-1    6.699297223700577E-1   -1.573601878515626E-1    3.328042678839441E-1    1.567361676910263E-1
 1.542263959101001E5     3.337508803046523E-1    1.568260954587543E-1    6.687317648391873E-1   -1.573457298480055E-1    6.692074514310609E-1   -1.573797388530093E-1    3.335500951204666E-1    1.567375409175716E-1
 1.554031221273835E5     3.344722897280509E-1    1.568311090809827E-1    6.679820736088322E-1   -1.573437247755627E-1    6.684633987371935E-1   -1.573807490212354E-1    3.342823539502930E-1    1.567312201288057E-1
 1.565888266040779E5     3.352019800684489E-1    1.568387757883790E-1    6.672473931634340E-1   -1.573542653665455E-1    6.677229389509682E-1   -1.573889605450452E-1    3.350063647710223E-1    1.567422356071203E-1
 1.577835778430689E5     3.359282883995738E-1    1.568537146934749E-1    6.665094078330361E-1   -1.573596337530898E-1    6.669795822628329E-1   -1.573861639356142E-1    3.357247762482220E-1    1.567554271154772E-1
 1.589874448699104E5     3.366785533089464E-1    1.568516650139276E-1    6.657862699944889E-1   -1.573645823685992E-1    6.662474908806039E-1   -1.574002855184859E-1    3.364821996529723E-1    1.567610806166813E-1
 1.602004972368116E5     3.373917437908696E-1    1.568516163280670E-1    6.650371002958374E-1   -1.573746008173760E-1    6.655151303592349E-1   -1.574074694203073E-1    3.372135127350295E-1    1.567594420797951E-1
 1.614228050266550E5     3.381435439304008E-1    1.568660329615597E-1    6.643072615898807E-1   -1.573919254001430E-1    6.647793629540140E-1   -1.574227308042680E-1    3.379560843158616E-1    1.567722455967284E-1
 1.626544388570473E5     3.388871874416234E-1    1.568784623350012E-1    6.635517828332377E-1   -1.573929472056698E-1    6.640460528511144E-1   -1.574438215956245E-1    3.387129311943729E-1    1.567775064470703E-1
 1.638954698843964E5     3.396275845612098E-1    1.568821079502145E-1    6.628075580707766E-1   -1.574078345609264E-1    6.633161267369709E-1   -1.574555898495234E-1    3.394512063348875E-1    1.567886446027533E-1
 1.651459698080244E5     3.403795661065175E-1    1.568875039915067E-1    6.620550785521488E-1   -1.574293671761214E-1    6.625580615488160E-1   -1.574720570902693E-1    3.401792325818360E-1    1.568006701060745E-1
 1.664060108743095E5     3.411264397631016E-1    1.569023396861277E-1    6.613173417473884E-1   -1.574458591332016E-1    6.617934383497712E-1   -1.574766098417828E-1    3.408995779024910E-1    1.568141185998626E-1
 1.676756658808590E5     3.418657837690040E-1    1.569238206496574E-1    6.605647623693210E-1   -1.574609948145433E-1    6.610419975493276E-1   -1.575063708375541E-1    3.416495350427070E-1    1.568230811648373E-1
 1.689550081807175E5     3.426240792255317E-1    1.569327763857856E-1    6.598204824886121E-1   -1.574749076311676E-1    6.603198387950574E-1   -1.575190561062629E-1    3.424095627507854E-1    1.568373486129124E-1
 1.702441116866020E5     3.433694132348672E-1    1.569521881631019E-1    6.590658587959470E-1   -1.574894176012309E-1    6.595611183583894E-1   -1.575250305557949E-1    3.431503873533481E-1    1.568551399279223E-1
 1.715430508751738E5     3.441298540640009E-1    1.569705863368712E-1    6.583314315441522E-1   -1.574995734801006E-1    6.588226053233833E-1   -1.575456609938882E-1    3.438889167558799E-1    1.568709223012889E-1
 1.728519007913403E5     3.448732025324115E-1    1.569794071644853E-1    6.575869863327581E-1   -1.575253037669940E-1    6.580703610403293E-1   -1.575705521621890E-1    3.446446663671092E-1    1.568769228074010E-1
 1.741707370525927E5     3.456209119060718E-1    1.569932591254460E-1    6.568256199076540E-1   -1.575309964873125E-1    6.573258130288998E-1   -1.575916896557144E-1    3.453965168324844E-1    1.568921946061788E-1
 1.754996358533718E5     3.463726035319603E-1    1.570149350858364E-1    6.560749453219745E-1   -1.575433963276773E-1    6.565789132595843E-1   -1.576042181708562E-1    3.461404284705371E-1    1.569087031908842E-1
 1.768386739694722E5     3.471139110420750E-1    1.570382511924739E-1    6.553234647532975E-1   -1.575655459179593E-1    6.558085831182607E-1   -1.576268046023828E-1    3.469096197872455E-1    1.569210644887039E-1
 1.781879287624771E5     3.478706498558683E-1    1.570358523812040E-1    6.545562063536368E-1   -1.575906990995745E-1    6.550727010592725E-1   -1.576341333640784E-1    3.476449253328942E-1    1.569379348282236E-1
 1.795474781842276E5     3.486220649624061E-1    1.570673405852292E-1    6.537920452744396E-1   -1.576018489047570E-1    6.543088519239003E-1   -1.576615628392994E-1    3.484102879036344E-1    1.569584450210889E-1
 1.809174007813277E5     3.493642210789920E-1    1.570695990146473E-1    6.530393717059897E-1   -1.576156941710739E-1    6.535520338158521E-1   -1.576829149802101E-1    3.491793014115396E-1    1.569779740462443E-1
 1.822977756996804E5     3.501437857244047E-1    1.570900699142050E-1    6.523060510162780E-1   -1.576432860879315E-1    6.527841784548017E-1   -1.576830685760422E-1    3.499008909348281E-1    1.569899247691754E-1
 1.836886826890609E5     3.509189129152533E-1    1.571141810010139E-1    6.515253178839973E-1   -1.576717038274602E-1    6.520456279537931E-1   -1.577164855339831E-1    3.506879769137550E-1    1.570073858390434E-1
 1.850902021077247E5     3.516724306842596E-1    1.571164281952925E-1    6.507771329762659E-1   -1.576929618848619E-1    6.513032520169788E-1   -1.577487964451495E-1    3.514534221744362E-1    1.570258714693945E-1
 1.865024149270491E5     3.524269255170424E-1    1.571271377210166E-1    6.500215389568668E-1   -1.577182296345651E-1    6.505390904053315E-1   -1.577624963207652E-1    3.522237869603139E-1    1.570399903410535E-1
 1.879254027362132E5     3.531778761391183E-1    1.571534697005513E-1    6.492411265624587E-1   -1.577348330566679E-1    6.497432109577329E-1   -1.577800012986252E-1    3.529749304590036E-1    1.570606348319538E-1
 1.893592477469092E5     3.539404016406436E-1    1.571668913043372E-1    6.484873121715217E-1   -1.577460686216594E-1    6.489560696144343E-1   -1.578267367798325E-1    3.537563423820191E-1    1.570738005679831E-1
 1.908040327980933E5     3.547106520674153E-1    1.571885000226192E-1    6.477345288439458E-1   -1.577750236240773E-1    6.482239447358724E-1   -1.578256739888630E-1    3.544869366896297E-1    1.571140320175965E-1
 1.922598413607715E5     3.554889216012354E-1    1.572088182966549E-1    6.469692595349743E-1   -1.577961744054477E-1    6.474592061954775E-1   -1.578501855587637E-1    3.552549552211989E-1    1.571215277144674E-1
 1.937267575428232E5     3.562579353827412E-1    1.572288465097818E-1    6.461867766283190E-1   -1.578228716541628E-1    6.466856226428671E-1   -1.578626499612934E-1    3.560392984474391E-1    1.571437205500486E-1
 1.952048660938581E5     3.570169931758695E-1    1.572435895359290E-1    6.454286217968026E-1   -1.578484189610526E-1    6.459162568430489E-1   -1.578847887652103E-1    3.567987779370857E-1    1.571625127765277E-1
 1.966942524101142E5     3.578004168448018E-1    1.572668905500690E-1    6.446485175913267E-1   -1.578698907802022E-1    6.451352938914240E-1   -1.579116500180756E-1    3.575651280543524E-1    1.571852353299624E-1
 1.981950025393913E5     3.585819611129333E-1    1.572800087106068E-1    6.438755409684064E-1   -1.578973165514636E-1    6.443640440284925E-1   -1.579316163133702E-1    3.583398792205303E-1    1.571935214118297E-1
 1.997072031860212E5     3.593750509634851E-1    1.573052835358587E-1    6.431224819580285E-1   -1.579156347731206E-1    6.435956639943862E-1   -1.579572967064211E-1    3.591207310191710E-1    1.572166709579804E-1
 2.012309417158795E5     3.601353543029753E-1    1.573231166971949E-1    6.423329036385627E-1   -1.579383893438130E-1    6.428272613538026E-1   -1.579723934797721E-1    3.599076023063665E-1    1.572347733845224E-1
 2.027663061614301E5     3.609123831529706E-1    1.573412313602476E-1    6.415737915938889E-1   -1.579517595448876E-1    6.420683489463622E-1   -1.579963847459225E-1    3.606748604198922E-1    1.572517488258696E-1
 2.043133852268128E5     3.616761753305983E-1    1.573596936289703E-1    6.408012641907799E-1   -1.579678427655274E-1    6.412738210769934E-1   -1.580231032900956E-1    3.614461420857176E-1    1.572573797404028E-1
 2.058722682929675E5     3.624726107804920E-1    1.573714367721878E-1    6.400278170750177E-1   -1.579848208799119E-1    6.404941226615467E-1   -1.580350016523285E-1    3.622170254289635E-1    1.572782012708561E-1
 2.074430454227995E5     3.632505097690090E-1    1.573942804877579E-1    6.392516264370122E-1   -1.580095773155948E-1    6.397027547184374E-1   -1.580575942534447E-1    3.629823196453083E-1    1.572929759993822E-1
 2.090258073663807E5     3.640281547440665E-1    1.574103701393345E-1    6.384519119808177E-1   -1.580325692000975E-1    6.389121728587555E-1   -1.580852375089719E-1    3.637736421989827E-1    1.573031811822509E-1
 2.106206455661938E5     3.648060440405969E-1    1.574214956974915E-1    6.376661853301803E-1   -1.580569256315278E-1    6.381307175142870E-1   -1.580891748617434E-1    3.645453087702692E-1    1.573375523471159E-1
 2.122276521624151E5     3.655844219641763E-1    1.574308639054311E-1    6.368802874908719E-1   -1.580788083893160E-1    6.373644149968244E-1   -1.581183780018251E-1    3.653457169032561E-1    1.573400365137406E-1
 2.138469199982374E5     3.663645033577130E-1    1.574500155414282E-1    6.360892104971289E-1   -1.581051282958618E-1    6.365623106736009E-1   -1.581389109965162E-1    3.661196721959959E-1    1.573538233728576E-1
 2.154785426252357E5     3.671547268924050E-1    1.574583557739655E-1    6.352984628123658E-1   -1.581229930368862E-1    6.357852994710119E-1   -1.581586174828028E-1    3.669314820480472E-1    1.573648024969073E-1
 2.171226143087691E5     3.679677561327402E-1    1.574774682016231E-1    6.345109566199697E-1   -1.581431789685757E-1    6.349909365440628E-1   -1.581730691798146E-1    3.677041546692638E-1    1.573766869217889E-1
 2.187792300334291E5     3.687360985592391E-1    1.574911552117054E-1    6.337192837978076E-1   -1.581503606048135E-1    6.342250232370085E-1   -1.581945264918823E-1    3.685061390741156E-1    1.573872614599361E-1
 2.204484855085266E5     3.695205846719803E-1    1.574998491620479E-1    6.329221599653057E-1   -1.581779552508344E-1    6.334379977563105E-1   -1.582193980151990E-1    3.693001886836579E-1    1.574019908827486E-1
 2.221304771736209E5     3.703230204382303E-1    1.575256244806161E-1    6.321291235113881E-1   -1.581927075607964E-1    6.326618019830661E-1   -1.582188118456359E-1    3.700794680730585E-1    1.574136977210596E-1
 2.238253022040931E5     3.711204297379513E-1    1.575326538588985E-1    6.313259647173627E-1   -1.582084352914541E-1    6.318627993216974E-1   -1.582403043417580E-1    3.708770548404158E-1    1.574184929228133E-1
 2.255330585167579E5     3.718869391939849E-1    1.575402394995329E-1    6.305282558800054E-1   -1.582262460961275E-1    6.310587422124657E-1   -1.582700603988422E-1    3.716675520288731E-1    1.574257145865589E-1
 2.272538447755223E5     3.726968137344804E-1    1.575505604358332E-1    6.297173476012122E-1   -1.582276097239084E-1    6.302403660653212E-1   -1.582700326845211E-1    3.724647219455913E-1    1.574394529311729E-1
 2.289877603970853E5     3.734958750690636E-1    1.575627476431476E-1    6.289131012837150E-1   -1.582577984652953E-1    6.294488543751133E-1   -1.582816515000345E-1    3.732543589941729E-1    1.574479201228709E-1
 2.307349055566813E5     3.742873804232129E-1    1.575747990042974E-1    6.281225285010017E-1   -1.582613236451633E-1    6.286428235448378E-1   -1.583002493805526E-1    3.740593333962070E-1    1.574492426207302E-1
 2.324953811938693E5     3.750955446955469E-1    1.575798267464703E-1    6.273239983269279E-1   -1.582608794875945E-1    6.278652617126157E-1   -1.583000234073561E-1    3.748553132804432E-1    1.574605215724882E-1
 2.342692890183618E5     3.759025337846261E-1    1.575859296594303E-1    6.265158311439181E-1   -1.582890549770746E-1    6.270572152129938E-1   -1.583231412334470E-1    3.756524578947100E-1    1.574579210040307E-1
 2.360567315159030E5     3.767129484072867E-1    1.575852619426616E-1    6.256996340816378E-1   -1.582974532114834E-1    6.262612702105188E-1   -1.583288742670574E-1    3.764578817145237E-1    1.574711001481563E-1
 2.378578119541888E5     3.775086964497069E-1    1.575985046853710E-1    6.248913818000535E-1   -1.583051314339366E-1    6.254564480123036E-1   -1.583396689297082E-1    3.772431139245374E-1    1.574682335703921E-1
 2.396726343888348E5     3.783269924314132E-1    1.576077633304953E-1    6.240891975850033E-1   -1.582977946240337E-1    6.246416601339939E-1   -1.583560331544627E-1    3.780591657738765E-1    1.574651674562008E-1
 2.415013036693852E5     3.791190439073344E-1    1.575994546514353E-1    6.232588124044527E-1   -1.582995120893587E-1    6.238411299342145E-1   -1.583553396544334E-1    3.788475694674316E-1    1.574688848595182E-1
 2.433439254453724E5     3.799129318587988E-1    1.576016039402962E-1    6.224598315936346E-1   -1.583035526710952E-1    6.230322480760739E-1   -1.583622155179038E-1    3.796759421996658E-1    1.574696896809627E-1
 2.452006061724201E5     3.807361284685446E-1    1.575964144942909E-1    6.216772795334191E-1   -1.582972643810064E-1    6.221990691282600E-1   -1.583657898337434E-1    3.804692815924041E-1    1.574632690311658E-1
 2.470714531183934E5     3.815193412950374E-1    1.575727155885056E-1    6.208334867627684E-1   -1.582969521029611E-1    6.213732951735259E-1   -1.583719868212202E-1    3.812682114101498E-1    1.574697786225893E-1
 2.489565743695979E5     3.823253344226627E-1    1.575816954448500E-1    6.200065979023284E-1   -1.582948629375959E-1    6.205528716627201E-1   -1.583749088141825E-1    3.820738681804494E-1    1.574699928081335E-1
 2.508560788370214E5     3.831370515587739E-1    1.575745162220009E-1    6.191982857066174E-1   -1.582951918224532E-1    6.197345384576955E-1   -1.583746916281737E-1    3.828769592054047E-1    1.574585720889475E-1
 2.527700762626280E5     3.839541179808015E-1    1.575589955087748E-1    6.183750844053747E-1   -1.582887570440888E-1    6.189205949940552E-1   -1.583815941543779E-1    3.836900600349044E-1    1.574522088696075E-1
 2.546986772256976E5     3.847656040854915E-1    1.575462774611273E-1    6.175486023365050E-1   -1.582828252911561E-1    6.180927393909293E-1   -1.583767821156091E-1    3.844963924614099E-1    1.574423201484332E-1
 2.566419931492161E5     3.855922057636998E-1    1.575369884570862E-1    6.167368027373963E-1   -1.582702565914445E-1    6.172668191354450E-1   -1.583740989933682E-1    3.852744240403502E-1    1.574340162786121E-1
 2.586001363063102E5     3.863974085096955E-1    1.575242528469050E-1    6.159110977097066E-1   -1.582652299415804E-1    6.164363225080612E-1   -1.583705550034591E-1    3.860842903656737E-1    1.574173878269131E-1
 2.605732198267354E5     3.872017507927057E-1    1.574950102047010E-1    6.151075007456860E-1   -1.582580886002524E-1    6.156109603007053E-1   -1.583587037521483E-1    3.868984960192948E-1    1.574176773104003E-1
 2.625613577034118E5     3.880239942512546E-1    1.574958363238042E-1    6.142884524456126E-1   -1.582340380411431E-1    6.148029608685468E-1   -1.583464009295324E-1    3.877049625666519E-1    1.573968473288615E-1
 2.645646647990093E5     3.888423385320157E-1    1.574676292636711E-1    6.134650372100118E-1   -1.582218961115415E-1    6.139683045621813E-1   -1.583313348974652E-1    3.885148449397845E-1    1.573881386311198E-1
 2.665832568525859E5     3.896483832235401E-1    1.574501384627489E-1    6.126522248978513E-1   -1.582063809644151E-1    6.131428335427748E-1   -1.583194104904057E-1    3.893291219072029E-1    1.573613507699635E-1
 2.686172504862709E5     3.904630896737530E-1    1.574373583606754E-1    6.118394821252358E-1   -1.581848893638625E-1    6.123141377299886E-1   -1.583050876701940E-1    3.901456448297787E-1    1.573538693731735E-1
 2.706667632120051E5     3.912802206999782E-1    1.574150132573381E-1    6.110255831252497E-1   -1.581700348795504E-1    6.114981383586644E-1   -1.582915493947146E-1    3.909706811099123E-1    1.573489371716583E-1
 2.727319134383292E5     3.920979183568837E-1    1.573933069203077E-1    6.102019878800014E-1   -1.581394724688128E-1    6.106665884141639E-1   -1.582692399118692E-1    3.917765806709291E-1    1.573267897042532E-1
 2.748128204772244E5     3.928957528906746E-1    1.573610908900464E-1    6.093762221270318E-1   -1.581155698373332E-1    6.098411067900499E-1   -1.582481917162315E-1    3.925906913324386E-1    1.573061799129201E-1
 2.769096045510074E5     3.937267846541743E-1    1.573447336030127E-1    6.085703637231700E-1   -1.580948204787576E-1    6.090019040404245E-1   -1.582245584322832E-1    3.934230716599299E-1    1.572890411516526E-1
 2.790223867992730E5     3.945266460417135E-1    1.573245659771758E-1    6.077485603737118E-1   -1.580636730132068E-1    6.081991575140837E-1   -1.582064263899448E-1    3.942413359596481E-1    1.572690269113643E-1
 2.811512892858952E5     3.953790134424759E-1    1.572971981345558E-1    6.069298608927738E-1   -1.580441128493107E-1    6.073590728232966E-1   -1.581721545674716E-1    3.950711478913148E-1    1.572559045415773E-1
 2.832964350060779E5     3.962034457551822E-1    1.572691004559986E-1    6.061015833945023E-1   -1.580147232510609E-1    6.065314096877685E-1   -1.581439807863071E-1    3.958825247927060E-1    1.572151768618055E-1
 2.854579478934632E5     3.969851335305122E-1    1.572219071264771E-1    6.052813295628823E-1   -1.579838890572872E-1    6.057017874697119E-1   -1.581199215327123E-1    3.966993574031942E-1    1.571863042720493E-1
 2.876359528272883E5     3.977875045558333E-1    1.571887610308908E-1    6.044697244088828E-1   -1.579552027557939E-1    6.048648815478544E-1   -1.580837115660844E-1    3.975093052516858E-1    1.571637278706678E-1
 2.898305756396023E5     3.986244089178501E-1    1.571587200930351E-1    6.036718894826517E-1   -1.579140380629098E-1    6.040635526629299E-1   -1.580570951827961E-1    3.983574371366857E-1    1.571317242401940E-1
 2.920419431225354E5     3.994470161917160E-1    1.571231830577551E-1    6.028655096930324E-1   -1.578848548368841E-1    6.032279299348802E-1   -1.580116589464617E-1    3.991646274206179E-1    1.571009752447339E-1
 2.942701830356239E5     4.002739107035785E-1    1.570924504286684E-1    6.020567171728683E-1   -1.578537136813131E-1    6.024234953688914E-1   -1.579705573982333E-1    4.000026664357103E-1    1.570693722656792E-1
 2.965154241131938E5     4.010986887879528E-1    1.570533301137186E-1    6.012251632193786E-1   -1.578107316903586E-1    6.016019715068672E-1   -1.579330896935021E-1    4.008274690403790E-1    1.570387846837885E-1
 2.987777960717941E5     4.019166563165324E-1    1.570245966262104E-1    6.004286853955823E-1   -1.577734569196365E-1    6.007615628109140E-1   -1.578939441650073E-1    4.016276651646770E-1    1.569976891417369E-1
 3.010574296176943E5     4.027290995134923E-1    1.569789289011676E-1    5.996008311734270E-1   -1.577382732789389E-1    5.999603729766930E-1   -1.578473144549817E-1    4.024417405640718E-1    1.569654996503962E-1
 3.033544564544337E5     4.035448858892555E-1    1.569279293562723E-1    5.987825575138757E-1   -1.576969825498049E-1    5.991613201714029E-1   -1.578067646738620E-1    4.032612463354784E-1    1.569203649801607E-1
 3.056690092904338E5     4.043565800808772E-1    1.568913221547762E-1    5.979740986074613E-1   -1.576547498129515E-1    5.983469260982087E-1   -1.577548307003118E-1    4.041064206148311E-1    1.568877137103070E-1
 3.080012218466610E5     4.051992716435170E-1    1.568517264627506E-1    5.971862607346337E-1   -1.576098616861737E-1    5.975122226494449E-1   -1.577031322980100E-1    4.048993381511601E-1    1.568407919111007E-1
 3.103512288643551E5     4.059836368710669E-1    1.567965483070670E-1    5.963499728816138E-1   -1.575589538925907E-1    5.966964563814597E-1   -1.576517631357973E-1    4.057419493273641E-1    1.568052106846389E-1
 3.127191661128128E5     4.067962787843391E-1    1.567574410210884E-1    5.955254623473121E-1   -1.575153698378131E-1    5.959007732068552E-1   -1.576123391998982E-1    4.065658133017498E-1    1.567535475285676E-1
 3.151051703972316E5     4.076267297508281E-1    1.567039100428554E-1    5.947137843874392E-1   -1.574751255126330E-1    5.950596658128348E-1   -1.575482474670246E-1    4.073645529430026E-1    1.567012254757925E-1
 3.175093795666154E5     4.084456006940631E-1    1.566445160164258E-1    5.938967406359831E-1   -1.574303055546168E-1    5.942556458208469E-1   -1.575056591062532E-1    4.082017658362855E-1    1.566631060233946E-1
 3.199319325217355E5     4.092455412184123E-1    1.565868221679659E-1    5.930922764787319E-1   -1.573858633914707E-1    5.934282938573416E-1   -1.574510872457979E-1    4.090297256579644E-1    1.566062309844420E-1
 3.223729692231574E5     4.100642358223654E-1    1.565402369868314E-1    5.922613696018240E-1   -1.573293289668552E-1    5.926268976407351E-1   -1.573962504255363E-1    4.098627556935378E-1    1.565534026203253E-1
 3.248326306993267E5     4.108765151482348E-1    1.564889830026446E-1    5.914631742272852E-1   -1.572811389879781E-1    5.918234324418585E-1   -1.573414651671105E-1    4.106937277680806E-1    1.565166583639002E-1
 3.273110590547157E5     4.116890353709837E-1    1.564270527117815E-1    5.906710061594689E-1   -1.572374502172142E-1    5.910273150909500E-1   -1.572868836867155E-1    4.115003148517406E-1    1.564472547027072E-1
 3.298083974780366E5     4.125185909838172E-1    1.563918676149749E-1    5.898253951899513E-1   -1.571692269068475E-1    5.902259062745487E-1   -1.572273059595933E-1    4.123211689104164E-1    1.563911931964163E-1
 3.323247902505097E5     4.133179700073993E-1    1.563317969301741E-1    5.890061746648018E-1   -1.571205769342799E-1    5.894166243341893E-1   -1.571615601979823E-1    4.131441423608972E-1    1.563406121607425E-1
 3.348603827542018E5     4.141280716111928E-1    1.562672835911852E-1    5.882190627450559E-1   -1.570660493647592E-1    5.886247928282534E-1   -1.571226950871701E-1    4.139709113514509E-1    1.562792612008531E-1
 3.374153214804250E5     4.149434195675962E-1    1.562082921450755E-1    5.874103920930971E-1   -1.570045132182667E-1    5.878073479182457E-1   -1.570613369495925E-1    4.147841475102855E-1    1.562236728758458E-1
 3.399897540381991E5     4.157690085860201E-1    1.561474244428108E-1    5.866019418921735E-1   -1.569557570885689E-1    5.870019519277239E-1   -1.570001226951350E-1    4.156004572923049E-1    1.561519462332957E-1
 3.425838291627830E5     4.165896241179565E-1    1.560952623900356E-1    5.857976295261855E-1   -1.568929842139322E-1    5.862105326725943E-1   -1.569425089191690E-1    4.164411751878910E-1    1.560858531139729E-1
 3.451976967242625E5     4.173987630183067E-1    1.560377970423342E-1    5.849678654906787E-1   -1.568275784785350E-1    5.854031992289900E-1   -1.568787061592339E-1    4.172647828036473E-1    1.560308494203321E-1
 3.478315077362126E5     4.182231363200873E-1    1.559751436972828E-1    5.841600846486324E-1   -1.567786278460483E-1    5.845828579175272E-1   -1.568146702660854E-1    4.180744115537434E-1    1.559644200602192E-1
 3.504854143644205E5     4.190269824931046E-1    1.559139523711786E-1    5.833508814347445E-1   -1.567129096794675E-1    5.837685819427085E-1   -1.567530379065552E-1    4.188942200969192E-1    1.558999115848931E-1
 3.531595699356794E5     4.198235686272292E-1    1.558410011292350E-1    5.825485924315918E-1   -1.566443706214147E-1    5.829586016208902E-1   -1.566944804299833E-1    4.197112660814589E-1    1.558423160175633E-1
 3.558541289466428E5     4.206449367160909E-1    1.557799035944430E-1    5.817238759047630E-1   -1.565825390878429E-1    5.821577969201015E-1   -1.566335561915608E-1    4.205186474098367E-1    1.557595786206352E-1
 3.585692470727532E5     4.214477976431124E-1    1.557100088930217E-1    5.809380299291359E-1   -1.565226564282571E-1    5.813273892566561E-1   -1.565632803350010E-1    4.213181451971175E-1    1.556872082905761E-1
 3.613050811772345E5     4.222769924641367E-1    1.556507021204310E-1    5.801272920333043E-1   -1.564586264033260E-1    5.805196547829610E-1   -1.565002503502476E-1    4.221604527653477E-1    1.556200588868019E-1
 3.640617893201578E5     4.230969299652417E-1    1.555788879446157E-1    5.793248968173856E-1   -1.563981193062789E-1    5.797361750771042E-1   -1.564388957390323E-1    4.229483361113826E-1    1.555493502259939E-1
 3.668395307675686E5     4.239105028258325E-1    1.555133576924898E-1    5.784985002450840E-1   -1.563299918538134E-1    5.789081972390628E-1   -1.563647918094303E-1    4.237244585927131E-1    1.554662995725254E-1
 3.696384660006910E5     4.247244366052313E-1    1.554456577574894E-1    5.776940172572129E-1   -1.562634269706229E-1    5.781107719563606E-1   -1.563109068042557E-1    4.245498896135368E-1    1.553820357712773E-1
 3.724587567251991E5     4.255549983739069E-1    1.553744961841906E-1    5.768939560753640E-1   -1.562008755236310E-1    5.773258386950895E-1   -1.562380434079166E-1    4.253722823474849E-1    1.553197085904572E-1
 3.753005658805580E5     4.263607686058857E-1    1.552964823524410E-1    5.760946117329059E-1   -1.561344047194391E-1    5.765148393620332E-1   -1.561679050953872E-1    4.261676771179103E-1    1.552379761931261E-1
 3.781640576494411E5     4.271712918973473E-1    1.552319636882542E-1    5.753313632884414E-1   -1.560688791506037E-1    5.756946177726596E-1   -1.561009543987646E-1    4.269790294884384E-1    1.551682070440767E-1
 3.810493974672107E5     4.279944391546079E-1    1.551646150828389E-1    5.745260978746699E-1   -1.559941625352719E-1    5.749174516985688E-1   -1.560395447895485E-1    4.278026342430327E-1    1.550985948873584E-1
 3.839567520314787E5     4.287855459591784E-1    1.550827133707556E-1    5.736788105178534E-1   -1.559295175715449E-1    5.741156277785789E-1   -1.559741304445170E-1    4.286002053169827E-1    1.550133139642546E-1
 3.868862893117373E5     4.295822136385742E-1    1.550081403406922E-1    5.728804075110818E-1   -1.558526304071900E-1    5.733040079378817E-1   -1.559016925325591E-1    4.294138169947889E-1    1.549302208225424E-1
 3.898381785590618E5     4.304122423661542E-1    1.549361291075790E-1    5.720928545058891E-1   -1.557965984567547E-1    5.724937255819672E-1   -1.558265586371583E-1    4.302048936723720E-1    1.548469198167245E-1
 3.928125903158922E5     4.312215071662568E-1    1.548552257534375E-1    5.712872971015286E-1   -1.557277005295341E-1    5.716945935224588E-1   -1.557588154693781E-1    4.310276781848477E-1    1.547611935607375E-1
 3.958096964258819E5     4.320387378024810E-1    1.547713480708902E-1    5.704610750545899E-1   -1.556486121972929E-1    5.709068837181116E-1   -1.556992834766236E-1    4.318381270315602E-1    1.546902148810157E-1
 3.988296700438284E5     4.328552581799105E-1    1.546915387399337E-1    5.696750662284396E-1   -1.555758734209080E-1    5.701160491433311E-1   -1.556260886512473E-1    4.326258220281866E-1    1.545901233652567E-1
 4.018726856456762E5     4.336636543645515E-1    1.546107084582157E-1    5.688826829311092E-1   -1.555049601357500E-1    5.693151908159408E-1   -1.555592284163156E-1    4.334314482241673E-1    1.545180752147324E-1
 4.049389190385970E5     4.344498572180450E-1    1.545292960229679E-1    5.680771810138184E-1   -1.554373665111510E-1    5.685131975524353E-1   -1.554803100160109E-1    4.342424107237535E-1    1.544314514454078E-1
 4.080285473711492E5     4.352596690743158E-1    1.544396472608064E-1    5.672707751765482E-1   -1.553621793991347E-1    5.676955193570258E-1   -1.554170438051340E-1    4.350490933769460E-1    1.543485767405889E-1
 4.111417491435081E5     4.360684631988820E-1    1.543662282489178E-1    5.664475774856855E-1   -1.552871081716348E-1    5.668825557957187E-1   -1.553269687490389E-1    4.358478704197029E-1    1.542688975673508E-1
 4.142787042177814E5     4.368802872852873E-1    1.542718739158045E-1    5.656688121823232E-1   -1.552130477847630E-1    5.660901199828672E-1   -1.552594509066095E-1    4.366529546982552E-1    1.541767115600923E-1
 4.174395938283992E5     4.376817801656142E-1    1.541923850762553E-1    5.648646537804329E-1   -1.551380732339342E-1    5.653195088077360E-1   -1.552036520049203E-1    4.374904700011710E-1    1.540986139589188E-1
 4.206246005925882E5     4.384799066805491E-1    1.540956387759324E-1    5.640587069350700E-1   -1.550630949833391E-1    5.645379773464622E-1   -1.551300444736846E-1    4.382961486978164E-1    1.540059485678832E-1
 4.238339085209167E5     4.393024172238529E-1    1.540108594551663E-1    5.632486661217779E-1   -1.549910913983937E-1    5.637118072830649E-1   -1.550486597030623E-1    4.390936059638441E-1    1.539308508163342E-1
 4.270677030279291E5     4.400927685648554E-1    1.539228505593960E-1    5.624363181624678E-1   -1.549081890356468E-1    5.629072719478421E-1   -1.549782446777474E-1    4.398825487428246E-1    1.538370018260537E-1
 4.303261709428567E5     4.409218448753112E-1    1.538354876087482E-1    5.616787991277860E-1   -1.548475791296541E-1    5.621126014594914E-1   -1.548971404795676E-1    4.406687380170617E-1    1.537483802501902E-1
 4.336095005204146E5     4.417499566395228E-1    1.537452179343590E-1    5.608841052609346E-1   -1.547652972078001E-1    5.613195565388717E-1   -1.548205872300727E-1    4.414841290765270E-1    1.536538989941569E-1
 4.369178814516730E5     4.425344712405661E-1    1.536557625153902E-1    5.600400748633347E-1   -1.546764198584458E-1    5.605090985324864E-1   -1.547464660382745E-1    4.422848916510639E-1    1.535625466935068E-1
 4.402515048750198E5     4.433392702469679E-1    1.535557630879370E-1    5.592405703143766E-1   -1.545917214510100E-1    5.596686005461633E-1   -1.546526959782428E-1    4.430935831550002E-1    1.534628267074730E-1
 4.436105633872023E5     4.441499846247785E-1    1.534660042906354E-1    5.584487710973796E-1   -1.545139729269753E-1    5.589002491751590E-1   -1.545716421961467E-1    4.439091280845072E-1    1.533768712749912E-1
 4.469952510544541E5     4.449522425329956E-1    1.533600817452222E-1    5.576399518235857E-1   -1.544260828934774E-1    5.580860484001626E-1   -1.544988236211477E-1    4.447070137806154E-1    1.532835721504199E-1
 4.504057634237097E5     4.457543582524167E-1    1.532601133949191E-1    5.568270649376886E-1   -1.543456849751138E-1    5.572702134538550E-1   -1.544113132184308E-1    4.455266344943113E-1    1.531779082496330E-1
 4.538422975338975E5     4.465674114762718E-1    1.531608067461202E-1    5.560053617102104E-1   -1.542568436198986E-1    5.564642822158825E-1   -1.543255886001431E-1    4.463162660981690E-1    1.530828074415733E-1
 4.573050519273265E5     4.473834226112109E-1    1.530617333831999E-1    5.552244088908442E-1   -1.541816408736595E-1    5.556647170991404E-1   -1.542414409543419E-1    4.471221187155564E-1    1.529902408023880E-1
 4.607942266611566E5     4.481860817905463E-1    1.529658156591158E-1    5.544200873379422E-1   -1.540887801656216E-1    5.548494043665206E-1   -1.541540082205527E-1    4.479176328847077E-1    1.528786421395549E-1
 4.643100233189550E5     4.490035444772008E-1    1.528685255416041E-1    5.536327530253832E-1   -1.540079186725855E-1    5.540541441109018E-1   -1.540652107711936E-1    4.487456910727742E-1    1.527899515233974E-1
 4.678526450223470E5     4.498208241078790E-1    1.527536912877777E-1    5.528364004256699E-1   -1.539127709530294E-1    5.532668214412169E-1   -1.539923086020501E-1    4.495474343110083E-1    1.526787613207534E-1
 4.714222964427450E5     4.506325814724953E-1    1.526381599716135E-1    5.520360463668014E-1   -1.538313046586804E-1    5.524629234224271E-1   -1.538960325654434E-1    4.503340433827905E-1    1.525673276529851E-1
 4.750191838131770E5     4.514103440438609E-1    1.525371138465850E-1    5.512160367763385E-1   -1.537290550751944E-1    5.516548025973181E-1   -1.537988946255156E-1    4.511435252405499E-1    1.524659956163551E-1
 4.786435149402010E5     4.522206451632893E-1    1.524276522717356E-1    5.504188237636384E-1   -1.536337242699253E-1    5.508571521731849E-1   -1.537067207266517E-1    4.519638073982052E-1    1.523515805277067E-1
 4.822954992159092E5     4.530146153607849E-1    1.523161660260412E-1    5.496001921435858E-1   -1.535340026814493E-1    5.500464116011752E-1   -1.536185874533686E-1    4.527529455209818E-1    1.522452380558577E-1
 4.859753476300298E5     4.538360314997955E-1    1.522004969566864E-1    5.488043924056010E-1   -1.534337218333304E-1    5.492464916438019E-1   -1.535140724227629E-1    4.535497354898153E-1    1.521262701435156E-1
 4.896832727821107E5     4.546380966319269E-1    1.520789685464780E-1    5.479983909264339E-1   -1.533303859979598E-1    5.484422903225076E-1   -1.534152536373191E-1    4.543680385705917E-1    1.520119227360975E-1
 4.934194888938060E5     4.554220028533652E-1    1.519507087701041E-1    5.471838540935465E-1   -1.532249871518853E-1    5.476395944814633E-1   -1.533185699292528E-1    4.551755234032789E-1    1.518984505241985E-1
 4.971842118212518E5     4.562217635578283E-1    1.518385442736175E-1    5.464065335892229E-1   -1.531255494296904E-1    5.468260380056834E-1   -1.532031790682732E-1    4.559743718526345E-1    1.517894750000654E-1
 5.009776590675358E5     4.570169555998815E-1    1.517124763594190E-1    5.455944159202825E-1   -1.530229762065997E-1    5.460190260306785E-1   -1.531025084587289E-1    4.567602957682592E-1    1.516617162298143E-1
 5.048000497952673E5     4.578391691662525E-1    1.515958737647026E-1    5.448034854268192E-1   -1.529175018317159E-1    5.452331432958428E-1   -1.530026403674702E-1    4.575586638900065E-1    1.515421380555464E-1
 5.086516048392332E5     4.586566016348641E-1    1.514720215308007E-1    5.440333294808978E-1   -1.528165737292641E-1    5.444346881910608E-1   -1.528984345284788E-1    4.583921407974355E-1    1.514133501725095E-1
 5.125325467191607E5     4.594340735558265E-1    1.513361073362277E-1    5.432267339443495E-1   -1.526975232348960E-1    5.436296935861014E-1   -1.527805107382907E-1    4.591640649610540E-1    1.512954214697428E-1
 5.164430996525706E5     4.602264932522288E-1    1.512049885082791E-1    5.424022647228065E-1   -1.525811267756438E-1    5.428300424952709E-1   -1.526702376502618E-1    4.599455926530103E-1    1.511663986936727E-1
 5.203834895677360E5     4.610478083295744E-1    1.510747469413063E-1    5.416381277401603E-1   -1.524764649965819E-1    5.420467636016607E-1   -1.525638891333526E-1    4.607300668958736E-1    1.510413598096126E-1
 5.243539441167285E5     4.618397053006245E-1    1.509506514767306E-1    5.408268439757790E-1   -1.523581654218661E-1    5.412354700257692E-1   -1.524471624798284E-1    4.615640747623426E-1    1.509107706069400E-1
 5.283546926885745E5     4.626224762210128E-1    1.508135327530808E-1    5.400271878431132E-1   -1.522481755274578E-1    5.404302239035750E-1   -1.523256758817723E-1    4.623389285727080E-1    1.507827275503695E-1
 5.323859664225065E5     4.634394921461562E-1    1.506766492052538E-1    5.392214396050877E-1   -1.521200825314079E-1    5.396303445442597E-1   -1.522079103187086E-1    4.631414967861944E-1    1.506522667317398E-1
 5.364479982213206E5     4.642085941835138E-1    1.505399121512301E-1    5.384308190178132E-1   -1.519989601076457E-1    5.388266754402812E-1   -1.520908355746287E-1    4.639291115954427E-1    1.505076545370506E-1
 5.405410227648258E5     4.650175729452372E-1    1.504133402019902E-1    5.376344205714078E-1   -1.518745442771589E-1    5.380697008527733E-1   -1.519753915974247E-1    4.647353937295005E-1    1.503739824434069E-1
 5.446652765234077E5     4.658045926852354E-1    1.502571030708510E-1    5.368578283995826E-1   -1.517548179040321E-1    5.372605026324166E-1   -1.518386924467742E-1    4.655252473563880E-1    1.502366880143431E-1
 5.488209977716873E5     4.665868816569325E-1    1.501227568519787E-1    5.360404456951243E-1   -1.516183632809874E-1    5.364769350748683E-1   -1.517239848062245E-1    4.663268118776365E-1    1.500980883854374E-1
 5.530084266022880E5     4.673625419559531E-1    1.499734568078438E-1    5.352615785460602E-1   -1.514889583409940E-1    5.357190790676760E-1   -1.516044696170584E-1    4.671144346181180E-1    1.499614075701962E-1
 5.572278049397101E5     4.681708247868012E-1    1.498320469618034E-1    5.344889818340970E-1   -1.513655412874191E-1    5.349259826489183E-1   -1.514763657950330E-1    4.678671595012389E-1    1.498190130056941E-1
 5.614793765543010E5     4.689430799898430E-1    1.496819684247216E-1    5.337020080256591E-1   -1.512409277379905E-1    5.341575984126733E-1   -1.513539301343985E-1    4.686478235799151E-1    1.496631811055247E-1
 5.657633870763436E5     4.697412229266106E-1    1.495336827433711E-1    5.329345043116976E-1   -1.511108296890682E-1    5.333640285394374E-1   -1.512181397443735E-1    4.694399188579878E-1    1.495235596661728E-1
 5.700800840102463E5     4.705023887037900E-1    1.493975443576341E-1    5.321423321559723E-1   -1.509778505492020E-1    5.325625900478086E-1   -1.510801879286617E-1    4.702047764585246E-1    1.493742335247910E-1
 5.744297167488408E5     4.712869182320361E-1    1.492453057041254E-1    5.313750763599726E-1   -1.508438297080979E-1    5.317828833964103E-1   -1.509480562498405E-1    4.709659157719581E-1    1.492308467494735E-1
 5.788125365877954E5     4.720562874719272E-1    1.490892765921354E-1    5.305865070936178E-1   -1.507088998427681E-1    5.310206573945075E-1   -1.508212424121915E-1    4.717339698961588E-1    1.490781374009165E-1
 5.832287967401261E5     4.728214934967157E-1    1.489365166209476E-1    5.297956514798579E-1   -1.505671772220009E-1    5.302300185119670E-1   -1.506758247216211E-1    4.725018718207788E-1    1.489375448382661E-1
 5.876787523508312E5     4.735962279814598E-1    1.487888418980219E-1    5.290134142393118E-1   -1.504270786240387E-1    5.294454886369234E-1   -1.505509828359165E-1    4.732635747471205E-1    1.487757862362038E-1
 5.921626605116295E5     4.743722080325558E-1    1.486310307059548E-1    5.282690308668920E-1   -1.502994043020781E-1    5.287025937369800E-1   -1.504279752791967E-1    4.740242347465141E-1    1.486264183869938E-1
 5.966807802758140E5     4.751503251112024E-1    1.484746394389181E-1    5.275211182266349E-1   -1.501749311364579E-1    5.279256461714135E-1   -1.502748117332209E-1    4.747984174856285E-1    1.484849963282277E-1
 6.012333726732214E5     4.758914214003484E-1    1.483286370797201E-1    5.267396354935993E-1   -1.500225162306945E-1    5.271675043740196E-1   -1.501581438716390E-1    4.755422241682951E-1    1.483205559269842E-1
 6.058207007253073E5     4.766563766101322E-1    1.481636616311499E-1    5.259361903458634E-1   -1.498696011053843E-1    5.263827388580650E-1   -1.500021462466827E-1    4.762996904297562E-1    1.481717338028041E-1
 6.104430294603459E5     4.774212648425787E-1    1.480084987961186E-1    5.251959332058037E-1   -1.497385278091115E-1    5.256516408321900E-1   -1.498897324409988E-1    4.770800462737296E-1    1.480212817800389E-1
 6.151006259287392E5     4.781639594007227E-1    1.478707214569011E-1    5.244224621588158E-1   -1.495897578629759E-1    5.248756723331195E-1   -1.497465238883645E-1    4.778479513607138E-1    1.478739519502272E-1
 6.197937592184512E5     4.789120864849201E-1    1.477161000415095E-1    5.236741177683411E-1   -1.494608553185429E-1    5.241121086629565E-1   -1.496137162157147E-1    4.785894441704071E-1    1.477181302257877E-1
 6.245227004705463E5     4.796728591042415E-1    1.475455209839192E-1    5.229215024051320E-1   -1.493358624822241E-1    5.233654567879490E-1   -1.494690150646555E-1    4.793500473282959E-1    1.475622845461940E-1
 6.292877228948588E5     4.804175351437595E-1    1.473958534937213E-1    5.221813742532340E-1   -1.492088111087772E-1    5.225860508191488E-1   -1.493363850707934E-1    4.800952751146504E-1    1.474179933073585E-1
 6.340891017857760E5     4.811572807936850E-1    1.472399982245022E-1    5.214354077289909E-1   -1.490768249102670E-1    5.218277012725486E-1   -1.492107007911002E-1    4.808444918498496E-1    1.472590729372499E-1
 6.389271145381465E5     4.818904291248645E-1    1.470873842877908E-1    5.206553708545706E-1   -1.489265503365222E-1    5.210779107904818E-1   -1.490632733950795E-1    4.816101607253120E-1    1.471098727509791E-1
 6.438020406633007E5     4.826381312956418E-1    1.469330709693650E-1    5.199038148281917E-1   -1.487857580860026E-1    5.203278509887106E-1   -1.489314093742141E-1    4.823374236887445E-1    1.469560452001900E-1
 6.487141618052023E5     4.834040095215098E-1    1.467878704571974E-1    5.191689198938518E-1   -1.486601026353854E-1    5.195622188068616E-1   -1.487901164250332E-1    4.830596326466737E-1    1.467995812680566E-1
 6.536637617567203E5     4.841461677850126E-1    1.466395414819784E-1    5.184040714452504E-1   -1.485231482076078E-1    5.188186888132834E-1   -1.486629279808090E-1    4.838429206791887E-1    1.466492430432096E-1
 6.586511264760230E5     4.849133266811411E-1    1.464838397580397E-1    5.176500127906791E-1   -1.483833971706915E-1    5.180666987033099E-1   -1.485254940527179E-1    4.845852541053176E-1    1.465058827461480E-1
 6.636765441031042E5     4.856617021890141E-1    1.463198963630671E-1    5.169174909192480E-1   -1.482569282781095E-1    5.173344157358388E-1   -1.484056125953911E-1    4.853560767656989E-1    1.463572814218644E-1
 6.687403049764220E5     4.863937381897558E-1    1.461587032374383E-1    5.161584833542860E-1   -1.481223411452111E-1    5.165953091575488E-1   -1.482726450677380E-1    4.860938953891502E-1    1.462089909794039E-1
 6.738427016496789E5     4.871187368284887E-1    1.460190130287107E-1    5.154048124355429E-1   -1.479707858187720E-1    5.158365818729032E-1   -1.481389925945756E-1    4.868414107890826E-1    1.460556351594521E-1
 6.789840289087215E5     4.878679843242092E-1    1.458636204048330E-1    5.146423200430182E-1   -1.478354849076916E-1    5.150904084306427E-1   -1.480086925618246E-1    4.875919622698725E-1    1.459049587585595E-1
 6.841645837885707E5     4.886207439138961E-1    1.457193319456700E-1    5.138968471107104E-1   -1.476959149239030E-1    5.143435342443093E-1   -1.478776628521035E-1    4.883574393466723E-1    1.457631869779631E-1
 6.893846655905881E5     4.893750407990574E-1    1.455700445492197E-1    5.131625271286773E-1   -1.475683937319472E-1    5.136045040498103E-1   -1.477617315164278E-1    4.890758996398711E-1    1.456130129499763E-1
 6.946445758997592E5     4.900967949714954E-1    1.454163270159737E-1    5.124336526760730E-1   -1.474624725024674E-1    5.128452028707281E-1   -1.476187112466389E-1    4.898201542836318E-1    1.454635437467656E-1
 6.999446186021230E5     4.908471186878999E-1    1.452703445350220E-1    5.116671862730684E-1   -1.473185799012323E-1    5.121100282794989E-1   -1.474945871472439E-1    4.905633765346805E-1    1.453203534191353E-1
 7.052850999023273E5     4.915595201132872E-1    1.451300475041358E-1    5.109180034455093E-1   -1.471782208574935E-1    5.113541453198699E-1   -1.473490720402425E-1    4.912835633213740E-1    1.451647174449242E-1
 7.106663283413178E5     4.923020794206852E-1    1.449831395370902E-1    5.101786102540530E-1   -1.470558103446649E-1    5.106147755838555E-1   -1.472169304692374E-1    4.920261307974482E-1    1.450242120335248E-1
 7.160886148141696E5     4.930426227988594E-1    1.448325360530028E-1    5.094258489128003E-1   -1.469311162811986E-1    5.098699020982377E-1   -1.471079313084709E-1    4.927582888152504E-1    1.448728799896890E-1
 7.215522725880400E5     4.937882332120585E-1    1.446732667013691E-1    5.086929179369010E-1   -1.468178641337599E-1    5.091160674525627E-1   -1.469698053016461E-1    4.934838136808348E-1    1.447280765744519E-1
 7.270576173202734E5     4.945252449115248E-1    1.445324368896407E-1    5.079264240117052E-1   -1.466756670009814E-1    5.083918515115361E-1   -1.468677926318344E-1    4.942364979139016E-1    1.445811688846734E-1
 7.326049670766364E5     4.952547664120166E-1    1.443684664924097E-1    5.071944426506648E-1   -1.465470113355445E-1    5.076572039455842E-1   -1.467428551320354E-1    4.949912097275009E-1    1.444380528133860E-1
 7.381946423496918E5     4.960052647639291E-1    1.442251059144925E-1    5.064572662895823E-1   -1.464331228252199E-1    5.068814850651989E-1   -1.465949893767421E-1    4.957291678929527E-1    1.442898974836171E-1
 7.438269660773217E5     4.967692546412401E-1    1.440774407558569E-1    5.057195895984861E-1   -1.462914637172944E-1    5.061321302977729E-1   -1.464759952653043E-1    4.964586344904726E-1    1.441357295686412E-1
 7.495022636613748E5     4.974981705887219E-1    1.439238174443710E-1    5.049735241057274E-1   -1.461809595111777E-1    5.053709718612630E-1   -1.463455943593329E-1    4.972001158055627E-1    1.439892714648279E-1
 7.552208629864733E5     4.982282633860561E-1    1.437740892653308E-1    5.042166675897928E-1   -1.460351322327293E-1    5.046285630229226E-1   -1.462088316638778E-1    4.979411931057131E-1    1.438402176937621E-1
 7.609830944389519E5     4.989767012229540E-1    1.436128925438399E-1    5.034748605388677E-1   -1.459006102462884E-1    5.038848591753653E-1   -1.460772939430413E-1    4.986870980717807E-1    1.437022390163806E-1
 7.667892909259528E5     4.997257051697040E-1    1.434696499050516E-1    5.027276553845119E-1   -1.457752681753855E-1    5.031454309760597E-1   -1.459557279552933E-1    4.994449400536454E-1    1.435433934758537E-1
 7.726397878946491E5     5.004608078040781E-1    1.433095489667986E-1    5.019667326479960E-1   -1.456318979633542E-1    5.023811220578823E-1   -1.458121333616548E-1    5.001715490014909E-1    1.433907192972001E-1
 7.785349233516312E5     5.012281332186894E-1    1.431631538366813E-1    5.012166529549927E-1   -1.455089172541229E-1    5.016219535597336E-1   -1.456656100874991E-1    5.009070255564630E-1    1.432454099999632E-1
 7.844750378824320E5     5.019555499407334E-1    1.430108707856514E-1    5.004706233832489E-1   -1.453648014212778E-1    5.008641834113613E-1   -1.455486584478221E-1    5.016455778617500E-1    1.430838574431240E-1
 7.904604746712097E5     5.026990638599470E-1    1.428490045790569E-1    4.997312856408005E-1   -1.452382902506889E-1    5.001291774442502E-1   -1.454279301007936E-1    5.023922000713013E-1    1.429330635686599E-1
 7.964915795205662E5     5.034686400285295E-1    1.426810316629570E-1    4.989781099418069E-1   -1.450892149971418E-1    4.993868834054754E-1   -1.452944311651463E-1    5.031489374793713E-1    1.427658169109376E-1
 8.025687008715309E5     5.041991705228956E-1    1.425019949382171E-1    4.982094114823998E-1   -1.449560052016087E-1    4.986373182910016E-1   -1.451496714282445E-1    5.039021038571551E-1    1.426017200906707E-1
 8.086921898236905E5     5.049624370367557E-1    1.423456469184921E-1    4.974813202653567E-1   -1.448196603313501E-1    4.978734991259565E-1   -1.450023002457732E-1    5.046553693437241E-1    1.424462546897537E-1
 8.148624001554718E5     5.056944717618346E-1    1.421837335240711E-1    4.967271010507331E-1   -1.446715929133161E-1    4.971162125372913E-1   -1.448498715248379E-1    5.054054824461069E-1    1.422830392930814E-1
 8.210796883445872E5     5.064371895617895E-1    1.420149030519364E-1    4.959607928090351E-1   -1.445174683308646E-1    4.963702314980511E-1   -1.447134304187734E-1    5.061361091680485E-1    1.421136638256938E-1
 8.273444135886204E5     5.071633408868020E-1    1.418422149580058E-1    4.952129627103608E-1   -1.443870626487545E-1    4.956187737656282E-1   -1.445806870107945E-1    5.068938166931535E-1    1.419470135394977E-1
 8.336569378257846E5     5.078909987680277E-1    1.416770224771970E-1    4.944750390353991E-1   -1.442321832260570E-1    4.948753807094777E-1   -1.444216857291292E-1    5.076164344619393E-1    1.417785111688144E-1
 8.400176257558319E5     5.086559589686519E-1    1.414889212731675E-1    4.937236779005629E-1   -1.440878811369073E-1    4.941311972636588E-1   -1.442782253544718E-1    5.083692890398948E-1    1.416189231276064E-1
 8.464268448611222E5     5.093778067607114E-1    1.413169513104142E-1    4.929800019970516E-1   -1.439266543384470E-1    4.933875091875086E-1   -1.441209246929870E-1    5.090974902327383E-1    1.414359066379547E-1
 8.528849654278599E5     5.101467890127861E-1    1.411402594573547E-1    4.922430316843519E-1   -1.437747602345701E-1    4.926487274224562E-1   -1.439849353227399E-1    5.098546644685034E-1    1.412635220520121E-1
 8.593923605674774E5     5.108767003507545E-1    1.409535683746161E-1    4.914960105431966E-1   -1.436160344600351E-1    4.918939235609748E-1   -1.438070156419008E-1    5.105753767538042E-1    1.410837998579912E-1
 8.659494062381978E5     5.115992389627171E-1    1.407706739823623E-1    4.907434559322091E-1   -1.434472563074970E-1    4.911488353784093E-1   -1.436577556452139E-1    5.113422768393273E-1    1.409071592914561E-1
 8.725564812667536E5     5.123268955720314E-1    1.405721976942072E-1    4.900079725915615E-1   -1.432959977059488E-1    4.904116548462260E-1   -1.434895364532065E-1    5.120819511800575E-1    1.407355223843156E-1
 8.792139673702718E5     5.130692162932361E-1    1.403937721529011E-1    4.892881757322485E-1   -1.431687505780438E-1    4.896596060924790E-1   -1.433379804656458E-1    5.128051640317787E-1    1.405378478294412E-1
 8.859222491783336E5     5.138004577007049E-1    1.402031853276907E-1    4.885371187306413E-1   -1.429810213722828E-1    4.889156229912401E-1   -1.431734962814473E-1    5.135339997979542E-1    1.403426083766764E-1
 8.926817142551860E5     5.145252143817890E-1    1.400189514339732E-1    4.878024852989646E-1   -1.428271852488707E-1    4.881878922785697E-1   -1.430106625919961E-1    5.142464572915113E-1    1.401539713397327E-1
 8.994927531221397E5     5.152470779288809E-1    1.398128752929909E-1    4.870519942917029E-1   -1.426447741029505E-1    4.874557944559694E-1   -1.428514629153664E-1    5.149917887686697E-1    1.399649081466744E-1
 9.063557592801275E5     5.159686453771075E-1    1.396271381291299E-1    4.863179737334685E-1   -1.424666226745039E-1    4.867149432245946E-1   -1.426942135739624E-1    5.157063615881621E-1    1.397720993516275E-1
 9.132711292324457E5     5.166862706324524E-1    1.394345458958263E-1    4.856069428646531E-1   -1.423237416950569E-1    4.859902790686663E-1   -1.425066522472770E-1    5.164152638753544E-1    1.395820548559206E-1
 9.202392625076511E5     5.173936384683056E-1    1.392363109458561E-1    4.848697159967005E-1   -1.421254346103204E-1    4.852609825826133E-1   -1.423473618611145E-1    5.171408651206643E-1    1.394074264957106E-1
 9.272605616826499E5     5.181321768109501E-1    1.390358922164030E-1    4.841573121218821E-1   -1.419666476661831E-1    4.845350833151769E-1   -1.421706735930453E-1    5.178486386846148E-1    1.391983579935371E-1
 9.343354324059531E5     5.188356743067054E-1    1.388354540174441E-1    4.834284968930272E-1   -1.417948105458311E-1    4.838037453212245E-1   -1.420032102082490E-1    5.185582802767976E-1    1.389998481218123E-1
 9.414642834211199E5     5.195583443329460E-1    1.386331167630862E-1    4.827056070809306E-1   -1.416128246011824E-1    4.830855833407869E-1   -1.418319696884437E-1    5.192796866347932E-1    1.388045135546083E-1
 9.486475265903610E5     5.202647551283406E-1    1.384402881214946E-1    4.819928369563650E-1   -1.414452652481621E-1    4.823628893825109E-1   -1.416650613051786E-1    5.199865691708283E-1    1.385979781287180E-1
 9.558855769183410E5     5.209659300126276E-1    1.382556287961940E-1    4.812761783640864E-1   -1.412825773456210E-1    4.816332718432730E-1   -1.414830537929636E-1    5.206966436032232E-1    1.384173110794402E-1
 9.631788525761530E5     5.216860965315699E-1    1.380451395765537E-1    4.805667609144030E-1   -1.411009038583570E-1    4.809375715765169E-1   -1.413389926210501E-1    5.214029041458718E-1    1.382196191283791E-1
 9.705277749254764E5     5.223744740207326E-1    1.378597014400794E-1    4.798449031443945E-1   -1.409238537440266E-1    4.802101687110876E-1   -1.411551770426779E-1    5.220906130104677E-1    1.380264941352842E-1
 9.779327685429282E5     5.230808213384035E-1    1.376425095737314E-1    4.791507682196282E-1   -1.407759574599187E-1    4.794922577755742E-1   -1.409659747946689E-1    5.227943447872184E-1    1.378220914878880E-1
 9.853942612445805E5     5.237822518170240E-1    1.374458585551601E-1    4.784467489573208E-1   -1.405820932697133E-1    4.787924725799124E-1   -1.408091762113156E-1    5.235065342437931E-1    1.376395006831262E-1
 9.929126841106854E5     5.244622745418338E-1    1.372671615974279E-1    4.777388738088723E-1   -1.404036560143192E-1    4.780855347842706E-1   -1.406264799227794E-1    5.241955060370150E-1    1.374458837921405E-1
 1.000488471510578E6     5.251496013658333E-1    1.370754298892731E-1    4.770365420941507E-1   -1.402357726304848E-1    4.773803283612462E-1   -1.404693591842228E-1    5.248857464885580E-1    1.372365581057999E-1
 1.008122061127771E6     5.258246645458331E-1    1.368810327496610E-1    4.763338916467830E-1   -1.400761035637734E-1    4.766681158526723E-1   -1.402979867913037E-1    5.255900337702927E-1    1.370359096738307E-1
 1.015813893985245E6     5.265216477132969E-1    1.367000936730082E-1    4.756273837024494E-1   -1.399004334312373E-1    4.759721171410777E-1   -1.401452477227787E-1    5.262620891543789E-1    1.368571027335075E-1
 1.023564414470923E6     5.272146092025602E-1    1.364858005908078E-1    4.749342811221223E-1   -1.397352281890096E-1    4.752575060831312E-1   -1.399649520385656E-1    5.269253534427910E-1    1.366675558663144E-1
 1.031374070363347E6     5.279121272027736E-1    1.362961413000398E-1    4.742341982209557E-1   -1.395798563336079E-1    4.745591876455504E-1   -1.398033083399122E-1    5.275964208411240E-1    1.364775157445806E-1
 1.039243312857548E6     5.285761642125161E-1    1.360905991236990E-1    4.735400127970970E-1   -1.394310405169805E-1    4.738533836817286E-1   -1.396350800148693E-1    5.282974232289667E-1    1.362919454662909E-1
 1.047172596591111E6     5.292385849435741E-1    1.359209931904490E-1    4.728433924805232E-1   -1.392532587950241E-1    4.731513451790437E-1   -1.394820943631771E-1    5.290024128316735E-1    1.360823911220556E-1
 1.055162379670449E6     5.299540458663775E-1    1.357119280040175E-1    4.721382915704010E-1   -1.390626430467037E-1    4.724727628327263E-1   -1.393127693952022E-1    5.297036467195152E-1    1.358942608857346E-1
 1.063213123697260E6     5.306228937316957E-1    1.355425318083732E-1    4.714404401240269E-1   -1.389194670365669E-1    4.717764298579906E-1   -1.391771654693909E-1    5.303915076736557E-1    1.357186542600440E-1
 1.071325293795198E6     5.313041058872600E-1    1.353619483417327E-1    4.707519266395033E-1   -1.387481124652105E-1    4.710838911973859E-1   -1.389955636117333E-1    5.310875700938174E-1    1.355262727145058E-1
 1.079499358636750E6     5.319866945628746E-1    1.351643964166854E-1    4.700627878504787E-1   -1.386014952025427E-1    4.703795627971462E-1   -1.388429299714996E-1    5.317558268872588E-1    1.353469551846653E-1
 1.087735790470306E6     5.326701448080050E-1    1.349809579029750E-1    4.693572504426647E-1   -1.384351740819684E-1    4.696821968959152E-1   -1.386830648242731E-1    5.324581607534096E-1    1.351657332887331E-1
 1.096035065147453E6     5.333345683265407E-1    1.348137468236027E-1    4.686604397549564E-1   -1.382737772578142E-1    4.689799286915152E-1   -1.385242371775764E-1    5.331531570422565E-1    1.349701873282575E-1
 1.104397662150453E6     5.340171272358067E-1    1.346219675609286E-1    4.679716021855193E-1   -1.380934652384034E-1    4.682756016584701E-1   -1.383722319084542E-1    5.338217668681994E-1    1.347922207233637E-1
 1.112824064619953E6     5.346985511140508E-1    1.344485619589673E-1    4.672755944850005E-1   -1.379382903750052E-1    4.675823685836361E-1   -1.382162930943809E-1    5.345392708385199E-1    1.345966485958033E-1
 1.121314759382903E6     5.354139795186049E-1    1.342630164254488E-1    4.665888129916947E-1   -1.377859771080797E-1    4.668933933030203E-1   -1.380400822630544E-1    5.351978561026453E-1    1.344177697598138E-1
 1.129870236980669E6     5.360823883196716E-1    1.340743380796777E-1    4.658833115400104E-1   -1.376385287269495E-1    4.661769360075049E-1   -1.378776378873134E-1    5.358788162297912E-1    1.342355908933860E-1
 1.138490991697383E6     5.367865755667017E-1    1.338725803120205E-1    4.651991637039405E-1   -1.374926712078557E-1    4.654626463152965E-1   -1.377153330405678E-1    5.365693470154799E-1    1.340447060303225E-1
 1.147177521588496E6     5.374400768702479E-1    1.337004743211876E-1    4.644989567729015E-1   -1.372976959801844E-1    4.647836256972803E-1   -1.375516678338172E-1    5.372716828094126E-1    1.338529242832782E-1
 1.155930328509552E6     5.381432198048929E-1    1.335118177301941E-1    4.637914940196667E-1   -1.371528819000102E-1    4.640793977220993E-1   -1.373823999020427E-1    5.379350068264586E-1    1.336647198002785E-1
 1.164749918145190E6     5.388398348101148E-1    1.333137387185657E-1    4.630950427906593E-1   -1.369836054940293E-1    4.633705503340440E-1   -1.372143673234380E-1    5.386230837094392E-1    1.334843183308052E-1
 1.173636800038349E6     5.395111813569430E-1    1.331366554486010E-1    4.623712683941713E-1   -1.368504987781965E-1    4.626696955416471E-1   -1.370704135357129E-1    5.393321018190667E-1    1.332797243561430E-1
 1.182591487619709E6     5.402242314676335E-1    1.329416322584091E-1    4.616846199110811E-1   -1.366770876672191E-1    4.619538474449071E-1   -1.368945166466647E-1    5.400062245286117E-1    1.330891111934516E-1
 1.191614498237359E6     5.408825387270402E-1    1.327509138648723E-1    4.609715123454252E-1   -1.364939125673894E-1    4.612477337962002E-1   -1.367259362443167E-1    5.406924857049139E-1    1.328926829930097E-1
 1.200706353186678E6     5.415714187613856E-1    1.325508547296180E-1    4.602801987164569E-1   -1.363325021679383E-1    4.605388529560269E-1   -1.365651987772545E-1    5.413824759365210E-1    1.327088931127317E-1
 1.209867577740467E6     5.422563311947699E-1    1.323551892625581E-1    4.595726819685714E-1   -1.361694875592275E-1    4.598508190695244E-1   -1.363844435551733E-1    5.420774981754065E-1    1.325194411489569E-1
 1.219098701179276E6     5.429709915815266E-1    1.321685013829621E-1    4.588746822579105E-1   -1.360016205641171E-1    4.591407894285855E-1   -1.362177139146006E-1    5.427711243986468E-1    1.323294607970832E-1
 1.228400256821998E6     5.436477342093825E-1    1.319692005226318E-1    4.581780680384283E-1   -1.358149569553874E-1    4.584285528607963E-1   -1.360433950579456E-1    5.434447349444355E-1    1.321265717801846E-1
 1.237772782056674E6     5.443479051804989E-1    1.317733993952298E-1    4.574823993241324E-1   -1.356334262056139E-1    4.577149778043715E-1   -1.358865937413423E-1    5.441229413653613E-1    1.318992153297642E-1
 1.247216818371540E6     5.450119654007006E-1    1.315523965667793E-1    4.567646580714888E-1   -1.354640790230044E-1    4.570407142473795E-1   -1.356862422838360E-1    5.448226108994708E-1    1.317168746382309E-1
 1.256732911386322E6     5.457028091659976E-1    1.313485723357460E-1    4.560763911092655E-1   -1.352778922707956E-1    4.563360522987129E-1   -1.354916772735602E-1    5.455171717914871E-1    1.315156699020255E-1
 1.266321610883739E6     5.463895720080429E-1    1.311568500952719E-1    4.553730170217977E-1   -1.351006436336366E-1    4.556483589559626E-1   -1.353143206574811E-1    5.462091789955150E-1    1.313041113381205E-1
 1.275983470841281E6     5.470418999851547E-1    1.309478216341476E-1    4.546702528402877E-1   -1.349195503024495E-1    4.549382033334924E-1   -1.351320828097881E-1    5.469109043692411E-1    1.310962827000891E-1
 1.285719049463211E6     5.477318150736432E-1    1.307306748689473E-1    4.539884878844350E-1   -1.347217400371529E-1    4.542282178850941E-1   -1.349452329955184E-1    5.475713768291628E-1    1.308792555238827E-1
 1.295528909212810E6     5.484119141141889E-1    1.304952060958358E-1    4.532849891035020E-1   -1.345508566177689E-1    4.535458702531607E-1   -1.347649664318890E-1    5.482441861925608E-1    1.306653129804291E-1
 1.305413616844883E6     5.490825602076120E-1    1.302754253598972E-1    4.525955118537119E-1   -1.343574428785618E-1    4.528632307398752E-1   -1.345523559716721E-1    5.489220151843013E-1    1.304419174160636E-1
 1.315373743438491E6     5.497525423602436E-1    1.300520464729625E-1    4.519160176209197E-1   -1.341681379429114E-1    4.521705803140077E-1   -1.343553374318772E-1    5.495977596742236E-1    1.302297974868075E-1
 1.325409864429950E6     5.503919431942893E-1    1.298542323214140E-1    4.512254558471580E-1   -1.339596663808235E-1    4.514677426621243E-1   -1.341639901050503E-1    5.502513383923900E-1    1.300025488601157E-1
 1.335522559646084E6     5.510538975328009E-1    1.296207404370864E-1    4.505367000269931E-1   -1.337745872809698E-1    4.507953479256453E-1   -1.339642764463642E-1    5.509240478738285E-1    1.297883174213924E-1
 1.345712413337699E6     5.517479843455155E-1    1.294175110490458E-1    4.498775112338523E-1   -1.335812724486161E-1    4.501184594512300E-1   -1.337642637961831E-1    5.515753571022529E-1    1.295556994763153E-1
 1.355980014213373E6     5.523981787892309E-1    1.291897514489221E-1    4.491934074832322E-1   -1.333832339366876E-1    4.494449468118226E-1   -1.335623867071447E-1    5.522486044759971E-1    1.293300986818712E-1
 1.366325955473440E6     5.530522296428473E-1    1.289501320703122E-1    4.485272813961558E-1   -1.331727264868372E-1    4.487646614909668E-1   -1.333594191276548E-1    5.529023400693110E-1    1.291286498093230E-1
 1.376750834844268E6     5.537191796307195E-1    1.287151925057543E-1    4.478452024108138E-1   -1.329909387733129E-1    4.480936475618076E-1   -1.331765684517366E-1    5.535645209238804E-1    1.288864307025618E-1
 1.387255254612807E6     5.543666415183347E-1    1.284977142301301E-1    4.471772701804924E-1   -1.327949166300341E-1    4.474369897998391E-1   -1.329699946331441E-1    5.542435337670559E-1    1.286846939516279E-1
 1.397839821661363E6     5.550008016355549E-1    1.282801144960258E-1    4.465149849017450E-1   -1.325820479860787E-1    4.467533656715806E-1   -1.327708013940369E-1    5.548777463734761E-1    1.284419800994729E-1
 1.408505147502673E6     5.556590553300026E-1    1.280694168954507E-1    4.458387297237879E-1   -1.323981134747857E-1    4.460774615282187E-1   -1.325732029390941E-1    5.555199903809764E-1    1.282119215100003E-1
 1.419251848315235E6     5.563111411968411E-1    1.278519956419115E-1    4.451862750029216E-1   -1.322046859312578E-1    4.454215548590889E-1   -1.323809831099460E-1    5.561954604165490E-1    1.279892007497915E-1
 1.430080544978898E6     5.569758679030105E-1    1.276363021684841E-1    4.445417313998301E-1   -1.319907508707802E-1    4.447662447285228E-1   -1.321828612933597E-1    5.568201287862131E-1    1.277574567345071E-1
 1.440991863110751E6     5.576047488018550E-1    1.274103782519438E-1    4.438726874191696E-1   -1.317988251743282E-1    4.441305327290778E-1   -1.319821884547173E-1    5.574423702918224E-1    1.275468862229482E-1
 1.451986433101243E6     5.582418946823617E-1    1.271794276414760E-1    4.432268926147580E-1   -1.316054665526618E-1    4.434560573234402E-1   -1.317904386646824E-1    5.580850950084955E-1    1.273264036046556E-1
 1.463064890150622E6     5.588889956578831E-1    1.269666674873972E-1    4.425594913964290E-1   -1.314286091135373E-1    4.427928196959837E-1   -1.315948717353952E-1    5.587314125576391E-1    1.271016576922626E-1
 1.474227874305625E6     5.595034753857260E-1    1.267455124570457E-1    4.419067347250329E-1   -1.312327952795433E-1    4.421602518745411E-1   -1.313891113767053E-1    5.593713354725532E-1    1.268973566389170E-1
 1.485476030496454E6     5.601584396341271E-1    1.265289324413171E-1    4.412584418523905E-1   -1.310465076239324E-1    4.415088258858093E-1   -1.311966111703544E-1    5.600067971181302E-1    1.266774139370714E-1
 1.496810008574050E6     5.607929988424284E-1    1.263228390961940E-1    4.406077266327600E-1   -1.308463024329617E-1    4.408642545355261E-1   -1.310051460705748E-1    5.606337097887767E-1    1.264617901325159E-1
 1.508230463347619E6     5.614219218563730E-1    1.261197566392650E-1    4.399514791187831E-1   -1.306795995692841E-1    4.402080647775802E-1   -1.308198332352592E-1    5.612791193067717E-1    1.262483687571178E-1
 1.519738054622472E6     5.620609724404585E-1    1.259159053025281E-1    4.393178465414771E-1   -1.304794088071523E-1    4.395755094908065E-1   -1.306366369089870E-1    5.619067098907529E-1    1.260237325644540E-1
 1.531333447238147E6     5.627075024875348E-1    1.257050736328531E-1    4.386739038746621E-1   -1.302942079155101E-1    4.389260810263729E-1   -1.304391095555041E-1    5.625532848726532E-1    1.258244456152296E-1
 1.543017311106810E6     5.633436018542791E-1    1.254834718174298E-1    4.380390257030254E-1   -1.301094524949374E-1    4.382922545176811E-1   -1.302466169928551E-1    5.631741582550892E-1    1.256013455107657E-1
 1.554790321251977E6     5.639647856499495E-1    1.252778548594446E-1    4.373784166083295E-1   -1.299310997014058E-1    4.376393182103592E-1   -1.300611802776295E-1    5.638141642629091E-1    1.254023347342525E-1
 1.566653157847488E6     5.645934269641256E-1    1.250669246109324E-1    4.367373378490850E-1   -1.297453911524511E-1    4.369781510283488E-1   -1.298825874205228E-1    5.644515497869643E-1    1.251741817436556E-1
 1.578606506256824E6     5.652214115922906E-1    1.248523615436164E-1    4.360780311996172E-1   -1.295708365198751E-1    4.363327155807555E-1   -1.296898629150798E-1    5.650870747142474E-1    1.249781056742549E-1
 1.590651057072690E6     5.658429025314540E-1    1.246491219679905E-1    4.354239679689878E-1   -1.293715467435361E-1    4.356835449775603E-1   -1.295072917066103E-1    5.657243783489997E-1    1.247720988280193E-1
 1.602787506156919E6     5.664804399495206E-1    1.244335031087990E-1    4.347652361890376E-1   -1.292040134878674E-1    4.350284160425248E-1   -1.293196765108912E-1    5.663583895630484E-1    1.245539625335541E-1
 1.615016554680682E6     5.670883693810245E-1    1.242219179455191E-1    4.341001301297924E-1   -1.290143253028936E-1    4.343933522090717E-1   -1.291297150037705E-1    5.669813866474694E-1    1.243442702973018E-1
 1.627338909164981E6     5.677406918173689E-1    1.240130355560285E-1    4.334651349781945E-1   -1.288280065602831E-1    4.337162266267987E-1   -1.289535621452824E-1    5.676189275206810E-1    1.241327977869269E-1
 1.639755281521474E6     5.683880013170908E-1    1.237990171188633E-1    4.328240671609575E-1   -1.286414580897903E-1    4.330501469682941E-1   -1.287686097917832E-1    5.682450686601080E-1    1.239156613487843E-1
 1.652266389093622E6     5.690218619921968E-1    1.235877363174722E-1    4.321833320547397E-1   -1.284550492883419E-1    4.324104426342386E-1   -1.285774655537686E-1    5.688897647895909E-1    1.237160198565999E-1
 1.664872954698102E6     5.696281217175102E-1    1.233660399741625E-1    4.315215852944532E-1   -1.282681528082280E-1    4.317462377964521E-1   -1.283902641053730E-1    5.695126054730271E-1    1.234837534523469E-1
 1.677575706666590E6     5.702633871599692E-1    1.231519704690745E-1    4.308594782096804E-1   -1.280844225599165E-1    4.310907554451781E-1   -1.281905433519377E-1    5.701486170180831E-1    1.232781104079888E-1
 1.690375378887833E6     5.708887421736403E-1    1.229275785733252E-1    4.302045303787756E-1   -1.278930418419698E-1    4.304525939287821E-1   -1.279987478773707E-1    5.707574479693913E-1    1.230455218946202E-1
 1.703272710850043E6     5.715352724295643E-1    1.227149678181704E-1    4.295524334189976E-1   -1.277009371813265E-1    4.297951480496673E-1   -1.278068308925737E-1    5.714063232235858E-1    1.228331938407171E-1
 1.716268447683636E6     5.721974988965495E-1    1.224952437141536E-1    4.289125180890163E-1   -1.275059955522778E-1    4.291398942992616E-1   -1.276056843610243E-1    5.720467260432097E-1    1.226008788968387E-1
 1.729363340204262E6     5.728100136937838E-1    1.222530389387548E-1    4.282411039561905E-1   -1.273107182201309E-1    4.284929196506890E-1   -1.274146656755766E-1    5.726736149541340E-1    1.223708776565407E-1
 1.742558144956193E6     5.734307061661464E-1    1.220483132643823E-1    4.275954091310308E-1   -1.271097048876735E-1    4.278469078264273E-1   -1.272140301330697E-1    5.733136273823685E-1    1.221593305214402E-1
 1.755853624256030E6     5.740550136677559E-1    1.218039957942702E-1    4.269495910465612E-1   -1.269056725647561E-1    4.272151305989731E-1   -1.270012723633539E-1    5.739391108554468E-1    1.219332917307844E-1
 1.769250546236744E6     5.746988648922131E-1    1.215796416558895E-1    4.263000163392292E-1   -1.267093722777614E-1    4.265729083512984E-1   -1.268039342927615E-1    5.745793147025039E-1    1.216916222173963E-1
 1.782749684892061E6     5.753172832502623E-1    1.213373162269323E-1    4.256537295619995E-1   -1.265104121957009E-1    4.259374445756811E-1   -1.265915190507856E-1    5.752209603535845E-1    1.214704946990111E-1
 1.796351820121167E6     5.759310597209544E-1    1.211175319679836E-1    4.250085356715727E-1   -1.262956413712115E-1    4.252667934989802E-1   -1.263884571758659E-1    5.758216572375267E-1    1.212227824109720E-1
 1.810057737773773E6     5.765541852088840E-1    1.208730221709956E-1    4.243724006135505E-1   -1.260935964763531E-1    4.246250263890214E-1   -1.261799218832255E-1    5.764377149578604E-1    1.209754682361024E-1
 1.823868229695514E6     5.772107646851308E-1    1.206529814345521E-1    4.237358362569368E-1   -1.258872425026343E-1    4.239986798981223E-1   -1.259732039024455E-1    5.770400721501474E-1    1.207384734916389E-1
 1.837784093773698E6     5.778146017003689E-1    1.204011103266311E-1    4.231076294662878E-1   -1.256784514823268E-1    4.233525034145962E-1   -1.257572654746199E-1    5.776551459313224E-1    1.205007988821517E-1
 1.851806133983411E6     5.784090169909565E-1    1.201670212585456E-1    4.224884816926224E-1   -1.254608776437725E-1    4.227245689622393E-1   -1.255527529976201E-1    5.783004862095100E-1    1.202680136802797E-1
 1.865935160433950E6     5.790256501072347E-1    1.199244589967760E-1    4.218581267497059E-1   -1.252491304964619E-1    4.220833250651406E-1   -1.253366770495440E-1    5.788948368987120E-1    1.200279383283878E-1
 1.880171989415638E6     5.796355604193089E-1    1.196889825075304E-1    4.212317292178328E-1   -1.250225932044682E-1    4.214616150155478E-1   -1.251231549421089E-1    5.795057275151909E-1    1.197873959006733E-1
 1.894517443446981E6     5.802388952050399E-1    1.194583873191480E-1    4.206135504351194E-1   -1.248203231935359E-1    4.208189532952289E-1   -1.249099960281900E-1    5.800704506495684E-1    1.195336150754601E-1
 1.908972351322182E6     5.808329486948469E-1    1.192024683113241E-1    4.200020237345737E-1   -1.246137082060185E-1    4.202029884343148E-1   -1.246927758415865E-1    5.806948571307374E-1    1.192827098340662E-1
 1.923537548159045E6     5.814124479672043E-1    1.189589217826095E-1    4.193938702690100E-1   -1.243994719774604E-1    4.196055078741170E-1   -1.244772496931192E-1    5.812677029576117E-1    1.190493893787125E-1
 1.938213875447196E6     5.820547648394461E-1    1.187280340512119E-1    4.187908179157754E-1   -1.241929335340137E-1    4.189641659167583E-1   -1.242697599333447E-1    5.818700421462999E-1    1.188125690444481E-1
 1.953002181096708E6     5.825962118468729E-1    1.184742596825839E-1    4.181535216172542E-1   -1.239846880423306E-1    4.183730585789412E-1   -1.240547821051057E-1    5.824997283684700E-1    1.185842805796255E-1
 1.967903319487111E6     5.831960722444128E-1    1.182223370945712E-1    4.175441918279508E-1   -1.237828509258974E-1    4.177760195089986E-1   -1.238536577887247E-1    5.830983661180410E-1    1.183428916348480E-1
 1.982918151516703E6     5.837881309784670E-1    1.180001527064711E-1    4.169347222958396E-1   -1.235707961829959E-1    4.171560047106654E-1   -1.236448980266930E-1    5.836992337164789E-1    1.180998772044108E-1
 1.998047544652348E6     5.843915125667892E-1    1.177643386531204E-1    4.163206460616349E-1   -1.233632628052252E-1    4.165289393785456E-1   -1.234345603869813E-1    5.842759126822440E-1    1.178667930806276E-1
 2.013292372979546E6     5.849439861069280E-1    1.175213853441003E-1    4.157098915434178E-1   -1.231604448517739E-1    4.159140426676454E-1   -1.232271922266634E-1    5.848454979069558E-1    1.176192448970925E-1
 2.028653517252947E6     5.855458340699793E-1    1.172886413575946E-1    4.151142555443618E-1   -1.229661963033106E-1    4.153262434561593E-1   -1.230213064065435E-1    5.854528746082851E-1    1.173896736508579E-1
 2.044131864947255E6     5.861383710566691E-1    1.170679775740633E-1    4.145032910859928E-1   -1.227639398800405E-1    4.147024932311175E-1   -1.228142050488954E-1    5.860052247641970E-1    1.171449410851969E-1
 2.059728310308467E6     5.866975043125815E-1    1.168251403180654E-1    4.138800665311433E-1   -1.225522335052004E-1    4.140941243357806E-1   -1.226102784686588E-1    5.866006855492871E-1    1.169204484175345E-1
 2.075443754405562E6     5.872680789539102E-1    1.165902713028760E-1    4.132787345555360E-1   -1.223609844460248E-1    4.135003938880689E-1   -1.224017375198803E-1    5.871855345397483E-1    1.166909799296983E-1
 2.091279105182548E6     5.878561302313339E-1    1.163725434248615E-1    4.126869433602336E-1   -1.221603027908681E-1    4.128961876289837E-1   -1.222002090742457E-1    5.877667436898188E-1    1.164617422535357E-1
 2.107235277510921E6     5.884307188913204E-1    1.161337729331766E-1    4.120799254491261E-1   -1.219630754762833E-1    4.122626034932674E-1   -1.219992987707970E-1    5.883271437861214E-1    1.162289102008956E-1
 2.123313193242529E6     5.890120824092786E-1    1.159124071330910E-1    4.114805548241203E-1   -1.217659516126989E-1    4.116475427479191E-1   -1.217953063174881E-1    5.889259179770450E-1    1.159975939390202E-1
 2.139513781262815E6     5.895827578364362E-1    1.156787582054825E-1    4.108830105889296E-1   -1.215767159872180E-1    4.110461498149258E-1   -1.215901835694135E-1    5.894949386929177E-1    1.157678633266764E-1
 2.155837977544490E6     5.902038218904082E-1    1.154667271403646E-1    4.102684315076966E-1   -1.213804860081917E-1    4.104336020958185E-1   -1.213821813577057E-1    5.900691167852369E-1    1.155298559139221E-1
 2.172286725201612E6     5.907903605336703E-1    1.152356458542567E-1    4.096723393925892E-1   -1.211905695159342E-1    4.098265244470514E-1   -1.211793339631737E-1    5.906348845151950E-1    1.153074555967864E-1
 2.188860974544063E6     5.913527492224251E-1    1.150082258322047E-1    4.090605385522992E-1   -1.209869544619915E-1    4.092108393989272E-1   -1.209684820301594E-1    5.912238881126609E-1    1.150620083047607E-1
 2.205561683132472E6     5.919260829940360E-1    1.147892018404321E-1    4.084439008109413E-1   -1.207908546101160E-1    4.086162148767354E-1   -1.207676892208197E-1    5.918304862673548E-1    1.148336947523970E-1
 2.222389815833514E6     5.925057349408438E-1    1.145460621770471E-1    4.078396783423624E-1   -1.205931533081128E-1    4.079974402762531E-1   -1.205505334983125E-1    5.924188680803055E-1    1.145970675839576E-1
 2.239346344875663E6     5.930905789433127E-1    1.143325178554045E-1    4.072260512736383E-1   -1.203960611609493E-1    4.073915913232724E-1   -1.203282176734692E-1    5.929869470988798E-1    1.143683344629911E-1
 2.256432249905369E6     5.936506955826549E-1    1.141175473904332E-1    4.066202834058784E-1   -1.201931001968402E-1    4.067700753561214E-1   -1.201097355525586E-1    5.935721528126582E-1    1.141200137133172E-1
 2.273648518043640E6     5.942448405176832E-1    1.138833257642837E-1    4.060073549285493E-1   -1.199895272284040E-1    4.061688742101559E-1   -1.198917138838575E-1    5.941711374842600E-1    1.138851281654571E-1
 2.290996143943099E6     5.948299690679202E-1    1.136576017044471E-1    4.054053796372450E-1   -1.197995622703432E-1    4.055511762375358E-1   -1.196596773398910E-1    5.947224526399817E-1    1.136427997479300E-1
 2.308476129845417E6     5.954098007198851E-1    1.134366021571626E-1    4.048005438033749E-1   -1.195959646130099E-1    4.049641367329604E-1   -1.194374905321850E-1    5.952978464496658E-1    1.133936862128637E-1
 2.326089485639235E6     5.959850581338636E-1    1.132000979863888E-1    4.041890751986235E-1   -1.193881476444625E-1    4.043722766903372E-1   -1.192077718292397E-1    5.958574423679351E-1    1.131601147914611E-1
 2.343837228918507E6     5.965762853127083E-1    1.129841279978992E-1    4.035767180099671E-1   -1.191749709334586E-1    4.037737740690344E-1   -1.189696009771953E-1    5.964237888966085E-1    1.129147946121505E-1
 2.361720385041283E6     5.971644251046506E-1    1.127398638962519E-1    4.029612468063136E-1   -1.189703299598346E-1    4.032046046974678E-1   -1.187430714752151E-1    5.970232237722207E-1    1.126823454165135E-1
 2.379739987188969E6     5.977358118638949E-1    1.125110035744498E-1    4.023659166917177E-1   -1.187437565403791E-1    4.026229254749493E-1   -1.185149932177462E-1    5.975871149667263E-1    1.124393989901603E-1
 2.397897076425990E6     5.983232647248391E-1    1.122698882819838E-1    4.017602081281225E-1   -1.185328219119111E-1    4.020446333262129E-1   -1.182887651611295E-1    5.981661658367329E-1    1.121995557551117E-1
 2.416192701759947E6     5.988848547697410E-1    1.120371739352855E-1    4.011523436607218E-1   -1.182942891778051E-1    4.014819064381493E-1   -1.180797855157280E-1    5.987442166494109E-1    1.119609395162453E-1
 2.434627920202243E6     5.994617984099335E-1    1.117813258767301E-1    4.005460541912984E-1   -1.180764319706693E-1    4.009131248525112E-1   -1.178462783847332E-1    5.992954414727391E-1    1.117085030692833E-1
 2.453203796829114E6     6.000491906752058E-1    1.115359938555105E-1    3.999569849828644E-1   -1.178452984541698E-1    4.003394513275487E-1   -1.176347584606729E-1    5.998506764898264E-1    1.114642441719235E-1
 2.471921404843189E6     6.006465127918277E-1    1.112768132921067E-1    3.993789999396120E-1   -1.176142603240630E-1    3.997688814745958E-1   -1.174346396572650E-1    6.004179743317077E-1    1.112277421021268E-1
 2.490781825635486E6     6.012035075348450E-1    1.110386194578086E-1    3.987968759106812E-1   -1.173936759660205E-1    3.992059082195281E-1   -1.172025097681655E-1    6.009673066803086E-1    1.109860856524183E-1
 2.509786148847881E6     6.029780576049827E-1    1.082918531545649E-1    4.001489685226851E-1   -1.150665687771121E-1    3.984821328703804E-1   -1.196526938182900E-1    6.024105916881219E-1    1.122436516887209E-1
 2.528935472436085E6     6.035166495997716E-1    1.081603599790598E-1    3.996331284838419E-1   -1.145620895509835E-1    3.978336533510614E-1   -1.196932159773315E-1    6.029411421243158E-1    1.120375105163260E-1
 2.548230902733043E6     6.040753902379434E-1    1.080208293721827E-1    3.990257593387173E-1   -1.143731986651678E-1    3.972306909479286E-1   -1.195432968338822E-1    6.034878625755901E-1    1.117911109529832E-1
 2.567673554512876E6     6.046408013655153E-1    1.076194399926706E-1    3.984781749551750E-1   -1.141402036184247E-1    3.966392757688496E-1   -1.193165301065245E-1    6.040112163109471E-1    1.115431996409585E-1
 2.587264551055275E6     6.051767263762940E-1    1.075542887294035E-1    3.979774942598471E-1   -1.138133526086020E-1    3.961046499587414E-1   -1.191112790516955E-1    6.046008323178609E-1    1.112080548693442E-1
 2.607005024210399E6     6.057498059720043E-1    1.074017056784302E-1    3.974259046833181E-1   -1.135647564538129E-1    3.956104668979727E-1   -1.187314591993453E-1    6.051454690095895E-1    1.109919586864604E-1
 2.626896114464281E6     6.063559229199572E-1    1.072626495047860E-1    3.968520425633903E-1   -1.134125464152168E-1    3.950764437949988E-1   -1.185185999017986E-1    6.056749926701450E-1    1.107620182340908E-1
 2.646938971004693E6     6.068950761138259E-1    1.069421410162464E-1    3.962920594595996E-1   -1.132140745036935E-1    3.945100301924800E-1   -1.182953980812278E-1    6.062191691157781E-1    1.105091835640749E-1
 2.667134751787555E6     6.074501822551017E-1    1.067791692240932E-1    3.956386188827340E-1   -1.131407494646997E-1    3.939968005719470E-1   -1.179796277697501E-1    6.067624775394921E-1    1.103473461358530E-1
 2.687484623603833E6     6.080076906629743E-1    1.064880463913565E-1    3.951479506957456E-1   -1.128585885055646E-1    3.934706466966293E-1   -1.178023453634081E-1    6.073432869182805E-1    1.100669323457868E-1
 2.707989762146940E6     6.085552971930134E-1    1.063893797186413E-1    3.945872061532262E-1   -1.126395015476667E-1    3.929132826385660E-1   -1.175630469456613E-1    6.078796815182379E-1    1.097886441554008E-1
 2.728651352080688E6     6.090859971908287E-1    1.061485664321244E-1    3.940501816284966E-1   -1.124221170967797E-1    3.924321840163272E-1   -1.172608554345695E-1    6.084060638241021E-1    1.095821990884496E-1
 2.749470587107692E6     6.096544719483625E-1    1.059286163695321E-1    3.934979372237768E-1   -1.121682762844687E-1    3.918812220780928E-1   -1.169972475192994E-1    6.089834544264466E-1    1.092837005883183E-1
 2.770448670038360E6     6.101787569626973E-1    1.056734769229591E-1    3.928820953556578E-1   -1.120877618957299E-1    3.913507747244934E-1   -1.167752194736737E-1    6.095064839762195E-1    1.090618131642913E-1
 2.791586812860380E6     6.107404404394708E-1    1.054687699684402E-1    3.923030768977041E-1   -1.119079481212538E-1    3.908259540464415E-1   -1.165147476321596E-1    6.100413070253818E-1    1.087232577224048E-1
 2.812886236808732E6     6.112833825980908E-1    1.052988646833815E-1    3.917583233939196E-1   -1.116382887746818E-1    3.902410404475467E-1   -1.163461346399447E-1    6.105894951657962E-1    1.084925613323270E-1
 2.834348172436268E6     6.118149263833145E-1    1.050379298268474E-1    3.912097603735560E-1   -1.114273235238705E-1    3.896967842316352E-1   -1.161227507994135E-1    6.111682577306757E-1    1.083212941210385E-1
 2.855973859684773E6     6.123880888008602E-1    1.048853411470294E-1    3.906673534798439E-1   -1.112439458239996E-1    3.891462895127329E-1   -1.159125587844330E-1    6.116955622963542E-1    1.080135270103757E-1
 2.877764547956619E6     6.129134202703703E-1    1.046124276152469E-1    3.901879950079897E-1   -1.109128366221565E-1    3.885920638688294E-1   -1.156726482560127E-1    6.122247030146170E-1    1.076843842493372E-1
 2.899721496186967E6     6.134791233268266E-1    1.043748171895539E-1    3.895680054002945E-1   -1.108413128076508E-1    3.881038389425802E-1   -1.153987093562987E-1    6.127661877472439E-1    1.075533169798041E-1
 2.921845972916440E6     6.140520742644026E-1    1.041831556407841E-1    3.890538671348378E-1   -1.105761556665699E-1    3.875412448546913E-1   -1.151628088309804E-1    6.133564517550909E-1    1.072730241845091E-1
 2.944139256364495E6     6.146212671506502E-1    1.039208166748546E-1    3.884896093956586E-1   -1.104147575594309E-1    3.870453726988234E-1   -1.149049215255036E-1    6.138820833567734E-1    1.070885367814944E-1
 2.966602634503201E6     6.151427923553742E-1    1.034618741713587E-1    3.878502303859142E-1   -1.103351137187965E-1    3.864719856483517E-1   -1.147327078174094E-1    6.144577560384596E-1    1.068639742005302E-1
 2.989237405131679E6     6.156966844570456E-1    1.034373853792733E-1    3.873346928259090E-1   -1.100738546429193E-1    3.859101373651720E-1   -1.144733806367812E-1    6.149776935329759E-1    1.066065076051851E-1
 3.012044875951098E6     6.160236467977037E-1    1.043914918821770E-1    3.869488863811718E-1   -1.107650569105442E-1    3.858220252797457E-1   -1.126653460566617E-1    6.158026323345542E-1    1.061061349749531E-1
 3.035026364640187E6     6.165844725406121E-1    1.042653225965182E-1    3.864267968755993E-1   -1.105011663742874E-1    3.852525481660498E-1   -1.124829154779197E-1    6.163368511771423E-1    1.058257260993791E-1
 3.058183198931389E6     6.171161386629638E-1    1.039829055521259E-1    3.858969060998402E-1   -1.102890066019629E-1    3.847435248779238E-1   -1.122333701166836E-1    6.168792762219913E-1    1.056307165971707E-1
 3.081516716687564E6     6.176475119543311E-1    1.037607867814949E-1    3.854129165607341E-1   -1.099543050680108E-1    3.842178690711133E-1   -1.119840951012457E-1    6.174091138664899E-1    1.053653473846843E-1
 3.105028265979277E6     6.181867570582762E-1    1.035396891740938E-1    3.848133015253209E-1   -1.098020119869070E-1    3.837152542691669E-1   -1.117443758716342E-1    6.179694423128387E-1    1.051331719160108E-1
 3.128719205162701E6     6.186912077946825E-1    1.031952827832467E-1    3.842470249982808E-1   -1.096752855893123E-1    3.831264144988979E-1   -1.115728209317975E-1    6.184827695508860E-1    1.048371943634016E-1
 3.152590902958065E6     6.192121905268959E-1    1.027529424145015E-1    3.836609380254361E-1   -1.095668916159100E-1    3.826533888942912E-1   -1.113053128501235E-1    6.190050491771224E-1    1.046328033379174E-1
 3.176644738528751E6     6.197465288421091E-1    1.025072573006595E-1    3.831699832734018E-1   -1.092704052860427E-1    3.820878174053776E-1   -1.111051810999635E-1    6.195350204147858E-1    1.042931258515749E-1
 3.200882101560967E6     6.202705270165758E-1    1.023225581837937E-1    3.826742434297268E-1   -1.090095703728008E-1    3.815755205834048E-1   -1.108965948245830E-1    6.200786364634242E-1    1.041137047317003E-1
 3.225304392344028E6     6.208038834968969E-1    1.021198571914605E-1    3.821524248997371E-1   -1.088249441997399E-1    3.810493971551528E-1   -1.107005373685157E-1    6.205971557667003E-1    1.037205636587941E-1
 3.249913021851289E6     6.213287393054993E-1    1.019263602276867E-1    3.816520741554572E-1   -1.085271934665716E-1    3.805128695299872E-1   -1.104701433388451E-1    6.211096570895699E-1    1.035788967808730E-1
 3.274709411821612E6     6.218280808094119E-1    1.014982989236964E-1    3.811045560382186E-1   -1.083805762882937E-1    3.800705885800580E-1   -1.101421307860923E-1    6.216175977213590E-1    1.033490222364342E-1
 3.299694994841541E6     6.223350845564350E-1    1.012788985086744E-1    3.806086731267598E-1   -1.081427788367663E-1    3.795254225218859E-1   -1.099908320860648E-1    6.221037439774602E-1    1.029810417423925E-1
 3.324871214428060E6     6.228714880475291E-1    1.008038086344624E-1    3.801109981050709E-1   -1.076373345822230E-1    3.787984976669009E-1   -1.101301631217115E-1    6.225334548178435E-1    1.028734740830265E-1
 3.350239525111979E6     6.233760716342985E-1    1.004485430638588E-1    3.795879981138622E-1   -1.074436870005067E-1    3.782919661590359E-1   -1.099052936401124E-1    6.230292009925941E-1    1.025322344206452E-1
 3.375801392522001E6     6.238807764537115E-1    1.003226818274355E-1    3.790624485995238E-1   -1.072453393147534E-1    3.777400872005295E-1   -1.097105510668058E-1    6.235214335527693E-1    1.022776939482274E-1
 3.401558293469354E6     6.244343911988387E-1    1.003164603963899E-1    3.785869632860870E-1   -1.072489588424492E-1    3.773841566384258E-1   -1.091996585572564E-1    6.241446173472511E-1    1.019503775495850E-1
 3.427511716033138E6     6.249709639624654E-1    1.000919528775780E-1    3.780505280627456E-1   -1.070588254641101E-1    3.768347534567093E-1   -1.090147329246648E-1    6.246561332870728E-1    1.017405080851895E-1
 3.453663159646295E6     6.254476190777806E-1    9.986785338742574E-2    3.775322852227011E-1   -1.068531594515622E-1    3.763869905709228E-1   -1.087485249845848E-1    6.251915897740759E-1    1.015731137164194E-1
 3.480014135182226E6     6.259611171993145E-1    9.960132290151369E-2    3.770207805419042E-1   -1.066198998613499E-1    3.758173723523376E-1   -1.085879019349524E-1    6.256842753299133E-1    1.012153670224907E-1
 3.506566165042107E6     6.265121747827396E-1    9.957968394361028E-2    3.764839287060283E-1   -1.066894181690059E-1    3.755069255331943E-1   -1.080990086303382E-1    6.262918464327893E-1    1.009299751010923E-1
 3.533320783242811E6     6.270532661276836E-1    9.929449385959165E-2    3.759593147480527E-1   -1.064613162579025E-1    3.749765801205627E-1   -1.078878800781940E-1    6.268330631534096E-1    1.008335101084284E-1
 3.560279535505542E6     6.275395086921743E-1    9.900362505162622E-2    3.754333231932104E-1   -1.062791233029640E-1    3.744673136852631E-1   -1.077430757949176E-1    6.273160930580546E-1    1.004321745620504E-1
 3.587443979345170E6     6.280767405954185E-1    9.879680151879709E-2    3.749476220577238E-1   -1.060126404383344E-1    3.739554406196075E-1   -1.074967416311030E-1    6.277807640776508E-1    1.000582828857902E-1
 3.614815684160168E6     6.285862834357506E-1    9.846293572002696E-2    3.743898603377996E-1   -1.058686903503157E-1    3.734677275800563E-1   -1.072574322572258E-1    6.283046593303631E-1    9.974209595915623E-2
 3.642396231323309E6     6.290985216585284E-1    9.829081661150195E-2    3.739615706675862E-1   -1.055278431945963E-1    3.729022208108012E-1   -1.071305976409510E-1    6.288293433984836E-1    9.952549992834533E-2
 3.670187214273024E6     6.297169285969882E-1    9.674665190419873E-2    3.733521283680598E-1   -1.040859000019533E-1    3.718297439303096E-1   -1.086368317118301E-1    6.289386083259429E-1    9.959354088449054E-2
 3.698190238605455E6     6.302034307499238E-1    9.637397628708139E-2    3.728376360455871E-1   -1.038769319795445E-1    3.712769485973489E-1   -1.084385947372138E-1    6.294503541411742E-1    9.926393478001080E-2
 3.726406922167240E6     6.307056537300333E-1    9.611487286454959E-2    3.723472840953455E-1   -1.036326684121988E-1    3.708352942849008E-1   -1.082024166789150E-1    6.299614168444767E-1    9.911717528397393E-2
 3.754838895148946E6     6.312000567294781E-1    9.593455618776667E-2    3.718371195047992E-1   -1.034085882378711E-1    3.703102548842541E-1   -1.079944346534484E-1    6.304566964903949E-1    9.878097935953863E-2
 3.783487800179276E6     6.315616457460769E-1    9.606777232614749E-2    3.714462555900321E-1   -1.034660596723768E-1    3.698342272529547E-1   -1.072304326909187E-1    6.310037607693422E-1    9.842759855652776E-2
 3.812355292419964E6     6.320650902374682E-1    9.591748704187245E-2    3.709934114874629E-1   -1.032014417271021E-1    3.693423740685434E-1   -1.070340651094091E-1    6.315748258383149E-1    9.827570077246132E-2
 3.841443039661395E6     6.325644574293738E-1    9.556560438021230E-2    3.704859059564179E-1   -1.029765005244758E-1    3.688647623403934E-1   -1.067709765638931E-1    6.321109551444070E-1    9.821220385041095E-2
 3.870752722418987E6     6.330765802879972E-1    9.533734697666284E-2    3.699628624482281E-1   -1.028242625102388E-1    3.683532652004198E-1   -1.065390473142522E-1    6.325527882372741E-1    9.788745775622522E-2
 3.900286034030236E6     6.335685163995800E-1    9.510713820164911E-2    3.694978082862890E-1   -1.025727111582670E-1    3.678382819457266E-1   -1.063803046005602E-1    6.331091057535647E-1    9.771056359903961E-2
 3.930044680752580E6     6.340426477859569E-1    9.486408291408942E-2    3.690300449610686E-1   -1.022931029536762E-1    3.673351892792876E-1   -1.061986315951998E-1    6.335662255859297E-1    9.728553153097656E-2
 3.960030381861967E6     6.345264234156205E-1    9.454028101776789E-2    3.684794539927977E-1   -1.021412678268474E-1    3.668605511494954E-1   -1.059534582138894E-1    6.340815099451315E-1    9.704919722187917E-2
 3.990244869752173E6     6.349988731059357E-1    9.421168241377574E-2    3.679437678860355E-1   -1.020031304439068E-1    3.663443640719019E-1   -1.057722338471059E-1    6.345259682862502E-1    9.678147809388196E-2
 4.020689890034929E6     6.354841119156610E-1    9.474879799433457E-2    3.675409274429637E-1   -1.024302988073677E-1    3.662104427145399E-1   -1.045917162298790E-1    6.352210815716393E-1    9.632270722976688E-2
 4.051367201640718E6     6.359643571537142E-1    9.452133211247382E-2    3.670313338699047E-1   -1.022797171758453E-1    3.657128287908879E-1   -1.044125385545421E-1    6.357136129417639E-1    9.615751132852902E-2
 4.082278576920427E6     6.364537772265108E-1    9.419744654234546E-2    3.665672896720037E-1   -1.020662486592268E-1    3.651942075165655E-1   -1.042458068688170E-1    6.361952585663664E-1    9.589554977793593E-2
 4.113425801747740E6     6.369484488441165E-1    9.397159366783425E-2    3.660647087170772E-1   -1.018321996668879E-1    3.647235047597580E-1   -1.040676683071548E-1    6.366776124072442E-1    9.550438462499952E-2
 4.144810675622302E6     6.373966501391697E-1    9.376430041979122E-2    3.655928852091476E-1   -1.015683556413820E-1    3.642602906827992E-1   -1.038161501100124E-1    6.371914278389456E-1    9.531487565908638E-2
 4.176435011773718E6     6.378749062592509E-1    9.352960131499603E-2    3.651372228383826E-1   -1.013539522383104E-1    3.637953526660743E-1   -1.035915104446220E-1    6.376683583696892E-1    9.506226851412121E-2
 4.208300637266261E6     6.383849541019512E-1    9.322438095004873E-2    3.646094482560397E-1   -1.011909513494724E-1    3.632711976637625E-1   -1.034083087322084E-1    6.381291369784324E-1    9.473586086682988E-2
 4.240409393104453E6     6.388561988541570E-1    9.303678374533411E-2    3.641826406204713E-1   -1.009127349420621E-1    3.627990303078949E-1   -1.031760298339455E-1    6.385982347676475E-1    9.456452402467475E-2
 4.272763134339464E6     6.393026764313168E-1    9.275485486322507E-2    3.637649646652018E-1   -1.006606134591806E-1    3.623144181941758E-1   -1.029856899595105E-1    6.390870551519059E-1    9.427963481181610E-2
 4.305363730176185E6     6.397877052503789E-1    9.254873166119959E-2    3.632517756184357E-1   -1.004824853254073E-1    3.617981554961400E-1   -1.027923951747493E-1    6.395480533914764E-1    9.412866541480237E-2
 4.338213064081349E6     6.402512312515332E-1    9.192553518346060E-2    3.627618716019599E-1   -1.000014237969844E-1    3.611782882017838E-1   -1.028788280161240E-1    6.399328288005640E-1    9.382738039948270E-2
 4.371313033892244E6     6.407241665919347E-1    9.163864968732280E-2    3.622816313049519E-1   -9.978232706877925E-2    3.606884990389848E-1   -1.027110920489893E-1    6.404276471461007E-1    9.353815328833524E-2
 4.404665551926396E6     6.411409377569275E-1    9.135998852607854E-2    3.618149435342483E-1   -9.953330941307334E-2    3.602343847755519E-1   -1.024852847387373E-1    6.409170260808945E-1    9.333910102428042E-2
 4.438272545092077E6     6.416406437289496E-1    9.110240892470023E-2    3.613238319415223E-1   -9.935361388380959E-2    3.597151115790503E-1   -1.023196843926497E-1    6.414059362762009E-1    9.302663033072030E-2
 4.472135954999580E6     6.421158934410210E-1    9.081971168636799E-2    3.608138925199257E-1   -9.917934248974546E-2    3.592996008594619E-1   -1.020540533718458E-1    6.418914936311279E-1    9.278897056327313E-2
 4.506257738073424E6     6.425874923304697E-1    9.056771558137869E-2    3.603479457080429E-1   -9.894276071630760E-2    3.587602216071345E-1   -1.019239920088985E-1    6.423155469972688E-1    9.235168443966525E-2
 4.540639865665382E6     6.430611641887665E-1    9.060957550571058E-2    3.599417527028990E-1   -9.895280602851982E-2    3.585219806426593E-1   -1.012832526989355E-1    6.429003643855775E-1    9.212967651700814E-2
 4.575284324168356E6     6.435537710930599E-1    9.032311317680138E-2    3.594625816797640E-1   -9.876519320106898E-2    3.580711506171611E-1   -1.011028909171759E-1    6.434219764291303E-1    9.204409678856768E-2
 4.610193115131186E6     6.440196436445644E-1    8.922834862120876E-2    3.588918770143891E-1   -9.786866205814589E-2    3.571985825509720E-1   -1.019592563826418E-1    6.436561112852968E-1    9.180501147539877E-2
 4.645368255374223E6     6.444857064123106E-1    8.898993937956841E-2    3.583978352216238E-1   -9.763775880191404E-2    3.566833936580976E-1   -1.018311911205319E-1    6.440679490718958E-1    9.139253893019963E-2
 4.680811777105891E6     6.449189402684924E-1    8.867547306370556E-2    3.579130497634103E-1   -9.745374998915159E-2    3.562287715491898E-1   -1.015850587710843E-1    6.445439090654639E-1    9.122819611259286E-2
 4.716525728040087E6     6.453809210985040E-1    8.839306750794632E-2    3.574257842011982E-1   -9.728010749179315E-2    3.557864283098573E-1   -1.013367311861047E-1    6.449978240247448E-1    9.091180590166781E-2
 4.752512171514469E6     6.458705020493106E-1    8.811617064774499E-2    3.569874251676172E-1   -9.701859726863525E-2    3.552982378152677E-1   -1.012135305523967E-1    6.454959562757148E-1    9.089086939719564E-2
 4.788773186609713E6     6.463340098223586E-1    8.782383266525774E-2    3.564736342774365E-1   -9.690244117286181E-2    3.548674409302512E-1   -1.010057538279008E-1    6.459613641990314E-1    9.050180679251681E-2
 4.825310868269563E6     6.469365259002089E-1    8.709073830658870E-2    3.558874210979953E-1   -9.638984364890758E-2    3.543567019209909E-1   -1.014745864484034E-1    6.463388431192951E-1    9.040202182860191E-2
 4.862127327421905E6     6.473737099433460E-1    8.680666464107299E-2    3.555045842373194E-1   -9.606072916070985E-2    3.539248007940834E-1   -1.012034502391780E-1    6.468157287594828E-1    9.020985611808421E-2
 4.899224691100715E6     6.478117922696544E-1    8.651825274582706E-2    3.549797644528738E-1   -9.592645450372078E-2    3.534538892219046E-1   -1.010464836921747E-1    6.472819195204386E-1    8.983885998656915E-2
 4.936605102568937E6     6.482877038109179E-1    8.625613609471787E-2    3.545498442497942E-1   -9.567989562661915E-2    3.530568115647222E-1   -1.007032986785647E-1    6.477057961542826E-1    8.977112255175955E-2
 4.974270721442348E6     6.487042713971102E-1    8.598635276142350E-2    3.540762352547365E-1   -9.544257377035095E-2    3.525881437579233E-1   -1.005166014530094E-1    6.481500893565100E-1    8.931715811541542E-2
 5.012223723814265E6     6.492040894005148E-1    8.574454164544860E-2    3.536664844992343E-1   -9.519083548675886E-2    3.521059523538357E-1   -1.004517860977995E-1    6.486305304732111E-1    8.884233515147083E-2
 5.050466302381308E6     6.496533007721702E-1    8.548454068897864E-2    3.531900535446720E-1   -9.497929591614528E-2    3.516583137755489E-1   -1.002366227590653E-1    6.490796677289364E-1    8.876420321188372E-2
 5.089000666570071E6     6.500556649763733E-1    8.517102948462922E-2    3.527298466253285E-1   -9.475433273270925E-2    3.512195278059935E-1   -9.999495651130862E-2    6.495360474416343E-1    8.855140706757013E-2
 5.127829042664761E6     6.504951679207219E-1    8.490492866996006E-2    3.522925098075025E-1   -9.453768874676058E-2    3.507918007315420E-1   -9.978216245689570E-2    6.500062466183389E-1    8.827853418269807E-2
 5.166953673935857E6     6.509441171514483E-1    8.460419794544367E-2    3.518244901647372E-1   -9.433684295327889E-2    3.503309933623012E-1   -9.959538930314914E-2    6.504265213529224E-1    8.797089501355883E-2
 5.206376820769652E6     6.514111929935661E-1    8.435582861377917E-2    3.513592520833212E-1   -9.412142475295339E-2    3.498885981078748E-1   -9.941377839978477E-2    6.508950269438021E-1    8.770374390761397E-2
 5.246100760798878E6     6.518646223258412E-1    8.408569066712776E-2    3.508333126970192E-1   -9.406865912746852E-2    3.493990523749814E-1   -9.934473798697849E-2    6.513467796674313E-1    8.744830455108410E-2
 5.286127789034322E6     6.523201455830840E-1    8.381055691009470E-2    3.504179755008289E-1   -9.375678523767932E-2    3.489596450331742E-1   -9.911848938582368E-2    6.517731718541402E-1    8.725650194698663E-2
 5.326460217997355E6     6.527214752633050E-1    8.531178733462264E-2    3.502822712206656E-1   -9.494065385220227E-2    3.492387635562855E-1   -9.676463828409336E-2    6.527388971551026E-1    8.667760446275996E-2
 5.367100377853584E6     6.531727147973099E-1    8.505395999674242E-2    3.497851747487202E-1   -9.480159884219470E-2    3.487988779387068E-1   -9.658330470989100E-2    6.531517074043697E-1    8.629033258170006E-2
 5.408050616547454E6     6.536288459251427E-1    8.476933452085855E-2    3.493194751016890E-1   -9.465252133130868E-2    3.483284051831116E-1   -9.645020672670915E-2    6.536126641710821E-1    8.613094026186428E-2
 5.449313299937895E6     6.540658711928691E-1    8.450978669601347E-2    3.489013993573670E-1   -9.436910839355821E-2    3.478924030103226E-1   -9.621409399244908E-2    6.539941566221025E-1    8.580970442073517E-2
 5.490890811935049E6     6.545334675840876E-1    8.245579657678542E-2    3.481999987709786E-1   -9.272448784605115E-2    3.467727538705232E-1   -9.811855535703894E-2    6.539945316678519E-1    8.586364217009450E-2
 5.532785554637930E6     6.549268257099577E-1    8.215313971709828E-2    3.477457171271512E-1   -9.248007452112444E-2    3.463297894942928E-1   -9.786481067975304E-2    6.543856446051537E-1    8.557439067545557E-2
 5.574999948473252E6     6.553577115287679E-1    8.368796704352244E-2    3.476345373518306E-1   -9.360591724648228E-2    3.465633771618062E-1   -9.564442443069779E-2    6.552978461673140E-1    8.486885893012847E-2
 5.617536432335250E6     6.557653828375651E-1    8.341862271869013E-2    3.471680277095341E-1   -9.343376819407588E-2    3.461243273401406E-1   -9.547462688763492E-2    6.557198135531317E-1    8.433182348173918E-2
 5.660397463726575E6     6.562166004416109E-1    8.314421225756970E-2    3.467339652949434E-1   -9.321805932107002E-2    3.457115906265101E-1   -9.530489533511120E-2    6.561466209402941E-1    8.408344164795155E-2
 5.703585518900323E6     6.566977560066855E-1    8.103511139850274E-2    3.460128128393571E-1   -9.163876902983066E-2    3.446006128663971E-1   -9.715919620686229E-2    6.561460389612780E-1    8.431321331289279E-2
 5.747103093003022E6     6.571523982149329E-1    8.077793711040546E-2    3.455483847810140E-1   -9.148010191624079E-2    3.441772874530619E-1   -9.697739923314597E-2    6.566117689519756E-1    8.400815431644748E-2
 5.790952700218840E6     6.575609792515060E-1    8.047234261776294E-2    3.450869890051889E-1   -9.131310419403924E-2    3.437531385940124E-1   -9.679641844757553E-2    6.570227185189951E-1    8.358615343485513E-2
 5.835136873914825E6     6.579239691528265E-1    8.207705247758140E-2    3.449356340870091E-1   -9.252166534044010E-2    3.439981764273277E-1   -9.454553728856109E-2    6.578972118978433E-1    8.300204745060848E-2
 5.879658166787256E6     6.583485149416540E-1    8.180080960183443E-2    3.444872178820663E-1   -9.230290118396303E-2    3.435885225297944E-1   -9.425536801668261E-2    6.582692241029630E-1    8.273760689600008E-2
 5.924519151009166E6     6.587958457583071E-1    8.152908607792417E-2    3.441044500875603E-1   -9.203090428838068E-2    3.432100226682242E-1   -9.401825169753789E-2    6.587348242102095E-1    8.260807642959840E-2
 5.969722418378883E6     6.591962830626941E-1    8.124323904586872E-2    3.436617217054364E-1   -9.184541716963200E-2    3.427732897035646E-1   -9.383087947637547E-2    6.591516472009834E-1    8.226706139883018E-2
 6.015270580469812E6     6.596248053378017E-1    8.098107978497590E-2    3.432052086060741E-1   -9.166723527605475E-2    3.423623004412379E-1   -9.359174809005470E-2    6.595339913144583E-1    8.209391341751125E-2
 6.061166268781302E6     6.600433421370715E-1    8.070804905363263E-2    3.428057448377357E-1   -9.138958063596125E-2    3.419414775177557E-1   -9.341005796639730E-2    6.599878998079567E-1    8.172997242360497E-2
 6.107412134890671E6     6.603797750653962E-1    8.028674452442662E-2    3.423548124733662E-1   -9.106618718124163E-2    3.413724705841288E-1   -9.335809828722118E-2    6.603456762196844E-1    8.158833530733380E-2
 6.154010850606443E6     6.608136519163906E-1    8.000661090013099E-2    3.419157445633420E-1   -9.087267183043557E-2    3.409391334214265E-1   -9.313987610709584E-2    6.607786948332982E-1    8.139892313865719E-2
 6.200965108122637E6     6.612603340040671E-1    7.972607530444752E-2    3.414982591211034E-1   -9.070010468396016E-2    3.405060635946346E-1   -9.299031386929768E-2    6.611929721249711E-1    8.111868957854347E-2
 6.248277620174343E6     6.616403682633940E-1    7.944557232224957E-2    3.410646655070237E-1   -9.047907668713770E-2    3.401164708684383E-1   -9.273847458476253E-2    6.616147187967594E-1    8.076082886743778E-2
 6.295951120194497E6     6.620732933603015E-1    7.917435928451602E-2    3.406539440703503E-1   -9.025089257732491E-2    3.396946815162942E-1   -9.255736786884233E-2    6.620137940088329E-1    8.051113582637470E-2
 6.343988362471664E6     6.625562935993387E-1    7.906796824538612E-2    3.402050850281962E-1   -9.028344065834053E-2    3.394315244585795E-1   -9.221280232863022E-2    6.625066956604330E-1    8.014168950153765E-2
 6.392392122309345E6     6.629876108635873E-1    7.877123962712088E-2    3.398032818005722E-1   -9.009349819012144E-2    3.390382034475140E-1   -9.200732765107285E-2    6.628921478273535E-1    7.984979036631565E-2
 6.441165196186168E6     6.633895406248431E-1    7.850895016126855E-2    3.393819737029433E-1   -8.989660569853675E-2    3.386095728078378E-1   -9.179274819960886E-2    6.633251439245691E-1    7.962414056301577E-2
 6.490310401917514E6     6.638208691847716E-1    7.821813473722136E-2    3.389807440586124E-1   -8.970302824783327E-2    3.382313364952308E-1   -9.156950014298813E-2    6.637170895952211E-1    7.944659625815230E-2
 6.539830578818345E6     6.642388514909159E-1    7.795781363579686E-2    3.385265366577480E-1   -8.956535000974761E-2    3.378300520254802E-1   -9.132826790968038E-2    6.641388855046791E-1    7.917730380611715E-2
 6.589728587867169E6     6.646313618893561E-1    7.767218614097356E-2    3.381085029806713E-1   -8.930464592421393E-2    3.374149751318396E-1   -9.115112588870110E-2    6.645051110439112E-1    7.897358760527835E-2
 6.640007311871376E6     6.650259594433963E-1    7.739035254765092E-2    3.377145032034455E-1   -8.909454012352790E-2    3.370076009238113E-1   -9.096016239346179E-2    6.649511196340263E-1    7.861952880864304E-2
 6.690669655633785E6     6.654163518236754E-1    7.712192012892476E-2    3.372835662706317E-1   -8.891510263621467E-2    3.366005601523130E-1   -9.076477071756721E-2    6.653439049839062E-1    7.838892184499621E-2
 6.741718546120445E6     6.657943557084881E-1    7.683391765480083E-2    3.368649045381888E-1   -8.872290194126174E-2    3.361915965064075E-1   -9.059508725797075E-2    6.657477203111001E-1    7.804712600041007E-2
 6.793156932629797E6     6.661994641411960E-1    7.656323646629780E-2    3.364543535550660E-1   -8.857427977191196E-2    3.357976446346659E-1   -9.037693604472048E-2    6.661514607943058E-1    7.772726356296501E-2
 6.844987786962981E6     6.665818766242212E-1    7.627342396450197E-2    3.360060580636780E-1   -8.839659686062783E-2    3.353930320795837E-1   -9.021617327293878E-2    6.665464297132964E-1    7.751189962985426E-2
 6.897214103595586E6     6.668246220076383E-1    7.553304508483230E-2    3.355805454532750E-1   -8.781062836858271E-2    3.346556427382609E-1   -9.039308765771852E-2    6.667872396655702E-1    7.735206489388116E-2
 6.949838899850640E6     6.671821660997284E-1    7.525888313019997E-2    3.351700401358041E-1   -8.762955157261196E-2    3.342385402429679E-1   -9.017998656398774E-2    6.671878203682389E-1    7.706055431618619E-2
 7.002865216072913E6     6.676698538545779E-1    7.390900893850229E-2    3.346475525067863E-1   -8.686405579253113E-2    3.334425621719931E-1   -9.111420978579234E-2    6.674130960155371E-1    7.683844951378602E-2
 7.056296115804635E6     6.680659613122535E-1    7.362810091422546E-2    3.342560594084867E-1   -8.666141175143997E-2    3.330656999939288E-1   -9.092650535259504E-2    6.677777920937901E-1    7.657709866553247E-2
 7.110134685962399E6     6.684887568768114E-1    7.332471521438060E-2    3.338564531879415E-1   -8.648571226066976E-2    3.326422687288133E-1   -9.072433286920803E-2    6.681893223461122E-1    7.626499941857302E-2
 7.164384037015557E6     6.689134561003235E-1    7.303896027733145E-2    3.334435755403424E-1   -8.630480803270443E-2    3.322184371780977E-1   -9.052534794142877E-2    6.685699845414795E-1    7.597204366507368E-2
 7.219047303165923E6     6.692873608668085E-1    7.272894139908981E-2    3.330368475925581E-1   -8.613724867409427E-2    3.318478013862871E-1   -9.034791816297200E-2    6.689647095768173E-1    7.566294470725243E-2
 7.274127642528819E6     6.696910554020586E-1    7.245183223834434E-2    3.326269139018621E-1   -8.594393153570550E-2    3.314504068620962E-1   -9.014219675579840E-2    6.693697593865616E-1    7.538310354298536E-2
 7.329628237315600E6     6.702863391418192E-1    7.157492911895122E-2    3.321321427052044E-1   -8.549116932954785E-2    3.310225628149576E-1   -9.066589770999404E-2    6.697327869069193E-1    7.509636259558583E-2
 7.385552294017412E6     6.706650124474040E-1    7.128710680940234E-2    3.317320949192014E-1   -8.530411622350567E-2    3.306225500079137E-1   -9.048315314906416E-2    6.701301553430093E-1    7.479960010447166E-2
 7.441903043590503E6     6.708884216892745E-1    7.293510674844060E-2    3.315865939279201E-1   -8.622189661524420E-2    3.308589473809692E-1   -8.817210202091091E-2    6.708168703412672E-1    7.438554303337823E-2
 7.498683741642874E6     6.712697165659064E-1    7.266649517113632E-2    3.312244869572210E-1   -8.602417692815359E-2    3.304671222336493E-1   -8.797167038042637E-2    6.712147144179952E-1    7.410808195881423E-2
 7.555897668622349E6     6.716605216967835E-1    7.100083470631301E-2    3.306859032296597E-1   -8.501500208683901E-2    3.295001536171873E-1   -8.920800980492571E-2    6.713305067798550E-1    7.392028591884581E-2
 7.613548130006171E6     6.720157013515085E-1    7.070257358036482E-2    3.302739838327469E-1   -8.480628497871429E-2    3.291023179265871E-1   -8.901252569157016E-2    6.717444757288390E-1    7.363782553025222E-2
 7.671638456491867E6     6.731300063633626E-1    6.903889713680110E-2    3.295427272586112E-1   -8.404372388777433E-2    3.288905946685058E-1   -9.063566268330189E-2    6.720079621110809E-1    7.331592497062155E-2
 7.730172004189732E6     6.735240613608459E-1    6.872319622459820E-2    3.291816445337445E-1   -8.387275927841616E-2    3.285133427038224E-1   -9.045489452654337E-2    6.723763336235700E-1    7.302546880013984E-2
 7.789152154816771E6     6.739614292240285E-1    6.841902830000669E-2    3.287931681203593E-1   -8.368529622446941E-2    3.281199972885283E-1   -9.026785678727282E-2    6.727583711920886E-1    7.275382377531041E-2
 7.848582315891974E6     6.735989889056717E-1    6.949794073073015E-2    3.287413341345438E-1   -8.409182616985794E-2    3.275522297016344E-1   -8.827264250948133E-2    6.732982329940397E-1    7.251201710035890E-2
 7.908465920933248E6     6.739944969045631E-1    6.920947858523033E-2    3.283405617859895E-1   -8.391235681676899E-2    3.271885893416684E-1   -8.809687026364839E-2    6.736888993366925E-1    7.221555980780249E-2
 7.968806429655775E6     6.743652466341078E-1    6.891318933790833E-2    3.279574628573235E-1   -8.370832567668121E-2    3.268102130753948E-1   -8.791031203589603E-2    6.740636976241876E-1    7.192791290135767E-2
 8.029607328171868E6     6.747423159655909E-1    6.862042603970975E-2    3.275828097577122E-1   -8.352498804900303E-2    3.263922372856258E-1   -8.771480186897604E-2    6.744153440797881E-1    7.163175819303486E-2
 8.090872129192449E6     6.750959845064862E-1    6.833847263942183E-2    3.271946662679597E-1   -8.335333609234080E-2    3.260271990500271E-1   -8.752991461027318E-2    6.748075039041133E-1    7.133987066572589E-2
 8.152604372229892E6     6.754520566297043E-1    6.804495404990996E-2    3.268116976399121E-1   -8.315541459395806E-2    3.256558432028822E-1   -8.735788300483445E-2    6.751695276289126E-1    7.104623283637469E-2
 8.214807623802581E6     6.758684517603767E-1    6.774099544473391E-2    3.264556206045048E-1   -8.297509544713200E-2    3.252682340044603E-1   -8.716629490909461E-2    6.755424696065362E-1    7.077490367102364E-2
 8.277485477640945E6     6.762473428769359E-1    6.744376212682478E-2    3.260689113718434E-1   -8.279129413791829E-2    3.248847501397190E-1   -8.699780549854348E-2    6.758932911244666E-1    7.047737598634098E-2
 8.340641554895067E6     6.766143574681937E-1    6.715324613129532E-2    3.256910447890054E-1   -8.261272899363507E-2    3.245227265621614E-1   -8.680051724629362E-2    6.763190802956806E-1    7.019833774516679E-2
 8.404279504343957E6     6.769897143720783E-1    6.686247116875692E-2    3.253399316708054E-1   -8.243283083208465E-2    3.241533891947962E-1   -8.663703292046090E-2    6.766975578772824E-1    6.990603752041613E-2
 8.468403002606256E6     6.773332426071587E-1    6.656628636352709E-2    3.249505983841493E-1   -8.225270237568214E-2    3.237831436735753E-1   -8.646412229205511E-2    6.770907057433095E-1    6.959149334301061E-2
 8.533015754352720E6     6.776136057085630E-1    6.694972635281360E-2    3.246828377820127E-1   -8.240059669968114E-2    3.236098871542260E-1   -8.548391609713894E-2    6.775523564260452E-1    6.931113647004877E-2
 8.598121492520234E6     6.780037577237760E-1    6.663980785414800E-2    3.243037409080111E-1   -8.223373926266399E-2    3.232690883741361E-1   -8.531251471332719E-2    6.779240198401134E-1    6.903865013161949E-2
 8.663723978527457E6     6.792671326518336E-1    6.419305413349223E-2    3.235022448738815E-1   -8.113676245855471E-2    3.228882932376401E-1   -8.782155933889194E-2    6.781158772305180E-1    6.870638903508175E-2
 8.729827002492212E6     6.796410398620779E-1    6.388888079892141E-2    3.231266292618618E-1   -8.095311283475165E-2    3.225050401876020E-1   -8.765900186548049E-2    6.784602480880351E-1    6.840635897478435E-2
 8.796434383450346E6     6.799906990582718E-1    6.357493060585154E-2    3.227661010202867E-1   -8.078613211235841E-2    3.221483039053576E-1   -8.749487104422135E-2    6.788629179215130E-1    6.811070554534208E-2
 8.863549969576446E6     6.798230740925262E-1    6.411033748190520E-2    3.226314014995946E-1   -8.092131149995437E-2    3.215399752761351E-1   -8.616029459282916E-2    6.792269450445907E-1    6.783979190884616E-2
 8.931177638406139E6     6.801513070151637E-1    6.380207212010738E-2    3.222538599445736E-1   -8.074486397841504E-2    3.211779845817307E-1   -8.599250892520399E-2    6.796284299253691E-1    6.756921391415273E-2
 8.999321297060097E6     6.805231362907562E-1    6.349307020188223E-2    3.218859777515958E-1   -8.056686018738485E-2    3.208116680223686E-1   -8.581435473878885E-2    6.799758413808237E-1    6.727411465700242E-2
 9.067984882469844E6     6.809162701628375E-1    6.319208422356366E-2    3.215497665115699E-1   -8.038832346804771E-2    3.204289252875965E-1   -8.563887621859664E-2    6.803614473654365E-1    6.698309093321396E-2
 9.137172361605095E6     6.812789832572240E-1    6.288693668694759E-2    3.211842164406634E-1   -8.022053253480638E-2    3.200645045038935E-1   -8.547762541040108E-2    6.807504228140266E-1    6.670074451254807E-2
 9.206887731702998E6     6.813452816718251E-1    6.439356678844775E-2    3.210875519808702E-1   -8.086177630946870E-2    3.201600857116015E-1   -8.326270987001386E-2    6.812681380040855E-1    6.640190569171488E-2
 9.277135020499127E6     6.817405782422388E-1    6.408599706602497E-2    3.207333847660788E-1   -8.071206484593060E-2    3.198226964510538E-1   -8.309613361538559E-2    6.816586129331355E-1    6.609180438302539E-2
 9.347918286460072E6     6.820874849881980E-1    6.378465461951531E-2    3.203794516397657E-1   -8.051449900549484E-2    3.194722787880712E-1   -8.291622026987043E-2    6.820185229825811E-1    6.580929648206632E-2
 9.419241619017981E6     6.824648752124035E-1    6.348380885591783E-2    3.200246186297702E-1   -8.035068568946475E-2    3.191209483068446E-1   -8.274847329245760E-2    6.824004687113181E-1    6.550207170207628E-2
 9.491109138806809E6     6.827808322894087E-1    6.317983140586773E-2    3.196733825766256E-1   -8.016550223753123E-2    3.187573590278869E-1   -8.257031187021892E-2    6.827449607943682E-1    6.520748160374282E-2
 9.563524997900363E6     6.831381069237142E-1    6.285699354539100E-2    3.193049153854153E-1   -8.000034843579808E-2    3.183933793312881E-1   -8.238357872567932E-2    6.830571538011391E-1    6.491054508455019E-2
 9.636493380052259E6     6.834883743931107E-1    6.257975641170939E-2    3.189615043209579E-1   -7.981375157617804E-2    3.180533867530492E-1   -8.222879696140035E-2    6.834576042125219E-1    6.459359023183013E-2
 9.710018500937525E6     6.838504883713170E-1    6.227152463602381E-2    3.186137052698193E-1   -7.965314490070216E-2    3.176891609500101E-1   -8.206351173502845E-2    6.837895086695913E-1    6.430849096291165E-2
 9.784104608396223E6     6.843085920256234E-1    6.076888806935856E-2    3.181123855923036E-1   -7.889454689540149E-2    3.169147175983534E-1   -8.318703042257826E-2    6.840291956689545E-1    6.403966247079818E-2
 9.858755982678859E6     6.846681012201700E-1    6.043215191010540E-2    3.177628403319621E-1   -7.872835580280273E-2    3.165616753533344E-1   -8.303735399394378E-2    6.843516809897218E-1    6.372463783530120E-2
 9.933976936693633E6     6.850015367938416E-1    6.012732662713256E-2    3.174066165525956E-1   -7.854312916934751E-2    3.162115334094232E-1   -8.286078577330476E-2    6.847278794927394E-1    6.345005844044803E-2
 1.000977181625571E7     6.853482173754659E-1    5.981639783684743E-2    3.170583847663214E-1   -7.837356198338923E-2    3.158712716410477E-1   -8.269603778096417E-2    6.850854554898701E-1    6.315741932588514E-2
 1.008614500033817E7     6.856938999747068E-1    5.951091214044742E-2    3.167144092774739E-1   -7.819955594079742E-2    3.155275357045657E-1   -8.253693936261620E-2    6.854424107899517E-1    6.285156951197540E-2
 1.016310090132507E7     6.860493594009296E-1    5.921997397698078E-2    3.163763473657789E-1   -7.805238604880130E-2    3.151865898224823E-1   -8.236763678393810E-2    6.857450731413658E-1    6.255061241914862E-2
 1.024064396526634E7     6.862861066908265E-1    6.011711855805148E-2    3.161897639221855E-1   -7.842933000723470E-2    3.152686863378101E-1   -8.087928049121267E-2    6.862190646771698E-1    6.222559888758302E-2
 1.031877867213467E7     6.866535585014119E-1    5.980072843965311E-2    3.158361394747541E-1   -7.826577529361020E-2    3.149342826896442E-1   -8.071405512411700E-2    6.865574292245484E-1    6.192377181444767E-2
 1.039750953608436E7     6.870016359127691E-1    5.951296672052302E-2    3.154813984905770E-1   -7.809761121561007E-2    3.145995232211761E-1   -8.055403616732437E-2    6.869441824557363E-1    6.163428844288900E-2
 1.047684110571204E7     6.873314645063642E-1    5.921189520253833E-2    3.151435349205939E-1   -7.792289329680116E-2    3.142663179470969E-1   -8.038088537607044E-2    6.872728672257705E-1    6.133904021035982E-2
 1.055677796431950E7     6.876784375302869E-1    5.888506975710780E-2    3.148308823056957E-1   -7.776520164010682E-2    3.139163630018216E-1   -8.021149746889854E-2    6.876102433813343E-1    6.103615297879443E-2
 1.063732473017859E7     6.889361201305272E-1    5.577515573781737E-2    3.139806486524434E-1   -7.652789554858024E-2    3.133672401751344E-1   -8.342576203488244E-2    6.877936365900750E-1    6.066524369803839E-2
 1.071848605679777E7     6.892986443249133E-1    5.544049226212072E-2    3.136438333691922E-1   -7.636576085271200E-2    3.130230477881527E-1   -8.329096265221232E-2    6.881293399696281E-1    6.036325983449428E-2
 1.080026663319129E7     6.890508454394400E-1    5.605030722541628E-2    3.135362144600935E-1   -7.647353549800698E-2    3.124354750986178E-1   -8.188872701733900E-2    6.885160815433687E-1    6.012280334808631E-2
 1.088267118414987E7     6.894041624577975E-1    5.570586474248840E-2    3.131866200980696E-1   -7.630799084192939E-2    3.120909581096968E-1   -8.171925456745925E-2    6.888327643014545E-1    5.981860203194982E-2
 1.096570447051370E7     6.903365346387488E-1    5.450566793701422E-2    3.126353418048977E-1   -7.587356153070843E-2    3.120075010066238E-1   -8.280642793482676E-2    6.891351219406897E-1    5.945555243699432E-2
 1.104937128944762E7     6.906865535329110E-1    5.416200853580836E-2    3.122900172997545E-1   -7.571259276872827E-2    3.116791868734415E-1   -8.265908269781624E-2    6.894862465936575E-1    5.914641217120532E-2
 1.113367647471805E7     6.910320439619470E-1    5.384705611550764E-2    3.119718720896473E-1   -7.555867483361609E-2    3.113425556846638E-1   -8.250950166871938E-2    6.898187983151856E-1    5.885589801633379E-2
 1.121862489697252E7     6.906291076135704E-1    5.715445375258413E-2    3.121916138447901E-1   -7.701496884178431E-2    3.118162180698321E-1   -7.822883833454808E-2    6.904582548137377E-1    5.848005698218325E-2
 1.130422146402085E7     6.909658168509616E-1    5.686592029144367E-2    3.118730478876014E-1   -7.684615279173083E-2    3.114786873342317E-1   -7.807013348733767E-2    6.907943142838497E-1    5.814463576944893E-2
 1.139047112111875E7     6.913070964506036E-1    5.654796691731546E-2    3.115326710012167E-1   -7.667695359782103E-2    3.111529836052113E-1   -7.789607365230486E-2    6.911137214170989E-1    5.783470808451441E-2
 1.147737885125368E7     6.916098897366657E-1    5.622316406379110E-2    3.112115134968487E-1   -7.652576781639422E-2    3.108132143930789E-1   -7.773882450566201E-2    6.914708165387087E-1    5.756157229384917E-2
 1.156494967543242E7     6.919649824645461E-1    5.590835652718193E-2    3.108894348267152E-1   -7.637342831162687E-2    3.104952499726605E-1   -7.757349438832987E-2    6.917888323574665E-1    5.724628992686361E-2
 1.165318865297152E7     6.921770987366024E-1    5.538163281601046E-2    3.105580635238442E-1   -7.602025670636271E-2    3.100194750565945E-1   -7.755235102177245E-2    6.920750460838209E-1    5.698657322524089E-2
 1.174210088178934E7     6.933651252413647E-1    5.158484271556385E-2    3.096903557378087E-1   -7.445582601076008E-2    3.090659674335682E-1   -8.144689503429720E-2    6.921722818911424E-1    5.667356548161173E-2
 1.183169149870061E7     6.936994336225407E-1    5.124707832079983E-2    3.093576364347103E-1   -7.431501312308322E-2    3.087517449699829E-1   -8.130867913417592E-2    6.925070618784133E-1    5.638665692320382E-2
 1.192196567971337E7     6.940444167493990E-1    5.091815576949182E-2    3.090344134463653E-1   -7.415887182719574E-2    3.084265978971588E-1   -8.116457896935270E-2    6.928520148699829E-1    5.607566553392519E-2
 1.201292864032780E7     6.943897295150883E-1    5.059982767357013E-2    3.087080838075600E-1   -7.400789027435747E-2    3.081058592630790E-1   -8.101812491812567E-2    6.931798636495310E-1    5.575960292694836E-2
 1.210458563583766E7     6.947150721148158E-1    5.028049956056966E-2    3.083914061756138E-1   -7.384938649682414E-2    3.077869021999189E-1   -8.087720234392029E-2    6.935114907808865E-1    5.542701816926903E-2
 1.219694196163385E7     6.950097788673736E-1    4.992558949643386E-2    3.080642811075481E-1   -7.369918362967037E-2    3.074580101553088E-1   -8.073254368552832E-2    6.938120543212655E-1    5.510164361107606E-2
 1.229000295351040E7     6.943398409544513E-1    5.202513216270988E-2    3.081961432019562E-1   -7.430389364377761E-2    3.071229293827870E-1   -7.754682832622931E-2    6.942165482176542E-1    5.485290892404312E-2
 1.238377398797275E7     6.946700152901913E-1    5.168254464842887E-2    3.078997143120266E-1   -7.416086433488099E-2    3.068004836080471E-1   -7.740450509793563E-2    6.945415795002918E-1    5.454026295110386E-2
 1.247826048254829E7     6.950034495713879E-1    5.139330407436533E-2    3.075878066722150E-1   -7.400641576194775E-2    3.064873185670178E-1   -7.723723040427279E-2    6.948562974962351E-1    5.424003603938526E-2
 1.257346789609938E7     6.956577737527647E-1    5.253451773231311E-2    3.073856813114483E-1   -7.478052798457904E-2    3.071289539918912E-1   -7.578199662064027E-2    6.953909386654245E-1    5.374076740215655E-2
 1.266940172913885E7     6.959699180281844E-1    5.221687145643609E-2    3.070792596246929E-1   -7.463070245674050E-2    3.068084006739886E-1   -7.561665500921902E-2    6.956973835236623E-1    5.341533818303092E-2
 1.276606752414753E7     6.962845469461176E-1    5.189172734787117E-2    3.067565641644515E-1   -7.447331376690858E-2    3.065059377410841E-1   -7.546373363228309E-2    6.960356270825102E-1    5.311078861802683E-2
 1.286347086589479E7     6.966038759037974E-1    5.155890023182316E-2    3.064431591642286E-1   -7.432521941375528E-2    3.061974193084199E-1   -7.531724847078861E-2    6.963191361514618E-1    5.276768169914874E-2
 1.296161738176090E7     6.969319788267995E-1    5.122561749644369E-2    3.061443029715258E-1   -7.418507553533793E-2    3.058876614596334E-1   -7.516791860419096E-2    6.966433709268798E-1    5.245671481593057E-2
 1.306051274206230E7     6.972455655967676E-1    5.090273685364308E-2    3.058146434802424E-1   -7.402545770826215E-2    3.055763482123076E-1   -7.502264732329382E-2    6.969647428090057E-1    5.212945722365520E-2
 1.316016266037924E7     6.975424760981683E-1    5.059618817651755E-2    3.055168679494297E-1   -7.386619043967825E-2    3.052722367996877E-1   -7.486659538393435E-2    6.972873186980476E-1    5.184229127481177E-2
 1.326057289388563E7     6.976888699364546E-1    4.989497071921740E-2    3.051995508879041E-1   -7.339998330116522E-2    3.046781336048971E-1   -7.495288622714807E-2    6.975271694851493E-1    5.162653601563844E-2
 1.336174924368203E7     6.979703345191516E-1    4.956191058520516E-2    3.049104230020106E-1   -7.324510406198431E-2    3.043607825946754E-1   -7.480351006907521E-2    6.978108201985910E-1    5.128869438509431E-2
 1.346369755513046E7     6.984536837025295E-1    4.959030703927714E-2    3.046031428154236E-1   -7.342540528257314E-2    3.043630515747491E-1   -7.441840311944496E-2    6.981878922297020E-1    5.086736793640584E-2
 1.356642371819227E7     6.987628789033533E-1    4.925620996423677E-2    3.043051517886145E-1   -7.328216490007498E-2    3.040645602992262E-1   -7.427552783819384E-2    6.985051426967620E-1    5.055753866875185E-2
 1.366993366776852E7     6.990892256211053E-1    4.891981500465593E-2    3.040021482283697E-1   -7.314369651298427E-2    3.037560122541349E-1   -7.413162119767669E-2    6.988174810778099E-1    5.020324095387750E-2
 1.377423338404255E7     6.993943507590893E-1    4.860363905361765E-2    3.036995747974303E-1   -7.299833292909301E-2    3.034446694985113E-1   -7.398770683628265E-2    6.991168525838293E-1    4.987052970769788E-2
 1.387932889282586E7     6.995317015684828E-1    4.591505621890928E-2    3.031550968279085E-1   -7.167719641324383E-2    3.019584236577585E-1   -7.614427892584764E-2    6.992440185338867E-1    4.967168782738797E-2
 1.398522626590596E7     7.007151335587172E-1    4.389281211317072E-2    3.024923148620900E-1   -7.111533507077436E-2    3.019145368979467E-1   -7.820641670706940E-2    6.995406375719985E-1    4.929864259552681E-2
 1.409193162139728E7     7.010546240810774E-1    4.357012400720128E-2    3.022106355256149E-1   -7.097957236012918E-2    3.016127476363545E-1   -7.809367468712414E-2    6.998413284604798E-1    4.896183519027827E-2
 1.419945112409473E7     7.004407495969660E-1    4.485413371868453E-2    3.022476855194822E-1   -7.126005223769427E-2    3.010606943285289E-1   -7.575517935762485E-2    7.001676704342902E-1    4.870453923346507E-2
 1.430779098582953E7     7.007383854804806E-1    4.451636313633987E-2    3.019447158054284E-1   -7.111700380535778E-2    3.007695242250125E-1   -7.561296890677408E-2    7.004971326472530E-1    4.836980117222148E-2
 1.441695746582855E7     7.010672110117949E-1    4.416670478592913E-2    3.016556246597717E-1   -7.099314698252226E-2    3.004612940080620E-1   -7.547634112296504E-2    7.007889527628368E-1    4.804566422202611E-2
 1.452695687107559E7     7.013761950403721E-1    4.381188167583036E-2    3.013638468824926E-1   -7.085796798156525E-2    3.001716491741446E-1   -7.533977177140713E-2    7.010899503921670E-1    4.770574314460001E-2
 1.463779555667585E7     7.016705837336926E-1    4.350340034855815E-2    3.010706336510298E-1   -7.071916163429377E-2    2.998760280234378E-1   -7.520317096583491E-2    7.013964814883271E-1    4.738232450546663E-2
 1.474947992622320E7     7.019607464591130E-1    4.315413023434254E-2    3.007680029015815E-1   -7.058755158842306E-2    2.995923203121668E-1   -7.507803532549322E-2    7.017001308115780E-1    4.704859933425876E-2
 1.486201643216998E7     7.021404461816326E-1    4.416084311074227E-2    3.006687368606067E-1   -7.089643670212883E-2    2.997629800391011E-1   -7.343560587915723E-2    7.020637499859758E-1    4.675740524569556E-2
 1.497541157619987E7     7.025504418501837E-1    4.245309822646566E-2    3.002050255447037E-1   -7.030804849636320E-2    2.989993686027118E-1   -7.480228222291951E-2    7.022670710019484E-1    4.637166630360395E-2
 1.508967190960350E7     7.028457832946607E-1    4.209981347109285E-2    2.999082469348552E-1   -7.017150403394150E-2    2.987279281606680E-1   -7.466740048743860E-2    7.026177732261176E-1    4.605567016435687E-2
 1.520480403365694E7     7.031563965896596E-1    4.175067385161722E-2    2.996184035542430E-1   -7.003421963710736E-2    2.984284997291425E-1   -7.454201494776434E-2    7.028868041537722E-1    4.571516200277823E-2
 1.532081460000315E7     7.034242729125652E-1    4.138581944554151E-2    2.993232777163013E-1   -6.991648839996316E-2    2.981295990144654E-1   -7.441786937671835E-2    7.031747781583159E-1    4.534997777038615E-2
 1.543771031103615E7     7.037501599479099E-1    4.105304403894609E-2    2.990466321103178E-1   -6.977838840210993E-2    2.978436852607545E-1   -7.429028959694006E-2    7.034733825037218E-1    4.500864404139768E-2
 1.555549792028828E7     7.040370671548033E-1    4.069093952398700E-2    2.987632685079673E-1   -6.965595179081573E-2    2.975629525927368E-1   -7.416717597395432E-2    7.037776714728959E-1    4.467954697380720E-2
 1.567418423282054E7     7.041558036683999E-1    4.170197319023829E-2    2.986588778165388E-1   -6.996619520635475E-2    2.977511795591363E-1   -7.251666992012741E-2    7.040912737247462E-1    4.436086016770246E-2
 1.579377610561541E7     7.044848149264659E-1    4.135930581616931E-2    2.983641148858623E-1   -6.983866530814620E-2    2.974586821407498E-1   -7.237948707624287E-2    7.043873800145104E-1    4.400183741685661E-2
 1.591428044797338E7     7.047831618680338E-1    4.100547538158297E-2    2.980978772898026E-1   -6.972030421721409E-2    2.971705198387965E-1   -7.225606411464144E-2    7.046679040411469E-1    4.367371556998664E-2
 1.603570422191187E7     7.050660906649274E-1    4.064499811456763E-2    2.978032837208978E-1   -6.959418190257434E-2    2.968841138160735E-1   -7.211429169157758E-2    7.049340124251223E-1    4.331653250036262E-2
 1.615805444256752E7     7.053618030936452E-1    4.029462300647083E-2    2.975194254183428E-1   -6.945460934571911E-2    2.966071846719335E-1   -7.198936062288196E-2    7.052294924408581E-1    4.299558553377053E-2
 1.628133817860163E7     7.056118178350633E-1    3.995051709352244E-2    2.972480840613355E-1   -6.932815358099698E-2    2.963370643888804E-1   -7.186951192532624E-2    7.055438119560576E-1    4.263255412874953E-2
 1.640556255260818E7     7.058946434127781E-1    3.907681592796347E-2    2.969024257335077E-1   -6.900450684530220E-2    2.958046763249402E-1   -7.229963602582415E-2    7.058070871128699E-1    4.229348909691100E-2
 1.653073474152580E7     7.061797693898946E-1    3.870447751894766E-2    2.966301818941746E-1   -6.889036275011490E-2    2.955372009983174E-1   -7.216023157033463E-2    7.060725823268419E-1    4.193031766381369E-2
 1.665686197705204E7     7.064822824655793E-1    3.834508394421154E-2    2.963578248644086E-1   -6.875705477045806E-2    2.952629084609270E-1   -7.203411316558847E-2    7.063518872883230E-1    4.159532410384994E-2
 1.678395154606132E7     7.067802033444888E-1    3.799375033290928E-2    2.960858429830049E-1   -6.864097831705437E-2    2.949767969650837E-1   -7.192535188139168E-2    7.066256753281801E-1    4.126233585336195E-2
 1.691201079102603E7     7.072006101462607E-1    3.675588137683769E-2    2.956969297801907E-1   -6.827921786320176E-2    2.944886544720830E-1   -7.279537968728865E-2    7.069310245312173E-1    4.087930352525859E-2
 1.704104711044038E7     7.074781058708335E-1    3.641418989850632E-2    2.954150759873558E-1   -6.815930870209300E-2    2.942015350663550E-1   -7.266925972469873E-2    7.071640579026939E-1    4.052324215946566E-2
 1.717106795924834E7     7.077343444524342E-1    3.602738540160991E-2    2.951454357735787E-1   -6.803214860134131E-2    2.939391316333106E-1   -7.255247174783323E-2    7.074770666159570E-1    4.017508072467957E-2
 1.730208084927390E7     7.089905765193774E-1    3.397088533747398E-2    2.945559822063025E-1   -6.755517002113312E-2    2.939514264411994E-1   -7.477759648418428E-2    7.077413324713467E-1    3.975862518043662E-2
 1.743409334965526E7     7.083012406446367E-1    3.527188163801425E-2    2.946076696052941E-1   -6.780217531568372E-2    2.933938125004298E-1   -7.234003521829412E-2    7.080177702106543E-1    3.946227521833449E-2
 1.756711308728221E7     7.085912298472943E-1    3.491017786665743E-2    2.943343305528614E-1   -6.769440098535510E-2    2.931179552073337E-1   -7.222828569332615E-2    7.082853266839929E-1    3.909397315957465E-2
 1.770114774723655E7     7.088582415141564E-1    3.455468098153879E-2    2.940700810085795E-1   -6.756795743732484E-2    2.928555444942842E-1   -7.210543870844606E-2    7.085905173367373E-1    3.877071126330626E-2
 1.783620507323623E7     7.092412898837704E-1    3.670142724443781E-2    2.940999862128114E-1   -6.846547382409900E-2    2.938167523119136E-1   -6.948467215282064E-2    7.089525256687378E-1    3.834251890393401E-2
 1.797229286808272E7     7.093316549326819E-1    3.591720357916500E-2    2.937889699878835E-1   -6.806209806266414E-2    2.932352927090331E-1   -6.963540135005904E-2    7.091945744459345E-1    3.807212875835964E-2
 1.810941899411174E7     7.097774527549541E-1    3.595110856734623E-2    2.935589472706919E-1   -6.824542979354588E-2    2.932838300700490E-1   -6.923870880014357E-2    7.095069620555198E-1    3.764770253510644E-2
 1.824759137364766E7     7.100773500527545E-1    3.560148490421371E-2    2.933016630695534E-1   -6.813263001992935E-2    2.930129491599028E-1   -6.913185820416912E-2    7.097537269391520E-1    3.723767997494364E-2
 1.838681798946100E7     7.103385069261853E-1    3.523960929060219E-2    2.930411216286143E-1   -6.800202237941595E-2    2.927433230526703E-1   -6.900931970914333E-2    7.100125406733536E-1    3.690353048930813E-2
 1.852710688522972E7     7.107806769709680E-1    3.159431578476538E-2    2.923768869869239E-1   -6.674439653276130E-2    2.912355403884602E-1   -7.235522809148047E-2    7.101966152857851E-1    3.657526025751790E-2
 1.866846616600409E7     7.107544519452231E-1    3.196663544492977E-2    2.922304567673372E-1   -6.678793579816374E-2    2.909924318002590E-1   -7.131398485208845E-2    7.104545149529973E-1    3.623141374891187E-2
 1.881090399867451E7     7.110619826016129E-1    3.394926346042342E-2    2.922299174696023E-1   -6.752180006745589E-2    2.918233286235362E-1   -6.878274180994808E-2    7.107952157849764E-1    3.586636128289659E-2
 1.895442861244394E7     7.112943277655792E-1    3.355858662514770E-2    2.919746085631032E-1   -6.740761559307965E-2    2.915726106377290E-1   -6.866446712803159E-2    7.110608286733665E-1    3.549434389590247E-2
 1.909904829930285E7     7.115636901372246E-1    3.319791400124311E-2    2.917194484783986E-1   -6.730538460044543E-2    2.913115630920114E-1   -6.854771645638752E-2    7.113168887365856E-1    3.513668802383692E-2
 1.924477141450845E7     7.118266729921726E-1    3.282888157624094E-2    2.914690909978252E-1   -6.719703855231994E-2    2.910616937633942E-1   -6.842936595345050E-2    7.115731495684005E-1    3.477056410827464E-2
 1.939160637706759E7     7.121005512739139E-1    3.244697127654007E-2    2.912198418478614E-1   -6.709324180380828E-2    2.908054476340614E-1   -6.831884856055311E-2    7.118353690355129E-1    3.439822583459042E-2
 1.953956167022271E7     7.123606827886195E-1    3.206918873149105E-2    2.909679539007965E-1   -6.698232091690534E-2    2.905451746399840E-1   -6.822284993529000E-2    7.120828382008417E-1    3.400032874567168E-2
 1.968864584194249E7     7.125698881269603E-1    3.145415980243445E-2    2.906925426517148E-1   -6.673426619347325E-2    2.901124796614968E-1   -6.828427737502864E-2    7.123214014628826E-1    3.364916789607532E-2
 1.983886750541528E7     7.131647384685350E-1    2.822894139928097E-2    2.900691818710021E-1   -6.580472309045865E-2    2.889108459561873E-1   -7.140982035355724E-2    7.125500221047064E-1    3.326762466069781E-2
 1.999023533954688E7     7.134179056491932E-1    2.782541452819150E-2    2.898083289306911E-1   -6.571946611890885E-2    2.886543503064024E-1   -7.131441754731802E-2    7.128101168201534E-1    3.289271465831378E-2
 2.014275808946211E7     7.136915126667425E-1    2.744426266004205E-2    2.895653325684033E-1   -6.560873758934781E-2    2.883967796935312E-1   -7.122574048250151E-2    7.130759428139076E-1    3.249535154884223E-2
 2.029644456700960E7     7.139358167022428E-1    2.702837653923396E-2    2.893176094803296E-1   -6.552342345717849E-2    2.881441747288719E-1   -7.112947458059214E-2    7.133193674741147E-1    3.214416091747902E-2
 2.045130365127147E7     7.142016013005967E-1    2.663979611459767E-2    2.890777474722555E-1   -6.541249800161822E-2    2.878991052564223E-1   -7.102958128410583E-2    7.135793990266516E-1    3.178182621538721E-2
 2.060734428907584E7     7.144599277999601E-1    2.625720395865598E-2    2.888227522923666E-1   -6.532674924820986E-2    2.876495149979222E-1   -7.092401733651307E-2    7.138151865450704E-1    3.141492225202239E-2
 2.076457549551392E7     7.146994800892031E-1    2.584111089586440E-2    2.885694539631928E-1   -6.523797347778067E-2    2.874007999583603E-1   -7.082781783009026E-2    7.140568408927577E-1    3.100621101301713E-2
 2.092300635446098E7     7.149322874360421E-1    2.545281012888075E-2    2.883206342529580E-1   -6.513304189971933E-2    2.871577211876286E-1   -7.073541266412464E-2    7.143237610829580E-1    3.064440803865276E-2
 2.108264601910070E7     7.151715345768969E-1    2.505477487127825E-2    2.880775177779477E-1   -6.503523791798198E-2    2.869098312793419E-1   -7.065395451038201E-2    7.145639125618979E-1    3.025953421898151E-2
 2.124350371245464E7     7.152129271537808E-1    2.797336494505967E-2    2.882381075042660E-1   -6.597821036144190E-2    2.879467365315524E-1   -6.697499569380229E-2    7.148609035238837E-1    2.985400986326541E-2
 2.140558872791451E7     7.154573402143203E-1    2.758964256522609E-2    2.879973395715582E-1   -6.589164128244454E-2    2.877051672146121E-1   -6.686524851017675E-2    7.151196615086107E-1    2.948234291098177E-2
 2.156891042977939E7     7.154716379829889E-1    2.552174698615168E-2    2.875827092572686E-1   -6.507487432280808E-2    2.864330714106360E-1   -6.834303033872827E-2    7.152874503000616E-1    2.915699980512734E-2
 2.173347825379676E7     7.157113190626587E-1    2.509436984856961E-2    2.873429357779989E-1   -6.498268231128487E-2    2.861995973032980E-1   -6.826280397303737E-2    7.155559293957026E-1    2.876342914118303E-2
 2.189930170770744E7     7.159179469875389E-1    2.469014465288796E-2    2.870847941829411E-1   -6.489309813307512E-2    2.859509577139914E-1   -6.817916320092701E-2    7.157964484296230E-1    2.838732737974265E-2
 2.206639037179505E7     7.161797878038842E-1    2.431192211550463E-2    2.868598364327805E-1   -6.479468376720503E-2    2.857102675757086E-1   -6.808783038610523E-2    7.160210701761127E-1    2.798617184120913E-2
 2.223475389943947E7     7.166781436288533E-1    2.559460596617515E-2    2.868124677618560E-1   -6.541487484675913E-2    2.865000886099872E-1   -6.641828974701078E-2    7.163214375434750E-1    2.754369477736355E-2
 2.240440201767448E7     7.169420506509152E-1    2.519345240511572E-2    2.865820251782882E-1   -6.533686569424431E-2    2.862616057917690E-1   -6.631929280616820E-2    7.165520051187509E-1    2.713866767545842E-2
 2.257534452774993E7     7.171508478825520E-1    2.477908939819318E-2    2.863390528390595E-1   -6.523842728569954E-2    2.860308165748049E-1   -6.622244567056455E-2    7.167900783962454E-1    2.674443753925367E-2
 2.274759130569773E7     7.173834642220653E-1    2.437762456915996E-2    2.861070201032573E-1   -6.515348719533631E-2    2.857892463006513E-1   -6.614820551531457E-2    7.170248398802864E-1    2.635733590388166E-2
 2.292115230290256E7     7.176041799957650E-1    2.396572600614903E-2    2.858737656614793E-1   -6.506080210917169E-2    2.855627034874434E-1   -6.605417092644031E-2    7.172742113114056E-1    2.596482587742614E-2
 2.309603754667697E7     7.178488257915657E-1    2.356368470974377E-2    2.856450040425977E-1   -6.498222448050951E-2    2.853292259210172E-1   -6.596502735550110E-2    7.175059543050801E-1    2.556765596205776E-2
 2.327225714084021E7     7.180583459620398E-1    2.313662979504260E-2    2.854017855639198E-1   -6.490168729467370E-2    2.850920417043288E-1   -6.588083815838827E-2    7.177401784566703E-1    2.516649689635124E-2
 2.344982126630262E7     7.180678769359639E-1    2.158232664216823E-2    2.850572186420008E-1   -6.427333528414088E-2    2.840868646998483E-1   -6.678669694029157E-2    7.179517493265761E-1    2.484958547577408E-2
 2.362874018165328E7     7.182944775942334E-1    2.116039434786991E-2    2.848206880305928E-1   -6.418906255149541E-2    2.838426239686262E-1   -6.670685150363508E-2    7.181621469056499E-1    2.445119125753223E-2
 2.380902422375290E7     7.187112258113650E-1    1.931621094092684E-2    2.844180619867665E-1   -6.380158888514494E-2    2.831287711096406E-1   -6.829712341456390E-2    7.184137099452205E-1    2.400764338528482E-2
 2.399068380833123E7     7.189223355049048E-1    1.888946770774177E-2    2.841855563685677E-1   -6.372894514146976E-2    2.828975934697236E-1   -6.822859739778694E-2    7.186371843229566E-1    2.359502761005651E-2
 2.417372943058824E7     7.189871468647570E-1    1.990728956092435E-2    2.841393665191058E-1   -6.394995324216361E-2    2.831454777166540E-1   -6.646157961791463E-2    7.188607819655320E-1    2.324385870839601E-2
 2.435817166580120E7     7.191982574900629E-1    1.951260903744992E-2    2.839062649350430E-1   -6.387517343424608E-2    2.829176383180960E-1   -6.638008882328897E-2    7.190849432285541E-1    2.283268339745804E-2
 2.454402116993507E7     7.196238257503542E-1    1.762904032914335E-2    2.835194779278310E-1   -6.351354777590003E-2    2.822006746830681E-1   -6.800113862972999E-2    7.193093871539965E-1    2.237933821588766E-2
 2.473128868025839E7     7.198502241640810E-1    1.721758220624859E-2    2.832947236066978E-1   -6.343587265407638E-2    2.819727147772406E-1   -6.792827147710173E-2    7.195253323765184E-1    2.197878160918045E-2
 2.491998501596375E7     7.200661612492539E-1    1.678810332635830E-2    2.830648266049114E-1   -6.337543780420178E-2    2.817482586088833E-1   -6.786699244342037E-2    7.197758842502239E-1    2.157315940966385E-2
 2.511012107879237E7     7.203210393879554E-1    1.894891737463903E-2    2.831324688683906E-1   -6.410636062193106E-2    2.828030678178026E-1   -6.507919891818029E-2    7.199873949577922E-1    2.113616365182298E-2
 2.530170785366461E7     7.205283489118066E-1    1.852730928766446E-2    2.829051543706650E-1   -6.403720786756437E-2    2.825779638345360E-1   -6.500712137480416E-2    7.202033165978751E-1    2.072270856835134E-2
 2.549475640931404E7     7.207711278755720E-1    1.812394627129243E-2    2.826788900774287E-1   -6.395568325701065E-2    2.823463935738211E-1   -6.492343824261200E-2    7.204057728273493E-1    2.029447760025988E-2
 2.568927789892715E7     7.210040442355030E-1    1.768213331829482E-2    2.824664620548702E-1   -6.389506849616751E-2    2.821203145765193E-1   -6.485999208906268E-2    7.206326036657901E-1    1.987871253205014E-2
 2.588528356078789E7     7.210658667851728E-1    1.685802266666026E-2    2.821970996074347E-1   -6.355307231027511E-2    2.815629189231972E-1   -6.509983301546972E-2    7.208371430989741E-1    1.949936171514023E-2
 2.608278471892660E7     7.214355352161539E-1    1.683818699440270E-2    2.820271293758022E-1   -6.374120922027754E-2    2.816892493964627E-1   -6.469974715170651E-2    7.210716433288670E-1    1.905818216859854E-2
 2.628179278377446E7     7.216657034166957E-1    1.641613080025763E-2    2.818186078745923E-1   -6.367045752884787E-2    2.814730542328868E-1   -6.463410195969049E-2    7.212745626526023E-1    1.862107330615122E-2
 2.648231925282269E7     7.216326944634857E-1    1.482627814881295E-2    2.814713152157214E-1   -6.308946886816549E-2    2.804673078908947E-1   -6.559961410350656E-2    7.214737900014222E-1    1.828698993265010E-2
 2.668437571128672E7     7.218376145261316E-1    1.437926178101474E-2    2.812631289626293E-1   -6.303418249639180E-2    2.802484974068153E-1   -6.552659401472911E-2    7.216964260907376E-1    1.785840416342212E-2
 2.688797383277575E7     7.220533244963931E-1    1.393509528245431E-2    2.810403336992206E-1   -6.297088948357514E-2    2.800283008042553E-1   -6.547465885450555E-2    7.218961839060933E-1    1.742403034606135E-2
 2.709312537996687E7     7.223484118192971E-1    1.421886055355040E-2    2.809141963351335E-1   -6.316617321776553E-2    2.802735707647537E-1   -6.469797542951525E-2    7.221260878476902E-1    1.699111379811349E-2
 2.729984220528475E7     7.225527039726085E-1    1.381206556932855E-2    2.807041401990110E-1   -6.310707965271259E-2    2.800660428024710E-1   -6.463760552515224E-2    7.223360469682281E-1    1.656172588057205E-2
 2.750813625158667E7     7.227760116223648E-1    1.337290164794128E-2    2.804868782631079E-1   -6.304800513203775E-2    2.798552045666581E-1   -6.457319221051711E-2    7.225568317502127E-1    1.612492026720170E-2
 2.771801955285188E7     7.233681567150919E-1    9.996596926544667E-3    2.799504264819419E-1   -6.243106948239742E-2    2.786601299131299E-1   -6.796192289851158E-2    7.227817890515098E-1    1.564366194124891E-2
 2.792950423487763E7     7.230887056907062E-1    1.117414182723264E-2    2.799217932714375E-1   -6.258970761419573E-2    2.787048995711568E-1   -6.581181708339938E-2    7.229693534953952E-1    1.526663700314495E-2
 2.814260251597910E7     7.232957319169754E-1    1.069784217821897E-2    2.797062783732494E-1   -6.254012388682696E-2    2.784917878426174E-1   -6.575183398770540E-2    7.231764498131190E-1    1.484572046167596E-2
 2.835732670769557E7     7.235009988030093E-1    1.025937713173489E-2    2.795033418997692E-1   -6.249812379719117E-2    2.782834446564115E-1   -6.569924422952302E-2    7.233690936248056E-1    1.441150269014215E-2
 2.857368921550186E7     7.239361733847801E-1    1.153948808154809E-2    2.794937546167802E-1   -6.305235751083429E-2    2.791345647073118E-1   -6.399250357182572E-2    7.236002716919766E-1    1.392647900509687E-2
 2.879170253952448E7     7.241345103661874E-1    1.106636772570575E-2    2.792960691205223E-1   -6.299290420634650E-2    2.789228230644538E-1   -6.394474187181520E-2    7.237831729613846E-1    1.347646261038805E-2
 2.901137927526460E7     7.243385867574306E-1    1.062042405031507E-2    2.790787433515442E-1   -6.295482541061026E-2    2.787215897450214E-1   -6.388912889546516E-2    7.239991189132794E-1    1.304877921599517E-2
 2.923273211432508E7     7.245296659256575E-1    1.014232149220068E-2    2.788713159378098E-1   -6.290371659963956E-2    2.785063927108390E-1   -6.384979263315323E-2    7.241790986934151E-1    1.258136716211712E-2
 2.945577384514398E7     7.247285163533508E-1    9.677802482801135E-3    2.786705252044730E-1   -6.285958987837653E-2    2.783000903475938E-1   -6.379391358882862E-2    7.243691738609999E-1    1.215140038568907E-2
 2.968051735373363E7     7.249209442701374E-1    9.232736180219019E-3    2.784589815497689E-1   -6.281188146870191E-2    2.780895743427833E-1   -6.375377408386007E-2    7.245523498405183E-1    1.170007250403144E-2
 2.990697562442441E7     7.248957361255799E-1    8.015486264577661E-3    2.781790340703528E-1   -6.241035283249896E-2    2.773219313639850E-1   -6.432730928919687E-2    7.247505964635809E-1    1.129847473461879E-2
 3.013516174061584E7     7.251605899846549E-1    7.901319954381533E-3    2.780132102150936E-1   -6.248283005744006E-2    2.773465763749180E-1   -6.397994934686486E-2    7.249481804617607E-1    1.086339713909099E-2
 3.036508888553168E7     7.252680242032443E-1    7.115873617795134E-3    2.777655641881725E-1   -6.232209366136005E-2    2.769168289461292E-1   -6.424438050763219E-2    7.251360933900529E-1    1.042059898952563E-2
 3.059677034298190E7     7.254735601477298E-1    6.655561996948628E-3    2.775682589962569E-1   -6.229895390388963E-2    2.767047720238778E-1   -6.420404525682141E-2    7.253193779855527E-1    9.943589036961440E-3
 3.083021949813037E7     7.268214835092346E-1    2.535901446101069E-3    2.769993743391057E-1   -6.185202942466769E-2    2.760766984132038E-1   -6.893440133718978E-2    7.255647117113571E-1    9.380666031921239E-3
 3.106544983826748E7     7.270027634808230E-1    2.059508637895972E-3    2.768096750444665E-1   -6.182268459842803E-2    2.758653621278092E-1   -6.891783769473436E-2    7.257473659983423E-1    8.923578236617335E-3
 3.130247495359022E7     7.262283041066905E-1    5.943124026544518E-3    2.770524151643032E-1   -6.253518665995476E-2    2.766604157859779E-1   -6.347766220241456E-2    7.258848038342365E-1    8.523580180641508E-3
 3.154130853798668E7     7.264239655045371E-1    5.477035817705598E-3    2.768567428549807E-1   -6.251349222856120E-2    2.764639767423965E-1   -6.343932334186649E-2    7.260618648220016E-1    8.069072793868776E-3
 3.178196438982744E7     7.265900594973121E-1    4.994414040005132E-3    2.766587945828778E-1   -6.247184004147262E-2    2.762685154115108E-1   -6.341123534808238E-2    7.262439795097291E-1    7.590128612620692E-3
 3.202445641276293E7     7.266408203994420E-1    4.112439816128266E-3    2.764119273824654E-1   -6.221194723321167E-2    2.757096682081902E-1   -6.371874960196705E-2    7.264195009163261E-1    7.163377585784631E-3
 3.226879861652631E7     7.269574332448745E-1    4.041154021223741E-3    2.762669588991695E-1   -6.240573881152562E-2    2.758599641394027E-1   -6.336298580569630E-2    7.266073355369735E-1    6.636193791974927E-3
 3.251500511774320E7     7.273234931003624E-1    1.847544432643108E-4    2.757267307275672E-1   -6.173111297374617E-2    2.743167359496967E-1   -6.716982922561218E-2    7.268261030078661E-1    6.185638178946669E-3
 3.276309014074709E7     7.274806184284275E-1   -3.235460337098896E-4    2.755229745339885E-1   -6.169484325158911E-2    2.741099215247620E-1   -6.714618143778162E-2    7.269973229128237E-1    5.710807866288258E-3
 3.301306801840112E7     7.276517414811120E-1   -8.263252222388763E-4    2.753262533201865E-1   -6.169446642673397E-2    2.739052070393311E-1   -6.713765675240636E-2    7.271821982174776E-1    5.249647632565066E-3
 3.326495319292643E7     7.278275010005324E-1   -1.306709562369607E-3    2.751375471161361E-1   -6.167111120049375E-2    2.737007844340510E-1   -6.711338917716669E-2    7.273491520699070E-1    4.751645926735881E-3
 3.351876021673609E7     7.278408203438491E-1    1.559599500651637E-3    2.752840424449381E-1   -6.229701822048200E-2    2.748713561175498E-1   -6.324054031106302E-2    7.274926060780975E-1    4.304699463877626E-3
 3.377450375327612E7     7.280107329090685E-1    1.081469125209641E-3    2.750905965962638E-1   -6.228716997402002E-2    2.746757206319495E-1   -6.321080123675119E-2    7.276674125689845E-1    3.820875746800481E-3
 3.403219857787284E7     7.279587546718628E-1   -1.490218598491949E-4    2.748007512747220E-1   -6.192498444760479E-2    2.739115335581055E-1   -6.381111051696131E-2    7.278359349505876E-1    3.395364438059261E-3
 3.429185957858586E7     7.281289654599068E-1   -6.585747280362445E-4    2.746031362263689E-1   -6.192507257324953E-2    2.737125741849843E-1   -6.379524468211809E-2    7.280069275805352E-1    2.904345225742277E-3
 3.455350175706909E7     7.282850261125197E-1   -1.138690907215293E-3    2.744053420015888E-1   -6.191799475808875E-2    2.735090831255939E-1   -6.377920234261633E-2    7.281638418177315E-1    2.447006728480022E-3
 3.481714022943672E7     7.287844832847362E-1   -4.291996434256136E-3    2.739694106788650E-1   -6.162752035440744E-2    2.725156903771503E-1   -6.701481741604291E-2    7.283611122768202E-1    1.868075289604017E-3
 3.508279022713681E7     7.289257333162134E-1   -4.821314611845090E-3    2.737561945499739E-1   -6.162276642930646E-2    2.722993047819055E-1   -6.700829120222131E-2    7.285235483164199E-1    1.383519318257199E-3
 3.535046709783159E7     7.290650309790541E-1   -5.308055817502015E-3    2.735572400410338E-1   -6.162361425758400E-2    2.720913697819323E-1   -6.700557394129977E-2    7.286784608547754E-1    8.900588271914265E-4
 3.562018630628331E7     7.292028448742693E-1   -5.796358602364547E-3    2.733557724322156E-1   -6.159798215913159E-2    2.718767718998177E-1   -6.698968051990348E-2    7.288349404482519E-1    4.037443202066188E-4
 3.589196343524875E7     7.293198034254865E-1   -6.301781830342525E-3    2.731405476840719E-1   -6.157410146957476E-2    2.716708581502403E-1   -6.695923039652509E-2    7.289680266458989E-1   -6.574196731662894E-5
 3.616581418637872E7     7.294824038263253E-1   -6.769693142046205E-3    2.729659260746564E-1   -6.153518634533303E-2    2.714907049881390E-1   -6.692307021816606E-2    7.291360498378893E-1   -5.197859528175957E-4
 3.644175438112541E7     7.296587294552140E-1   -7.279241971629871E-3    2.728093789486814E-1   -6.152498270022205E-2    2.713240699626277E-1   -6.690442582180324E-2    7.293116147051514E-1   -9.948892995665071E-4
 3.671979996165685E7     7.294772843687540E-1   -6.123363149248081E-3    2.727699076760282E-1   -6.161443462434750E-2    2.714337670102645E-1   -6.472073535107427E-2    7.294717771508508E-1   -1.451574683841372E-3
 3.699996699177712E7     7.296197510827565E-1   -6.641625075294271E-3    2.725903070114837E-1   -6.162673643720845E-2    2.712556559134789E-1   -6.471060487503669E-2    7.296408107179184E-1   -1.947181330477912E-3
 3.728227165785540E7     7.297760224697639E-1   -7.181685603875664E-3    2.724217077688228E-1   -6.162765889759175E-2    2.710799926384423E-1   -6.471554601626790E-2    7.298052652180895E-1   -2.451803586637823E-3
 3.756673026976037E7     7.299316378065086E-1   -7.702423970691269E-3    2.722360461597227E-1   -6.163863221517407E-2    2.708846350227820E-1   -6.472426059649523E-2    7.299689399837704E-1   -2.968399431251732E-3
 3.785335926180276E7     7.304163005192446E-1   -6.527649233514710E-3    2.722539229804363E-1   -6.211392837541199E-2    2.718245524990834E-1   -6.300068327565043E-2    7.301003141574713E-1   -3.522621581213767E-3
 3.814217519368506E7     7.305870950989340E-1   -7.081026157988542E-3    2.720648493025777E-1   -6.212902269316559E-2    2.716446091223126E-1   -6.302509408647981E-2    7.302683709239750E-1   -4.037057480375227E-3
 3.843319475145779E7     7.307190149193791E-1   -7.600977730574746E-3    2.718907494406825E-1   -6.213376513118700E-2    2.714556334228749E-1   -6.302308185905917E-2    7.304157334074995E-1   -4.549913261691504E-3
 3.872643474848381E7     7.308768870210142E-1   -8.136210591236013E-3    2.717131221181994E-1   -6.214764393851337E-2    2.712768147909425E-1   -6.303155927416042E-2    7.305736917226662E-1   -5.070564110020206E-3
 3.902191212640966E7     7.310230102987690E-1   -8.678185636545363E-3    2.715217469047475E-1   -6.215384361000565E-2    2.710898990256782E-1   -6.305220798659716E-2    7.307387236363621E-1   -5.581031677035778E-3
 3.931964395614420E7     7.311831386312809E-1   -9.216496220902790E-3    2.713401346150970E-1   -6.217437456401262E-2    2.709082709001745E-1   -6.305427220545397E-2    7.308802112331872E-1   -6.097955856074866E-3
 3.961964743884522E7     7.311525774315081E-1   -1.016027364014776E-2    2.710996641349914E-1   -6.196041127179037E-2    2.703673209931673E-1   -6.340438498621440E-2    7.310297678536646E-1   -6.587388695088612E-3
 3.992193990691278E7     7.312877357669529E-1   -1.072313737544444E-2    2.709079211302335E-1   -6.198381116132146E-2    2.701811607261642E-1   -6.342348857579024E-2    7.311779487606930E-1   -7.094640480360778E-3
 4.022653882499073E7     7.312197605074482E-1   -1.255934396507635E-2    2.705866093573308E-1   -6.176515850694124E-2    2.692257571574553E-1   -6.483020044757223E-2    7.313184017803043E-1   -7.602564192246356E-3
 4.053346179097611E7     7.313464365960253E-1   -1.311391784597548E-2    2.704015132953499E-1   -6.178749352649676E-2    2.690455119468889E-1   -6.485837059314645E-2    7.314661592369832E-1   -8.146313445228572E-3
 4.084272653703488E7     7.314834841411776E-1   -1.366515012680209E-2    2.702206281653234E-1   -6.179838460425897E-2    2.688529985784939E-1   -6.488125353298992E-2    7.316012202351123E-1   -8.680283386099923E-3
 4.115435093062763E7     7.316745119117684E-1   -1.514704914529036E-2    2.699698874937912E-1   -6.178884948679543E-2    2.683977352246440E-1   -6.607055864152345E-2    7.317606140108884E-1   -9.247573003695683E-3
 4.146835297554084E7     7.317865271734942E-1   -1.569356065089916E-2    2.697791128908368E-1   -6.180984902879336E-2    2.682117575578726E-1   -6.609823391937211E-2    7.318973075057864E-1   -9.771279083358883E-3
 4.178475081292742E7     7.327246142385084E-1   -1.817782313593597E-2    2.695390628837203E-1   -6.184301472031230E-2    2.683450072249562E-1   -6.883377064844347E-2    7.320880756624590E-1   -1.037833309750607E-2
 4.210356272235513E7     7.328148278893899E-1   -1.872700204387042E-2    2.693461852112271E-1   -6.187787134966069E-2    2.681491665190548E-1   -6.886467353867463E-2    7.322098853438519E-1   -1.091914743477185E-2
 4.242480712286174E7     7.329278612561321E-1   -1.929605505481542E-2    2.691774685427308E-1   -6.189902335991470E-2    2.679723062090648E-1   -6.890938111867530E-2    7.323460631688667E-1   -1.146605665912259E-2
 4.274850257402029E7     7.330409251682658E-1   -1.987103130503779E-2    2.689950988225631E-1   -6.193868902305396E-2    2.677916131030261E-1   -6.894026627251583E-2    7.324791156798144E-1   -1.200542383507862E-2
 4.307466777701053E7     7.327552931455966E-1   -1.591233095618412E-2    2.691602032725058E-1   -6.242263332693992E-2    2.687162533424979E-1   -6.334813749375187E-2    7.325445853782218E-1   -1.249879254987744E-2
 4.340332157569963E7     7.332588876356948E-1   -2.101191788138003E-2    2.686401496863877E-1   -6.201100134975370E-2    2.674242555231913E-1   -6.899443078287937E-2    7.327443808755774E-1   -1.309920646128404E-2
 4.373448295773120E7     7.333515500761097E-1   -2.158432604002160E-2    2.684586055197204E-1   -6.203844406969798E-2    2.672330416601715E-1   -6.904153867376132E-2    7.328761538310962E-1   -1.365307931289366E-2
 4.406817105562137E7     7.326828868932315E-1   -2.024229765122632E-2    2.683362814121619E-1   -6.206299497237708E-2    2.667406584168835E-1   -6.635526165247815E-2    7.329501343340974E-1   -1.411267023805290E-2
 4.440440514786536E7     7.327993049751585E-1   -2.081964779481515E-2    2.681599932051716E-1   -6.210424351644533E-2    2.665577818501293E-1   -6.638990204652326E-2    7.330728190579839E-1   -1.467361991653778E-2
 4.474320466005030E7     7.328920955709814E-1   -2.139794411535365E-2    2.679744626159360E-1   -6.213975071540499E-2    2.663786295725337E-1   -6.642529677252984E-2    7.331940178937115E-1   -1.523109579744503E-2
 4.508458916597787E7     7.330399363745151E-1   -2.048852166410302E-2    2.679109801539136E-1   -6.228112067938803E-2    2.667607735231976E-1   -6.465209531318462E-2    7.333051709418180E-1   -1.574922444236254E-2
 4.542857838879555E7     7.331554934734179E-1   -2.108207556692738E-2    2.677445577582387E-1   -6.233884651951129E-2    2.665831155978082E-1   -6.468667296246362E-2    7.334202651754421E-1   -1.630651986767306E-2
 4.577519220213508E7     7.332570419470631E-1   -2.166693938532972E-2    2.675737238425045E-1   -6.237946165673943E-2    2.664099221981843E-1   -6.474714746442579E-2    7.335564846274856E-1   -1.687723675739268E-2
 4.612445063126191E7     7.333832525233511E-1   -2.225101219227782E-2    2.673950991225144E-1   -6.242016781897761E-2    2.662339813611317E-1   -6.479814502729869E-2    7.336770571035579E-1   -1.745321864365402E-2
 4.647637385423118E7     7.334871918685885E-1   -2.284530366818423E-2    2.672168460476959E-1   -6.246898597831825E-2    2.660621159980712E-1   -6.483315590882170E-2    7.338016991795555E-1   -1.801758874481100E-2
 4.683098220305377E7     7.335790013509880E-1   -2.343723559408091E-2    2.670356010001020E-1   -6.252589076510327E-2    2.658807281061251E-1   -6.489280221804172E-2    7.339161295479758E-1   -1.861414527104480E-2
 4.718829616487134E7     7.336783043063869E-1   -2.403866609000252E-2    2.668640380706740E-1   -6.259455754414869E-2    2.656975431888358E-1   -6.495006987004104E-2    7.340295111606706E-1   -1.919806148698313E-2
 4.754833638313931E7     7.336575723433121E-1   -2.614326693579536E-2    2.665679694116567E-1   -6.253935654185371E-2    2.649390602042222E-1   -6.683058517257945E-2    7.341615198158082E-1   -1.980751096642534E-2
 4.791112365881994E7     7.337446265313704E-1   -2.674096786783630E-2    2.663722543052333E-1   -6.258649131232208E-2    2.647665930984509E-1   -6.688550655348192E-2    7.342540229296375E-1   -2.038312041408937E-2
 4.827667895158397E7     7.338215169841963E-1   -2.735206819365367E-2    2.661988145055008E-1   -6.264373904497375E-2    2.645830815642898E-1   -6.694527170250864E-2    7.343502714389918E-1   -2.096680183358172E-2
 4.864502338102144E7     7.339156840639033E-1   -2.795799613047412E-2    2.660232995984594E-1   -6.269776207631049E-2    2.644015195027059E-1   -6.700649881274119E-2    7.344622298692930E-1   -2.156302769907608E-2
 4.901617822786229E7     7.340058239457213E-1   -2.858129040972045E-2    2.658516426720590E-1   -6.275075149987078E-2    2.642225383096833E-1   -6.706402633260719E-2    7.345660053667384E-1   -2.211432057630601E-2
 4.939016493520518E7     7.340781182686614E-1   -2.918822450727402E-2    2.656749843572743E-1   -6.281004613193131E-2    2.640480494384940E-1   -6.712535745865796E-2    7.346680823088337E-1   -2.272325901626433E-2
 4.976700510975666E7     7.341555267368429E-1   -2.982236878183617E-2    2.654975164901883E-1   -6.288265535458451E-2    2.638685836364448E-1   -6.719646116454266E-2    7.347711594578736E-1   -2.331569887092751E-2
 5.014672052307993E7     7.342479550724088E-1   -3.044383657680074E-2    2.653177317518983E-1   -6.294347605119868E-2    2.636962553474264E-1   -6.725422861972445E-2    7.348675120714977E-1   -2.390770725132264E-2
 5.052933311285146E7     7.343208317283256E-1   -3.106600539156933E-2    2.651395422586083E-1   -6.301313741357205E-2    2.635149741774476E-1   -6.732806464339955E-2    7.349772746188982E-1   -2.449892223075710E-2
 5.091486498412994E7     7.343903763873743E-1   -3.168900717972482E-2    2.649737136392129E-1   -6.307899042054542E-2    2.633439378559586E-1   -6.739968616411493E-2    7.350645302657081E-1   -2.510089295679405E-2
 5.130333841063219E7     7.344713864585348E-1   -3.232164374210784E-2    2.648010407485045E-1   -6.314776696211391E-2    2.631822189171584E-1   -6.748425340713066E-2    7.351747154490016E-1   -2.573359229057099E-2
 5.169477583602042E7     7.345512150140576E-1   -3.295313421961269E-2    2.646303503358659E-1   -6.321630860945318E-2    2.630095769751158E-1   -6.756427121028062E-2    7.352709466255367E-1   -2.632323608144370E-2
 5.208919987519933E7     7.346420193661141E-1   -3.360069008610837E-2    2.644666636707388E-1   -6.329057391325174E-2    2.628415718176100E-1   -6.764907219036734E-2    7.353714404294374E-1   -2.693193828902305E-2
 5.248663331562151E7     7.346932554655524E-1   -3.425074886724051E-2    2.642839982004118E-1   -6.337140328172046E-2    2.626593546062754E-1   -6.772926569892283E-2    7.354653762168413E-1   -2.753033741680213E-2
 5.288709911860541E7     7.347619609065227E-1   -3.490225868741766E-2    2.641135274426883E-1   -6.345057987043945E-2    2.624806714697142E-1   -6.780724530521003E-2    7.355643925135640E-1   -2.814483858694041E-2
 5.329062042066076E7     7.348220162630289E-1   -3.555459246443785E-2    2.639376950774230E-1   -6.353276604145165E-2    2.623085815952462E-1   -6.789931817523316E-2    7.356587476611167E-1   -2.875912997684816E-2
 5.369722053482568E7     7.348883181989085E-1   -3.620739520099452E-2    2.637646180561044E-1   -6.362157781806743E-2    2.621356698051561E-1   -6.798322440882915E-2    7.357316490861452E-1   -2.939326739168137E-2
 5.410692295201402E7     7.349438710189333E-1   -3.686151837212557E-2    2.635824455512434E-1   -6.369963813097466E-2    2.619560487067164E-1   -6.806863920373984E-2    7.358278807196542E-1   -3.001237857798117E-2
 5.451975134237129E7     7.349923964429820E-1   -3.752949229230716E-2    2.634056648621729E-1   -6.378772599296172E-2    2.617773733030996E-1   -6.816252117606351E-2    7.359054420377912E-1   -3.065458937881117E-2
 5.493572955664375E7     7.350582948560291E-1   -3.819045465173782E-2    2.632261595210397E-1   -6.387304080843205E-2    2.615975021031473E-1   -6.825249137234415E-2    7.359949438165259E-1   -3.127392576115526E-2
 5.535488162755510E7     7.351156678852443E-1   -3.882979812699527E-2    2.630526153717768E-1   -6.395924887094653E-2    2.614242997725711E-1   -6.835400156006453E-2    7.360900972370483E-1   -3.190056246668356E-2
 5.577723177119546E7     7.351769350381392E-1   -3.950260064837337E-2    2.628772266637684E-1   -6.404668644341685E-2    2.612512804192553E-1   -6.845229286073408E-2    7.361537668009727E-1   -3.254139429887948E-2
 5.620280438842070E7     7.352347206653607E-1   -4.017944119929176E-2    2.627077022176635E-1   -6.414026935598535E-2    2.610766772161411E-1   -6.855170031052533E-2    7.362370940207741E-1   -3.318843256516719E-2
 5.663162406626155E7     7.352816936514290E-1   -4.086102687771934E-2    2.625387291566357E-1   -6.423166816754464E-2    2.609055731865647E-1   -6.865993268640494E-2    7.363265362551447E-1   -3.385755158137341E-2
 5.706371557934452E7     7.353281729110412E-1   -4.152700269400576E-2    2.623606925333274E-1   -6.433140257392950E-2    2.607364305708094E-1   -6.876925040048409E-2    7.364158920883104E-1   -3.449827021248387E-2
 5.749910389132310E7     7.353907014629876E-1   -4.221389620007500E-2    2.621884091967079E-1   -6.443309301747419E-2    2.605619809962542E-1   -6.887616996392841E-2    7.364943578615725E-1   -3.516025907538570E-2
 5.793781415631992E7     7.354399223129450E-1   -4.290847094658857E-2    2.620165643974819E-1   -6.453187620509886E-2    2.603775840859782E-1   -6.898285800898279E-2    7.365637853035222E-1   -3.580488743549189E-2
 5.837987172038046E7     7.363832030021562E-1   -4.097104932139899E-2    2.620740014601141E-1   -6.523978737017801E-2    2.616940850095308E-1   -6.621796341261083E-2    7.366253409339305E-1   -3.653763212718788E-2
 5.882530212293670E7     7.364206379530923E-1   -4.167985212300127E-2    2.618792924901586E-1   -6.535628257007153E-2    2.615250970596533E-1   -6.633185329217237E-2    7.366822440599285E-1   -3.720343371807057E-2
 5.927413109828297E7     7.364679282588794E-1   -4.235735576425378E-2    2.617072073879200E-1   -6.546549152909877E-2    2.613558986894028E-1   -6.644847501609862E-2    7.367547755579766E-1   -3.786534700428790E-2
 5.972638457706322E7     7.365282611131360E-1   -4.306197654743430E-2    2.615302869786237E-1   -6.558065739789307E-2    2.611768953174738E-1   -6.656132049917224E-2    7.368186022232630E-1   -3.852414135749480E-2
 6.018208868776779E7     7.365784516427935E-1   -4.375082429740486E-2    2.613491987082234E-1   -6.570066783168084E-2    2.610082589936495E-1   -6.668318323103735E-2    7.368879259143136E-1   -3.920915590838432E-2
 6.064126975824468E7     7.366264578512830E-1   -4.445787532175459E-2    2.611764949007037E-1   -6.581105776907106E-2    2.608333942330467E-1   -6.680871056087138E-2    7.369604854492101E-1   -3.987001713403404E-2
 6.110395431721926E7     7.366807273073319E-1   -4.519737790542708E-2    2.610026116996782E-1   -6.593669399949255E-2    2.606631850615254E-1   -6.693845840431041E-2    7.370187328392672E-1   -4.055292656863350E-2
 6.157016909582742E7     7.367209023779124E-1   -4.589876319250208E-2    2.608201223661281E-1   -6.606365687146734E-2    2.604881652592011E-1   -6.706346507390452E-2    7.370887822513958E-1   -4.124858329497167E-2
 6.203994102916045E7     7.367718033677727E-1   -4.659160791915921E-2    2.606387915425117E-1   -6.619473815107217E-2    2.603137852795178E-1   -6.719433415701272E-2    7.371557487776842E-1   -4.193046362926181E-2
 6.251329725781982E7     7.367974700394716E-1   -4.730890973510548E-2    2.604561672270284E-1   -6.631951673935792E-2    2.601359167035222E-1   -6.731778640881969E-2    7.372035598513825E-1   -4.262848615698968E-2
 6.299026512948693E7     7.368268096513534E-1   -4.804298604272760E-2    2.602734161319854E-1   -6.645222600134454E-2    2.599702470228946E-1   -6.745426827987029E-2    7.372860972301063E-1   -4.332678210310886E-2
 6.347087220050172E7     7.368724090908245E-1   -4.875513378077333E-2    2.600932989987498E-1   -6.659217641341562E-2    2.597900881141172E-1   -6.760066290749306E-2    7.373403245931063E-1   -4.401731541486549E-2
 6.395514623745525E7     7.369227530802731E-1   -4.950494877281601E-2    2.599211419751364E-1   -6.672376125333131E-2    2.596136635481916E-1   -6.773700165816918E-2    7.374060471024181E-1   -4.471056325205748E-2
 6.444311521879433E7     7.369694614073453E-1   -5.025016185380131E-2    2.597486063060628E-1   -6.684986377364405E-2    2.594330516567598E-1   -6.787281508949203E-2    7.374490150136485E-1   -4.543257785536576E-2
 6.493480733643661E7     7.369893457767474E-1   -5.097402410354931E-2    2.595595844684807E-1   -6.699335505346005E-2    2.592563137568483E-1   -6.801247623073241E-2    7.374875486506535E-1   -4.613482218266791E-2
 6.543025099740107E7     7.370236600987964E-1   -5.170481443762466E-2    2.593799487205407E-1   -6.713829138726995E-2    2.590715721069567E-1   -6.815705827026278E-2    7.375429916717618E-1   -4.684695651354018E-2
 6.592947482544785E7     7.363354340011353E-1   -5.728469281804128E-2    2.588813498670620E-1   -6.612256194072100E-2    2.575488688365458E-1   -7.362872945682329E-2    7.375954178209416E-1   -4.752442116081940E-2
 6.643250766273243E7     7.363859637346692E-1   -5.808965127692397E-2    2.587170071932487E-1   -6.626302687196257E-2    2.573940040537822E-1   -7.383594005694857E-2    7.376897217783094E-1   -4.822339541666196E-2
 6.693937857147253E7     7.364385576619186E-1   -5.885605518302402E-2    2.585470276016928E-1   -6.641616335860145E-2    2.572325879665362E-1   -7.398484886491401E-2    7.377567210354992E-1   -4.891549743150967E-2
 6.745011683562562E7     7.364706122201750E-1   -5.969035221752104E-2    2.583656629786143E-1   -6.654670170618902E-2    2.570482265007888E-1   -7.416861996017744E-2    7.378030974929701E-1   -4.965817054741536E-2
 6.796475196258274E7     7.365064704205971E-1   -6.040702449648176E-2    2.581874431784330E-1   -6.668482251855505E-2    2.568853235415015E-1   -7.429066944034170E-2    7.378575429098835E-1   -5.036021189752155E-2
 6.848331368487169E7     7.365336327992051E-1   -6.115025369061152E-2    2.580134328491878E-1   -6.681557294720311E-2    2.567403088254961E-1   -7.437849642763023E-2    7.379006357171176E-1   -5.101915422680989E-2
 6.900583196187538E7     7.362323982355607E-1   -5.960913903258427E-2    2.579859922416298E-1   -6.728002077972567E-2    2.563813898521605E-1   -7.186106341116029E-2    7.379705101708759E-1   -5.168461608857825E-2
 6.953233698156311E7     7.362629308563946E-1   -6.035421108303925E-2    2.578349568267257E-1   -6.738945465689992E-2    2.561829018627189E-1   -7.207508864287061E-2    7.379799042663141E-1   -5.253971687036638E-2
 7.006285916223384E7     7.362688086158909E-1   -6.117854362148323E-2    2.576863870180575E-1   -6.748202108536834E-2    2.559609340929093E-1   -7.235083773433963E-2    7.380071706702265E-1   -5.330861218448747E-2
 7.059742915427396E7     7.362699126669466E-1   -6.209924577830047E-2    2.575154089259657E-1   -6.763137440691951E-2    2.557834088867810E-1   -7.254818268261837E-2    7.380649523486041E-1   -5.402139306852542E-2
 7.113607784192866E7     7.362955147271837E-1   -6.287424310992606E-2    2.573263315005728E-1   -6.782711414318392E-2    2.556254832466165E-1   -7.269516728798857E-2    7.381319845815921E-1   -5.475559165443215E-2
 7.167883634508467E7     7.363395463809139E-1   -6.363156097153726E-2    2.571471271939885E-1   -6.802029507833235E-2    2.554764358003560E-1   -7.282998423267802E-2    7.381766639080519E-1   -5.548591587804211E-2
 7.222573602107021E7     7.363731540739687E-1   -6.441898558438604E-2    2.569734171359993E-1   -6.820923872128114E-2    2.553283823860491E-1   -7.294854932668801E-2    7.382233663622240E-1   -5.618367524892133E-2
 7.277680846646504E7     7.363799778473912E-1   -6.516291510240847E-2    2.567914302089995E-1   -6.838590528778664E-2    2.551713717989741E-1   -7.307854614086445E-2    7.382689700136523E-1   -5.696014176948817E-2
 7.333208551892644E7     7.363970752202276E-1   -6.593233637373193E-2    2.566220408535683E-1   -6.851257814855301E-2    2.549552852367276E-1   -7.331308149727722E-2    7.382569922671166E-1   -5.787255037736429E-2
 7.389159925902925E7     7.364100107160791E-1   -6.680042735558483E-2    2.564669563613522E-1   -6.861223042058169E-2    2.547280677021815E-1   -7.360135307467972E-2    7.382749418460443E-1   -5.867810309862127E-2
 7.445538201211768E7     7.364121733214677E-1   -6.773061071535789E-2    2.562929539160287E-1   -6.877887621899684E-2    2.545373351723357E-1   -7.380788019748925E-2    7.383029832247673E-1   -5.936833171143856E-2
 7.502346635017487E7     7.364263173247780E-1   -6.854619506624314E-2    2.560989698515797E-1   -6.900347319916289E-2    2.543805943831642E-1   -7.394242074239943E-2    7.383269787930179E-1   -6.009112029412875E-2
 7.559588509370317E7     7.364671481357778E-1   -6.933539902983074E-2    2.559236814779983E-1   -6.919832998779035E-2    2.542363714748863E-1   -7.407193401634518E-2    7.383778641128117E-1   -6.085578708182403E-2
 7.617267131362079E7     7.364980303988805E-1   -7.012383761628606E-2    2.557504765832596E-1   -6.940907075380667E-2    2.540809476489245E-1   -7.420916620583914E-2    7.384333368093802E-1   -6.160158918599580E-2
 7.675385833317320E7     7.365021449208177E-1   -7.090650101771609E-2    2.555706701935254E-1   -6.959297444429763E-2    2.539137398177131E-1   -7.436498059982044E-2    7.384386368228589E-1   -6.239094815191731E-2
 7.733947972985649E7     7.365264291871384E-1   -7.174935825815444E-2    2.554077545596158E-1   -6.973723249750820E-2    2.537079744344677E-1   -7.464844238658275E-2    7.384716757011179E-1   -6.330263563992408E-2
 7.792956933735959E7     7.365144983230959E-1   -7.265514178348995E-2    2.552413668316619E-1   -6.987559038803559E-2    2.534925338140791E-1   -7.496224577668313E-2    7.385064525880440E-1   -6.412684915322069E-2
 7.852416124751715E7     7.365093005097694E-1   -7.360148323198298E-2    2.550558148993712E-1   -7.007307669043542E-2    2.533077300207874E-1   -7.518261325582783E-2    7.385460182397601E-1   -6.488276630893362E-2
 7.912328981227988E7     7.365107923105305E-1   -7.437903108240096E-2    2.548644007405573E-1   -7.029313761991184E-2    2.531379621448346E-1   -7.533913027392987E-2    7.385658750173842E-1   -6.567813749158710E-2
 7.972698964569975E7     7.365091448984227E-1   -7.519630660758347E-2    2.546783896985878E-1   -7.049629702399492E-2    2.529578320182358E-1   -7.550445126905364E-2    7.385953262691225E-1   -6.649240010907004E-2
 8.033529562592810E7     7.365136758546745E-1   -7.603331809775764E-2    2.544968868968435E-1   -7.067880272538925E-2    2.527774274297693E-1   -7.573083301615581E-2    7.386100210099835E-1   -6.731535348930928E-2
 8.094824289723292E7     7.365432160644566E-1   -7.692394593967419E-2    2.543272619122187E-1   -7.088203786810310E-2    2.526004452413716E-1   -7.595995836535060E-2    7.386268814374938E-1   -6.813948141304446E-2
 8.156586687202743E7     7.365414051325632E-1   -7.781037010155706E-2    2.541522296169278E-1   -7.108201264377886E-2    2.524190607211584E-1   -7.617883465870942E-2    7.386644035943494E-1   -6.897817969916947E-2
 8.218820323291673E7     7.365205564567223E-1   -7.870955532325195E-2    2.539693279024853E-1   -7.130896275421186E-2    2.522499226948126E-1   -7.637836344379956E-2    7.386805698277662E-1   -6.981752155910158E-2
 8.281528793475981E7     7.365122743582376E-1   -7.951932906649017E-2    2.538033947654922E-1   -7.152929035403770E-2    2.520760119895171E-1   -7.657780009399388E-2    7.386766367177285E-1   -7.066159386620088E-2
 8.344715720674579E7     7.365540865151784E-1   -8.038742695460117E-2    2.536295475721047E-1   -7.175843666675898E-2    2.519108377604192E-1   -7.681418392045992E-2    7.386776404693768E-1   -7.150177658446108E-2
 8.408384755448765E7     7.365641240270588E-1   -8.126932534910415E-2    2.534547386449392E-1   -7.199000712837098E-2    2.517269011742009E-1   -7.703930656894646E-2    7.386908213586640E-1   -7.234982235886805E-2
 8.472539576213124E7     7.365776955560094E-1   -8.216592080897570E-2    2.532695607350210E-1   -7.221909450493944E-2    2.515384578480294E-1   -7.726809090763467E-2    7.386754189880875E-1   -7.318095293562635E-2
 8.537183889448020E7     7.365491220145316E-1   -8.302499236142231E-2    2.530837877379754E-1   -7.243739322435766E-2    2.513518550210016E-1   -7.748770761540329E-2    7.386825931873542E-1   -7.401579052212921E-2
 8.602321429913802E7     7.365601656912840E-1   -8.391305488637973E-2    2.529128845204880E-1   -7.266778926846777E-2    2.511798044653673E-1   -7.772737826301569E-2    7.387221390704849E-1   -7.488018951520795E-2
 8.667955960866481E7     7.365452822110058E-1   -8.477931427132339E-2    2.527332972661039E-1   -7.289871759508181E-2    2.510027970771821E-1   -7.796037622399024E-2    7.387449925745325E-1   -7.574978020827131E-2
 8.734091274275188E7     7.365505029455415E-1   -8.567325837336599E-2    2.525529222389413E-1   -7.313820822556889E-2    2.508256699060886E-1   -7.819741073170403E-2    7.387404832389862E-1   -7.661047104254351E-2
 8.800731191041334E7     7.365639942506843E-1   -8.658034932892959E-2    2.523769294901526E-1   -7.337857445707276E-2    2.506436012680828E-1   -7.844064184845423E-2    7.387402993736496E-1   -7.747656824593047E-2
 8.867879561219153E7     7.365597531571229E-1   -8.746576080290716E-2    2.521968813176129E-1   -7.362091829213455E-2    2.504691278661884E-1   -7.868011798449460E-2    7.387747828603880E-1   -7.834157085694779E-2
 8.935540264238395E7     7.365924360377917E-1   -8.838833428761474E-2    2.520398572731026E-1   -7.387944453170507E-2    2.502923556491563E-1   -7.893159566236800E-2    7.387946788681354E-1   -7.920006359206348E-2
 9.003717209128250E7     7.365347803038349E-1   -8.927832757417502E-2    2.518157400558241E-1   -7.410462691722421E-2    2.500695857950513E-1   -7.912923038995173E-2    7.387483996543431E-1   -8.006670865260272E-2
 9.072414334743266E7     7.365541322613032E-1   -9.019338511660756E-2    2.516521191888054E-1   -7.438297497427215E-2    2.499000171084946E-1   -7.940907284673587E-2    7.387835660417567E-1   -8.096874116776556E-2
 9.141635609990983E7     7.365596405384889E-1   -9.110837712888394E-2    2.514664722339625E-1   -7.466994564095623E-2    2.497219758094832E-1   -7.969261818862373E-2    7.388057328334792E-1   -8.187955676959384E-2
 9.211385034061028E7     7.366040857104063E-1   -9.202109431912078E-2    2.512862878389067E-1   -7.495220563231778E-2    2.495338056335804E-1   -7.997318694330935E-2    7.388063088854090E-1   -8.277607378501944E-2
 9.281666636656430E7     7.366284191098258E-1   -9.294856126728655E-2    2.511036449108918E-1   -7.524985217595227E-2    2.493538179824556E-1   -8.026246775016514E-2    7.388340999646948E-1   -8.369432334372177E-2
 9.352484478226222E7     7.366459482684282E-1   -9.390305007857423E-2    2.509029560488912E-1   -7.555273716033546E-2    2.491491985074024E-1   -8.054669238640706E-2    7.388500325592134E-1   -8.459490160423129E-2
 9.423842650200106E7     7.366848504343092E-1   -9.486316889686341E-2    2.506986458059202E-1   -7.585691211604646E-2    2.489396381798936E-1   -8.084037030974696E-2    7.388588039229177E-1   -8.551092009693058E-2
 9.495745275224906E7     7.366837431640880E-1   -9.582724791814920E-2    2.504735258704801E-1   -7.616846242979847E-2    2.487270746770520E-1   -8.114426828748920E-2    7.388759599103859E-1   -8.644281410875847E-2
 9.568196507402541E7     7.366806275770629E-1   -9.681395807739537E-2    2.502590278086069E-1   -7.648167798440314E-2    2.485054186329933E-1   -8.144462816804196E-2    7.388812613170785E-1   -8.736823014499338E-2
 9.641200532530291E7     7.366869732584033E-1   -9.781802253147516E-2    2.500465139825869E-1   -7.678694384362862E-2    2.482835410859595E-1   -8.173952590507834E-2    7.389066985868880E-1   -8.832192786958135E-2
 9.714761568342420E7     7.367176852442135E-1   -9.881098518957125E-2    2.498328118949489E-1   -7.711125333861549E-2    2.480595299628425E-1   -8.204166988383611E-2    7.388980255463297E-1   -8.925928211147026E-2
 9.788883864753923E7     7.366858437293450E-1   -9.980696799026727E-2    2.495943145742621E-1   -7.743103675618299E-2    2.478268469589814E-1   -8.234639598695406E-2    7.389021390766415E-1   -9.020992099633933E-2
 9.863571704106140E7     7.366747699897829E-1   -1.008246311698723E-1    2.493647732148069E-1   -7.774497243971382E-2    2.475875337712228E-1   -8.264856099244161E-2    7.389002614843272E-1   -9.117886957606536E-2
 9.938829401413949E7     7.366366988510263E-1   -1.018102767339989E-1    2.491273562958623E-1   -7.806784512540982E-2    2.473546519492345E-1   -8.296000861516571E-2    7.389146703254571E-1   -9.215228708423190E-2
 1.001466130461536E8     7.366211788200262E-1   -1.028172784828754E-1    2.489022816477649E-1   -7.840905884960028E-2    2.471185783848736E-1   -8.327376004890445E-2    7.388957811728163E-1   -9.309248957688825E-2
 1.009107179482240E8     7.365960137176391E-1   -1.037901709356720E-1    2.486439276726503E-1   -7.876485490855424E-2    2.468683228621884E-1   -8.361967807111670E-2    7.389356383483968E-1   -9.405350561361608E-2
 1.016806528657447E8     7.365960222554666E-1   -1.047609082456186E-1    2.483699116525326E-1   -7.912558589853551E-2    2.465857941974171E-1   -8.396394007658381E-2    7.389877499166891E-1   -9.502339084958877E-2
 1.024564622809335E8     7.366495242630138E-1   -1.057561409670328E-1    2.480699796427249E-1   -7.948903703205344E-2    2.462810181742448E-1   -8.430749850346601E-2    7.390752738892566E-1   -9.601653185814608E-2
 1.032381910153997E8     7.367176415001226E-1   -1.067760937741788E-1    2.477268426267817E-1   -7.982666920267466E-2    2.459366949919814E-1   -8.462550509152969E-2    7.391663497860056E-1   -9.701523695306855E-2
 1.040258842327368E8     7.368077450295279E-1   -1.078333990769439E-1    2.473744034661688E-1   -8.015272007026145E-2    2.455755926173318E-1   -8.492229537089256E-2    7.392848172014783E-1   -9.805802115577920E-2
 1.048195874411304E8     7.369031648845632E-1   -1.089491084777865E-1    2.469941697230269E-1   -8.041688795748707E-2    2.452120504789670E-1   -8.517241402668799E-2    7.394171443902645E-1   -9.918603511163375E-2
 1.056193464959857E8     7.369481271999052E-1   -1.100960809963377E-1    2.466450414481731E-1   -8.063901177746420E-2    2.448693775961688E-1   -8.538085137833740E-2    7.395062599975657E-1   -1.003856836063923E-1
 1.064252076025801E8     7.369662967786106E-1   -1.113112703403159E-1    2.463499904777524E-1   -8.081855020039733E-2    2.445699932522241E-1   -8.556866389695382E-2    7.395342864987046E-1   -1.016153024774078E-1
 1.072372173187304E8     7.369423823157767E-1   -1.124424225970218E-1    2.460993167211101E-1   -8.107484687777738E-2    2.443132500893734E-1   -8.581277164753238E-2    7.394857016683888E-1   -1.027773515246421E-1
 1.080554225574824E8     7.369383274840329E-1   -1.135980348185431E-1    2.458027076602836E-1   -8.132443304827570E-2    2.440006339817498E-1   -8.605372000286367E-2    7.395270097785641E-1   -1.039542038924949E-1
 1.088798705898232E8     7.369615087084953E-1   -1.147388396499252E-1    2.455258270056120E-1   -8.156390467830817E-2    2.436889657775015E-1   -8.627599839661651E-2    7.395003338475241E-1   -1.051680980794394E-1
 1.097106090474096E8     7.370300967795717E-1   -1.159224258455175E-1    2.452188780108667E-1   -8.180534315786668E-2    2.433569337321047E-1   -8.647564835706373E-2    7.394335182882723E-1   -1.064051997727726E-1
 1.105476859253232E8     7.371043349677805E-1   -1.172372298394578E-1    2.449154714901949E-1   -8.200002213029527E-2    2.430339005133325E-1   -8.663713722388536E-2    7.394328821238001E-1   -1.076494966642444E-1
 1.113911495848395E8     7.371162610056841E-1   -1.186152524785940E-1    2.446815895633240E-1   -8.214353517113214E-2    2.427781273939443E-1   -8.675952102158328E-2    7.393839350989934E-1   -1.089382065980664E-1
 1.122410487562254E8     7.370488410527039E-1   -1.200109054749353E-1    2.445228897262633E-1   -8.232529360956337E-2    2.425780627881954E-1   -8.691139235917922E-2    7.392543785548277E-1   -1.102085177592739E-1
 1.130974325415529E8     7.369173111167104E-1   -1.213787453751824E-1    2.443702968300019E-1   -8.257071890979779E-2    2.423985789099743E-1   -8.710534807920824E-2    7.391584638897319E-1   -1.114003130010633E-1
 1.139603504175348E8     7.367769027711532E-1   -1.227197093899341E-1    2.441863623375953E-1   -8.283321020793193E-2    2.421942732414620E-1   -8.732130204134508E-2    7.391163277576611E-1   -1.126064204713709E-1
 1.148298522383858E8     7.366177805275090E-1   -1.240564643463117E-1    2.439876958969290E-1   -8.308492468273629E-2    2.419743665210296E-1   -8.751078367223900E-2    7.390672834047980E-1   -1.138996902426283E-1
 1.157059882387014E8     7.364455011119058E-1   -1.254162163691039E-1    2.438001375934920E-1   -8.331147754899590E-2    2.417789922190558E-1   -8.768083209711736E-2    7.389716553935965E-1   -1.152132936036133E-1
 1.165888090363587E8     7.362173565287766E-1   -1.267836160677610E-1    2.436146857622354E-1   -8.354955387573242E-2    2.415974162815056E-1   -8.784275777294853E-2    7.388541030819845E-1   -1.165776583977834E-1
 1.174783656354443E8     7.359812733884488E-1   -1.281590215079493E-1    2.434651807751781E-1   -8.375464288631380E-2    2.414568774373909E-1   -8.797917925912421E-2    7.386779284935325E-1   -1.179964346183247E-1
 1.183747094291968E8     7.356797587202387E-1   -1.295281959132206E-1    2.433828702572102E-1   -8.397293031963292E-2    2.414167971524092E-1   -8.812498106955188E-2    7.383756789047796E-1   -1.194209785317910E-1
 1.192778922029803E8     7.353488317807473E-1   -1.308451030737137E-1    2.433678019677955E-1   -8.428171865978321E-2    2.414369928939755E-1   -8.840529721739138E-2    7.380109069536416E-1   -1.206742803681392E-1
 1.201879661372721E8     7.350623611949454E-1   -1.320724607853187E-1    2.432811020866994E-1   -8.470584113042448E-2    2.413694372276127E-1   -8.879295057975793E-2    7.377455643109126E-1   -1.218361082575128E-1
 1.211049838106809E8     7.348758901170569E-1   -1.333684674790369E-1    2.431014224494009E-1   -8.507935929624695E-2    2.412168779637824E-1   -8.915050661819210E-2    7.375910687501348E-1   -1.230625402286701E-1
 1.220289982029829E8     7.346631990677674E-1   -1.347281089376106E-1    2.429555520928476E-1   -8.540046065274044E-2    2.410977628079681E-1   -8.946577204931645E-2    7.373865933599546E-1   -1.243299962891979E-1
 1.229600626981811E8     7.343639463282253E-1   -1.361049802446226E-1    2.428488997882312E-1   -8.575210429977609E-2    2.410015942935247E-1   -8.982318216525075E-2    7.371336892322660E-1   -1.255842974306330E-1
 1.238982310875929E8     7.340474345999938E-1   -1.374269156627130E-1    2.427349554215820E-1   -8.616097564927036E-2    2.408788351746242E-1   -9.023221469851953E-2    7.369129935569756E-1   -1.267780988922045E-1
 1.248435575729559E8     7.337709182705686E-1   -1.387227597148436E-1    2.425519358257089E-1   -8.660992495186425E-2    2.406808216837306E-1   -9.065592943515326E-2    7.367574894505203E-1   -1.279496580098305E-1
 1.257960967695579E8     7.335020164422384E-1   -1.400831344183947E-1    2.422637973749885E-1   -8.693922342738182E-2    2.403946289752776E-1   -9.094952692708791E-2    7.366682257414678E-1   -1.292301625562641E-1
 1.267559037093956E8     7.331885429988954E-1   -1.415556556003614E-1    2.420949504480238E-1   -8.720752488746908E-2    2.402198192971055E-1   -9.119033185832019E-2    7.365292313824732E-1   -1.306866054057524E-1
 1.277230338443520E8     7.327327361123690E-1   -1.429513804313080E-1    2.420690921402171E-1   -8.752367870067172E-2    2.401926839907270E-1   -9.150597228954697E-2    7.362130309962667E-1   -1.321052641242404E-1
 1.286975430493991E8     7.323332667621653E-1   -1.442143053350278E-1    2.420258894514921E-1   -8.800318615486384E-2    2.401357381028984E-1   -9.196803430528949E-2    7.358694258154969E-1   -1.333728505710827E-1
 1.296794876258291E8     7.320253708890604E-1   -1.454510126102903E-1    2.418526147375046E-1   -8.850962265007466E-2    2.399635138393191E-1   -9.244259400548303E-2    7.356230139440905E-1   -1.346049769169755E-1
 1.306689243045034E8     7.317432449447459E-1   -1.467579136871800E-1    2.416609867831171E-1   -8.895674107216547E-2    2.397664794061077E-1   -9.286933602615917E-2    7.354059965491671E-1   -1.358832739194747E-1
 1.316659102491341E8     7.314707557405741E-1   -1.480997469382641E-1    2.414732240744323E-1   -8.940332925832338E-2    2.395698207609925E-1   -9.329214562251595E-2    7.351846753259647E-1   -1.371712824579784E-1
 1.326705030595824E8     7.312013491740811E-1   -1.494489918915846E-1    2.412680328319330E-1   -8.984446523258065E-2    2.393667836298210E-1   -9.371193249054130E-2    7.349649613959242E-1   -1.384551015071097E-1
 1.336827607751903E8     7.309313263937351E-1   -1.508389251856541E-1    2.410496442601125E-1   -9.027372829731987E-2    2.391531220021232E-1   -9.412328508865087E-2    7.347805279357427E-1   -1.397548428784237E-1
 1.347027418781318E8     7.306599540682883E-1   -1.522626999237595E-1    2.408264201203654E-1   -9.068308027358270E-2    2.389320628956291E-1   -9.451431949406133E-2    7.346032878723482E-1   -1.411109412802910E-1
 1.357305052967905E8     7.303555790252161E-1   -1.537377717780090E-1    2.406201550916003E-1   -9.109003616007148E-2    2.387314340238281E-1   -9.488576575335966E-2    7.343786795629276E-1   -1.424799887702437E-1
 1.367661104091667E8     7.300155615855539E-1   -1.552164957600396E-1    2.404106444913682E-1   -9.149176416392965E-2    2.385628828425669E-1   -9.527360890931570E-2    7.341222883238813E-1   -1.438317923112672E-1
 1.378096170463071E8     7.296472084455304E-1   -1.567219609922739E-1    2.401891617968484E-1   -9.188517114885149E-2    2.383757029596739E-1   -9.567820021224333E-2    7.338896786733613E-1   -1.451971446149063E-1
 1.388610854957592E8     7.292512667417549E-1   -1.582414729483681E-1    2.399834333424471E-1   -9.224315013966931E-2    2.382024664009355E-1   -9.606507622995133E-2    7.336775722913679E-1   -1.465972490213177E-1
 1.399205765050585E8     7.287890257029438E-1   -1.597280076540151E-1    2.398243169714926E-1   -9.258846119463755E-2    2.380539701704322E-1   -9.645526711529263E-2    7.334019733920176E-1   -1.480402467706726E-1
 1.409881512852336E8     7.283149091391943E-1   -1.612070310685365E-1    2.397185764811401E-1   -9.297908289820285E-2    2.379358601613638E-1   -9.689821335519717E-2    7.330764629902948E-1   -1.494796991290615E-1
 1.420638715143470E8     7.278408033416217E-1   -1.626500011052584E-1    2.396003297623529E-1   -9.340486119486713E-2    2.377963911941596E-1   -9.735977075953613E-2    7.327463019320818E-1   -1.508700225582451E-1
 1.431477993410541E8     7.273596240761681E-1   -1.640936612614012E-1    2.394935359848999E-1   -9.385690700467136E-2    2.376494729789327E-1   -9.783333934150433E-2    7.324142656212698E-1   -1.522548770102297E-1
 1.442399973881980E8     7.268722688445336E-1   -1.654854933935284E-1    2.393845523761851E-1   -9.435874885213377E-2    2.375074891452754E-1   -9.834543075915370E-2    7.320593584557191E-1   -1.536333055780074E-1
 1.453405287564251E8     7.264312018113657E-1   -1.668705219151004E-1    2.392245645463464E-1   -9.490258439575118E-2    2.373110210706763E-1   -9.888418049982305E-2    7.317337906979540E-1   -1.549347709945429E-1
 1.464494570278296E8     7.260365769765591E-1   -1.682835642260964E-1    2.390076512146158E-1   -9.541048909503837E-2    2.370641683103025E-1   -9.938812263454867E-2    7.314697037301907E-1   -1.562798424057244E-1
 1.475668462696298E8     7.256054236675008E-1   -1.697477288514864E-1    2.387990722676359E-1   -9.591334816421847E-2    2.368285657421601E-1   -9.986582923159225E-2    7.311957148619933E-1   -1.576594870133368E-1
 1.486927610378684E8     7.251735605911482E-1   -1.712203836306009E-1    2.385743824212798E-1   -9.643028121581698E-2    2.365760855150875E-1   -1.003716024150033E-1    7.309031464713908E-1   -1.590642482452505E-1
 1.498272663811400E8     7.247613049293903E-1   -1.727182752061417E-1    2.383307877245541E-1   -9.692559415504402E-2    2.363113196810167E-1   -1.008335551151260E-1    7.306424501142796E-1   -1.604963038982937E-1
 1.509704278443526E8     7.243246285563297E-1   -1.743155410671755E-1    2.380752311549561E-1   -9.740196038188359E-2    2.360465333235357E-1   -1.012596676656946E-1    7.303717560916848E-1   -1.619676931468775E-1
 1.521223114725131E8     7.237954448497046E-1   -1.759064756568735E-1    2.378628426753591E-1   -9.781239063380734E-2    2.358335424037765E-1   -1.016220202559581E-1    7.300625580277574E-1   -1.635045031099526E-1
 1.532829838145407E8     7.231942130997305E-1   -1.774761300759100E-1    2.377200323724685E-1   -9.826721814617063E-2    2.356797182793864E-1   -1.020421782803551E-1    7.296993732492723E-1   -1.650444152109863E-1
 1.544525119271165E8     7.225864847382959E-1   -1.789525756680099E-1    2.376222194961239E-1   -9.874262181257418E-2    2.355582193031980E-1   -1.025143908101247E-1    7.293180874142595E-1   -1.665673556464395E-1
 1.556309633785520E8     7.220308353311200E-1   -1.803846800487037E-1    2.375029672943213E-1   -9.925817421078847E-2    2.354246095990365E-1   -1.030535166933699E-1    7.289240985145428E-1   -1.680776377768154E-1
 1.568184062526983E8     7.214804354085073E-1   -1.818116780514279E-1    2.373877986653385E-1   -9.977340975038419E-2    2.352845360792921E-1   -1.036519158231135E-1    7.284989733847004E-1   -1.695723225338226E-1
 1.580149091528745E8     7.209619202927133E-1   -1.832503853298579E-1    2.372671945499998E-1   -1.003021655471038E-1    2.351043183660108E-1   -1.042998011684157E-1    7.280668097483328E-1   -1.709543867377616E-1
 1.592205412058353E8     7.204992020386974E-1   -1.846285227889853E-1    2.371175117831545E-1   -1.008261245491340E-1    2.348956410965717E-1   -1.049750577925505E-1    7.276955169639674E-1   -1.723486047838744E-1
 1.604353720657634E8     7.200699475284462E-1   -1.859911726707543E-1    2.369492962623682E-1   -1.013582115767196E-1    2.346709471032006E-1   -1.056524461117515E-1    7.273184884360585E-1   -1.737642106192056E-1
 1.616594719182909E8     7.197049826008582E-1   -1.874204220138908E-1    2.367541658812943E-1   -1.019092286821853E-1    2.344123735119440E-1   -1.063143522197515E-1    7.269581518212086E-1   -1.751736319068803E-1
 1.628929114845590E8     7.193337645439337E-1   -1.888350227896554E-1    2.365137484538165E-1   -1.024503108432095E-1    2.341264915575319E-1   -1.069754751054748E-1    7.266008581276843E-1   -1.766293253041764E-1
 1.641357620253014E8     7.190030317081350E-1   -1.901434155718644E-1    2.362784596993631E-1   -1.029116758763541E-1    2.338519457404524E-1   -1.075227298815858E-1    7.262745589174886E-1   -1.781436626491118E-1
 1.653880953449593E8     7.185689362048161E-1   -1.917195902920748E-1    2.360248706450389E-1   -1.034741615543329E-1    2.335952604386762E-1   -1.080704888018676E-1    7.258982577318572E-1   -1.796531529071099E-1
 1.666499837958347E8     7.180816856766213E-1   -1.933421022849519E-1    2.357693590060745E-1   -1.040540084969652E-1    2.333490553567215E-1   -1.086225253626097E-1    7.254944083819413E-1   -1.812052750721702E-1
 1.679215002822650E8     7.175681361936199E-1   -1.949250079117639E-1    2.355398771826662E-1   -1.046949072319748E-1    2.331346227608651E-1   -1.092028896951744E-1    7.250551075816855E-1   -1.827256515334959E-1
 1.692027182648404E8     7.170897654409841E-1   -1.965619950801836E-1    2.352865500411641E-1   -1.053506127323607E-1    2.328966543038690E-1   -1.098205820721517E-1    7.246395736715980E-1   -1.842593505257042E-1
 1.704937117646426E8     7.165905965063648E-1   -1.981976148976459E-1    2.350227895462224E-1   -1.060009209398965E-1    2.326353070362922E-1   -1.104552370424711E-1    7.242328065705836E-1   -1.858054901413898E-1
 1.717945553675260E8     7.161150322088156E-1   -1.998702907022768E-1    2.347426374684733E-1   -1.066456180877990E-1    2.323603561728035E-1   -1.110976145377611E-1    7.238136379218608E-1   -1.873517876142545E-1
 1.731053242284249E8     7.155765925636408E-1   -2.016123636571734E-1    2.344731934801366E-1   -1.073002014763124E-1    2.320851234164465E-1   -1.117443477816703E-1    7.233508242508397E-1   -1.889043593071108E-1
 1.744260940756933E8     7.150293601237766E-1   -2.032917218988634E-1    2.341965205140274E-1   -1.079749732493691E-1    2.317917180722994E-1   -1.124214764682071E-1    7.229073003815841E-1   -1.904627741207728E-1
 1.757569412154842E8     7.144198815017041E-1   -2.050038812789147E-1    2.338773186344127E-1   -1.086172968644585E-1    2.314581807622711E-1   -1.130476912795422E-1    7.224698939044671E-1   -1.920173506618606E-1
 1.770979425361561E8     7.137016773666373E-1   -2.066542230589388E-1    2.335802138770171E-1   -1.092626422375016E-1    2.311623694101982E-1   -1.136816622540682E-1    7.220092530152182E-1   -1.936255097879823E-1
 1.784491755127131E8     7.130225074795531E-1   -2.081798638879402E-1    2.332818048739471E-1   -1.099342666778895E-1    2.308545759683191E-1   -1.143506630366756E-1    7.215080117238680E-1   -1.952139138699821E-1
 1.798107182112848E8     7.124222200340250E-1   -2.096754161569870E-1    2.329526663106597E-1   -1.106143513324005E-1    2.305154897431921E-1   -1.150211821490635E-1    7.209885713893761E-1   -1.967873783274779E-1
 1.811826492936349E8     7.118301083047287E-1   -2.112055789893517E-1    2.326013111522361E-1   -1.112913012598702E-1    2.301552888129316E-1   -1.156643763582091E-1    7.204348561308461E-1   -1.983430007923422E-1
 1.825650480217040E8     7.112966058831904E-1   -2.127601953016229E-1    2.322205328466484E-1   -1.119728845950432E-1    2.297654069419313E-1   -1.163479064759525E-1    7.199572665124788E-1   -1.999665803631574E-1
 1.839579942621904E8     7.107698665049585E-1   -2.143496110546533E-1    2.318391889574284E-1   -1.126373831487138E-1    2.293678642512419E-1   -1.169908177662187E-1    7.194639325744925E-1   -2.015444649801242E-1
 1.853615684911660E8     7.101975965743428E-1   -2.159542117205095E-1    2.314566071288512E-1   -1.132354600861871E-1    2.289824655987431E-1   -1.175782442500322E-1    7.189664562192254E-1   -2.031718853547822E-1
 1.867758517987237E8     7.096524000354900E-1   -2.176063320036132E-1    2.310886952385095E-1   -1.139026980067607E-1    2.286052186337257E-1   -1.182029105640222E-1    7.184025047749488E-1   -2.048568584944195E-1
 1.882009258936609E8     7.090828573006804E-1   -2.192701646366673E-1    2.307458000370221E-1   -1.145214450757791E-1    2.282532186940169E-1   -1.188032128711054E-1    7.178194467368156E-1   -2.064771650877819E-1
 1.896368731082037E8     7.084533222304561E-1   -2.209831532439696E-1    2.303994666925746E-1   -1.151883749945915E-1    2.279103797632596E-1   -1.194310624634488E-1    7.172273911441316E-1   -2.081284730480909E-1
 1.910837764027621E8     7.077654655666709E-1   -2.227096445581296E-1    2.300650272706321E-1   -1.158569366773251E-1    2.275683844281531E-1   -1.200658408850537E-1    7.166658414817229E-1   -2.097711477207686E-1
 1.925417193707203E8     7.070220942699904E-1   -2.244356795216219E-1    2.297093693038910E-1   -1.165697825392991E-1    2.272156296354477E-1   -1.207359927396708E-1    7.160306742266475E-1   -2.114616436893747E-1
 1.940107862432706E8     7.061993549449007E-1   -2.261020445321296E-1    2.292940119448527E-1   -1.172827343973089E-1    2.268104693001128E-1   -1.213950239266114E-1    7.153361310474431E-1   -2.131304781491136E-1
 1.954910618942780E8     7.052885400318595E-1   -2.276991651467661E-1    2.288556545866655E-1   -1.179320715317925E-1    2.264050441537634E-1   -1.219835156433920E-1    7.146186107425192E-1   -2.147076916546755E-1
 1.969826318451810E8     7.044431673871753E-1   -2.291342257397105E-1    2.284802180387813E-1   -1.185734196205725E-1    2.260694358278846E-1   -1.225928957969076E-1    7.140356166607023E-1   -2.163228502001302E-1
 1.984855822699381E8     7.036649308063037E-1   -2.305661261502342E-1    2.280690836075109E-1   -1.192390730890238E-1    2.257009479558048E-1   -1.232299098170635E-1    7.133347038590491E-1   -2.180104950017748E-1
 2.000000000000000E8     7.028948364800338E-1   -2.319432151681312E-1    2.276401102609550E-1   -1.198497634263739E-1    2.253114050349262E-1   -1.238204093138029E-1    7.125643241220608E-1   -2.195981724132675E-1
