#  HZ   S   RI   R     50.00 
! Rohde & Schwarz Vector Network Analyzer 
! Rohde-Schwarz,ZNLE6-2Port,1323001256200024,1.71.1.10-23.02.1.238
! Created: UTC 4/11/2025, 7:40:52 AM
! freq[Hz]                re:S11                  im:S11                  re:S21                  im:S21                  re:S12                  im:S12                  re:S22                  im:S22
 1.000000000000000E5     4.424917590320132E-1    1.858477181673936E-1    5.607038574414022E-1   -1.863175569489615E-1    5.612052318652847E-1   -1.863451390668472E-1    4.421269554081091E-1    1.856069345965027E-1
 1.007629862646662E5     4.433279728311120E-1    1.855692079335396E-1    5.598689034967320E-1   -1.860734532205356E-1    5.603478387348547E-1   -1.860873949596510E-1    4.429347516975685E-1    1.853429687268961E-1
 1.015317940097331E5     4.441351822794809E-1    1.853252651844964E-1    5.590399753351558E-1   -1.858167571007399E-1    5.595293163672680E-1   -1.858421021223191E-1    4.437641578650882E-1    1.850810190662014E-1
 1.023064676522963E5     4.449231686757969E-1    1.850579670986238E-1    5.582138509537168E-1   -1.855665338177694E-1    5.586887562878868E-1   -1.855925424696616E-1    4.445729455348034E-1    1.848321078568854E-1
 1.030870519483485E5     4.457168289525180E-1    1.847866086827903E-1    5.573751282763728E-1   -1.853230095960860E-1    5.578722330758443E-1   -1.853386802900961E-1    4.453730876393339E-1    1.845853671528767E-1
 1.038735919953636E5     4.465315827195450E-1    1.845366492589867E-1    5.565483535082185E-1   -1.850800051058137E-1    5.570630068404833E-1   -1.850936353513319E-1    4.461948955175943E-1    1.843321318505715E-1
 1.046661332349037E5     4.473320749074530E-1    1.842914267990675E-1    5.557206461069061E-1   -1.848280673452669E-1    5.562431923948078E-1   -1.848540603727341E-1    4.470085764492874E-1    1.840986874773802E-1
 1.054647214552430E5     4.481664220382441E-1    1.840459211974326E-1    5.549127573133669E-1   -1.845957874313624E-1    5.554164911758375E-1   -1.846191136297293E-1    4.478118211209481E-1    1.838394395528433E-1
 1.062694027940149E5     4.489566483892210E-1    1.837999126117346E-1    5.540952841920390E-1   -1.843595428087725E-1    5.546092564696425E-1   -1.843696219603211E-1    4.486052685530006E-1    1.836085360076129E-1
 1.070802237408760E5     4.497427284373571E-1    1.835644489940064E-1    5.532845080245237E-1   -1.841131739031798E-1    5.537993984205287E-1   -1.841495462304112E-1    4.494255421193991E-1    1.833737944964583E-1
 1.078972311401927E5     4.505424996416610E-1    1.833202859023142E-1    5.524484142160289E-1   -1.838761475312999E-1    5.529920603898031E-1   -1.839162267153516E-1    4.502330700740308E-1    1.831380611103535E-1
 1.087204721937475E5     4.513580454840241E-1    1.830855820565967E-1    5.516522154025408E-1   -1.836526628155953E-1    5.521808023862512E-1   -1.836841048738983E-1    4.510456614324910E-1    1.828970981606765E-1
 1.095499944634658E5     4.521676693410501E-1    1.828588875311389E-1    5.508483766329009E-1   -1.834215406640463E-1    5.513709008769658E-1   -1.834471500096070E-1    4.518220483342918E-1    1.826782431941330E-1
 1.103858458741646E5     4.529661589026825E-1    1.826189122754390E-1    5.500279239338151E-1   -1.832008034729002E-1    5.505644068660343E-1   -1.832253754659795E-1    4.526355945442134E-1    1.824305631922418E-1
 1.112280747163201E5     4.537542304737381E-1    1.823888717232470E-1    5.492166906156059E-1   -1.829742463788722E-1    5.497578887736335E-1   -1.830029138982159E-1    4.534337737432541E-1    1.822174973736833E-1
 1.120767296488583E5     4.545426268096049E-1    1.821496268459318E-1    5.483994968954325E-1   -1.827463760652697E-1    5.489338451704278E-1   -1.827799218047341E-1    4.542309839705488E-1    1.819862910100100E-1
 1.129318597019661E5     4.553459857709661E-1    1.819271742238682E-1    5.475884326847074E-1   -1.825237321934329E-1    5.481298086894104E-1   -1.825590574183076E-1    4.550487936531781E-1    1.817569650309159E-1
 1.137935142799240E5     4.561404422991704E-1    1.817134682075426E-1    5.467877871129149E-1   -1.823034040364434E-1    5.473149410239263E-1   -1.823368632635461E-1    4.558425113828132E-1    1.815520525676661E-1
 1.146617431639607E5     4.569363028419874E-1    1.815016985259833E-1    5.459930645363648E-1   -1.820968408769891E-1    5.465041960128463E-1   -1.821303876529292E-1    4.566489812855716E-1    1.813295951402464E-1
 1.155365965151286E5     4.577357251712193E-1    1.812791984206539E-1    5.451853633978878E-1   -1.818840361692561E-1    5.457052633602807E-1   -1.819186448560869E-1    4.574301456200497E-1    1.811094894277787E-1
 1.164181248772018E5     4.585196317424055E-1    1.810638321410298E-1    5.443975660393535E-1   -1.816587348780327E-1    5.448897098366314E-1   -1.817060646755186E-1    4.582102693045075E-1    1.808966517203462E-1
 1.173063791795965E5     4.593418624947097E-1    1.808504871980684E-1    5.435963255318935E-1   -1.814584615964402E-1    5.440796332493183E-1   -1.815004114830248E-1    4.590185902131381E-1    1.806866872347401E-1
 1.182014107403141E5     4.601398417995967E-1    1.806412613570867E-1    5.427926130778505E-1   -1.812482313477310E-1    5.432790021895737E-1   -1.812813591303860E-1    4.598048251864102E-1    1.804827109775531E-1
 1.191032712689044E5     4.609418666236110E-1    1.804307479117842E-1    5.419736341595729E-1   -1.810502292013493E-1    5.424800314010000E-1   -1.810848048822153E-1    4.606199062589181E-1    1.802538421864428E-1
 1.200120128694542E5     4.617411393007083E-1    1.802170591088035E-1    5.411738227938989E-1   -1.808416865163654E-1    5.416677372226963E-1   -1.808772617951370E-1    4.614139092382252E-1    1.800600041514790E-1
 1.209276880435975E5     4.625077003903978E-1    1.800218669558208E-1    5.403605909026334E-1   -1.806257384879674E-1    5.408663707206477E-1   -1.806740942672821E-1    4.622005053739004E-1    1.798530316945402E-1
 1.218503496935483E5     4.633204221757699E-1    1.798099545532448E-1    5.395702319783007E-1   -1.804354476045790E-1    5.400536419985196E-1   -1.804747625147115E-1    4.629869281321062E-1    1.796519501826765E-1
 1.227800511251578E5     4.641037414329555E-1    1.796106745909199E-1    5.387800831521180E-1   -1.802326258696720E-1    5.392565889438501E-1   -1.802736165054428E-1    4.637923756867817E-1    1.794511181556940E-1
 1.237168460509929E5     4.648888915879206E-1    1.794107175316953E-1    5.379733086226161E-1   -1.800362613658019E-1    5.384560987234365E-1   -1.800789065079150E-1    4.645939761121138E-1    1.792552032478350E-1
 1.246607885934402E5     4.656942266843965E-1    1.792210542447505E-1    5.371647934124678E-1   -1.798385304931984E-1    5.376588954094752E-1   -1.798906386198533E-1    4.653906726699403E-1    1.790508640542724E-1
 1.256119332878327E5     4.664872886787179E-1    1.790222050839745E-1    5.363625956583647E-1   -1.796525233141222E-1    5.368576683938813E-1   -1.796975282743828E-1    4.661738584355629E-1    1.788611329074783E-1
 1.265703350856002E5     4.672722531442747E-1    1.788232529616859E-1    5.355633926346378E-1   -1.794619629789709E-1    5.360645288404936E-1   -1.795091712245028E-1    4.669564594732593E-1    1.786635228786250E-1
 1.275360493574453E5     4.680808371798115E-1    1.786351969117932E-1    5.347706146611958E-1   -1.792722895085320E-1    5.352542683092852E-1   -1.793136488094735E-1    4.677424721616685E-1    1.784770640163201E-1
 1.285091318965405E5     4.688649433065820E-1    1.784421915037742E-1    5.339715099070071E-1   -1.790807698444279E-1    5.344804368880194E-1   -1.791354864013233E-1    4.685567392322105E-1    1.782906201345264E-1
 1.294896389217529E5     4.696631348975378E-1    1.782620806316923E-1    5.331798811453262E-1   -1.788934033546134E-1    5.336646049119644E-1   -1.789477001697715E-1    4.693412576502765E-1    1.780978676819050E-1
 1.304776270808914E5     4.704561463823411E-1    1.780724877132055E-1    5.323832196857501E-1   -1.787240965838850E-1    5.328677476573005E-1   -1.787627080065683E-1    4.701451913424754E-1    1.779311418865274E-1
 1.314731534539810E5     4.712464389687783E-1    1.778709044075734E-1    5.315697972423095E-1   -1.785381935555704E-1    5.320658203649208E-1   -1.785852630035996E-1    4.709493055752693E-1    1.777485587589886E-1
 1.324762755565583E5     4.720361743486255E-1    1.776990453247295E-1    5.307759957541306E-1   -1.783544127440126E-1    5.312815002046404E-1   -1.784060486211827E-1    4.717639439607049E-1    1.775711055927708E-1
 1.334870513429962E5     4.728244996284252E-1    1.775236859390675E-1    5.299728987287384E-1   -1.781819632121519E-1    5.304882427285748E-1   -1.782308546836226E-1    4.725499051053690E-1    1.773780531078448E-1
 1.345055392098512E5     4.736206073395213E-1    1.773405112228949E-1    5.291664144337059E-1   -1.779993514832460E-1    5.296700199510297E-1   -1.780440615961010E-1    4.733148255951005E-1    1.771918458265193E-1
 1.355317979992373E5     4.744301470020362E-1    1.771745739186334E-1    5.283814206724451E-1   -1.778179770299715E-1    5.288692274544932E-1   -1.778747867570392E-1    4.741179020777535E-1    1.770190794566574E-1
 1.365658870022265E5     4.752097470294371E-1    1.769865545156733E-1    5.275733896497184E-1   -1.776458821349207E-1    5.280570419117688E-1   -1.776895536383887E-1    4.749147771640157E-1    1.768439287372539E-1
 1.376078659622731E5     4.760088440547688E-1    1.768018567802257E-1    5.267761432266844E-1   -1.774785411865313E-1    5.272563226602233E-1   -1.775319132928685E-1    4.757081468320596E-1    1.766640576213562E-1
 1.386577950786655E5     4.767989953070044E-1    1.766377415548902E-1    5.259842689205668E-1   -1.773013176163023E-1    5.264599818870465E-1   -1.773578471678264E-1    4.764892587897912E-1    1.765015096783308E-1
 1.397157350100044E5     4.775721533854573E-1    1.764453545428323E-1    5.251563600512599E-1   -1.771304034115652E-1    5.256637226322596E-1   -1.771924297346673E-1    4.772876419669437E-1    1.763268305994319E-1
 1.407817468777081E5     4.783722485275169E-1    1.762791450158619E-1    5.243690162829941E-1   -1.769653986693127E-1    5.248513475961062E-1   -1.770273911798068E-1    4.780815830058839E-1    1.761504115417846E-1
 1.418558922695422E5     4.791769371939328E-1    1.761080882231865E-1    5.235633345344410E-1   -1.768004613311761E-1    5.240390540424733E-1   -1.768576419348479E-1    4.788915396700374E-1    1.759823698059387E-1
 1.429382332431784E5     4.799771004800648E-1    1.759434449439385E-1    5.227723857100933E-1   -1.766178270073354E-1    5.232469845772332E-1   -1.766865649425738E-1    4.796827466246866E-1    1.758253569917096E-1
 1.440288323297804E5     4.807692570649161E-1    1.757776050422506E-1    5.219623970409982E-1   -1.764719158238718E-1    5.224523707541474E-1   -1.765226591813047E-1    4.804887058006705E-1    1.756591036906963E-1
 1.451277525376154E5     4.815663547065082E-1    1.756030510696032E-1    5.211699705391861E-1   -1.763122421483746E-1    5.216578990416580E-1   -1.763730208121256E-1    4.812764842397848E-1    1.754864714369239E-1
 1.462350573556962E5     4.823771860762720E-1    1.754520466486520E-1    5.203643910985205E-1   -1.761471554936982E-1    5.208789802493615E-1   -1.762058218786811E-1    4.820783880698662E-1    1.753164326604635E-1
 1.473508107574468E5     4.831557399476636E-1    1.752824971199773E-1    5.195630034675287E-1   -1.759861939353984E-1    5.200579692667536E-1   -1.760428972413770E-1    4.828569697528560E-1    1.751608904622566E-1
 1.484750772044004E5     4.839515340544721E-1    1.751327095249620E-1    5.187715747064652E-1   -1.758215373328427E-1    5.192569330651958E-1   -1.758924782014523E-1    4.836382672383533E-1    1.749925723832493E-1
 1.496079216499225E5     4.847642774326862E-1    1.749795896971005E-1    5.179761244473644E-1   -1.756589777845946E-1    5.184430151940629E-1   -1.757298151401767E-1    4.844404018862293E-1    1.748303769341510E-1
 1.507494095429637E5     4.855483319934851E-1    1.748082495760324E-1    5.171720638596019E-1   -1.755019945719855E-1    5.176375134829330E-1   -1.755770417482194E-1    4.852506313339321E-1    1.746798416813012E-1
 1.518996068318418E5     4.863421855007841E-1    1.746380977014299E-1    5.163684621440693E-1   -1.753582480835030E-1    5.168364697740883E-1   -1.754190887554852E-1    4.860572779833765E-1    1.745193397251275E-1
 1.530585799680507E5     4.871504504703487E-1    1.744857859476177E-1    5.155706057542213E-1   -1.751907228409956E-1    5.160395004544246E-1   -1.752684072661471E-1    4.868434147132084E-1    1.743503135263502E-1
 1.542263959101001E5     4.879488076354851E-1    1.743166732932256E-1    5.147624322309265E-1   -1.750514425890428E-1    5.152418084287731E-1   -1.751189576218719E-1    4.876474112422199E-1    1.742141054884732E-1
 1.554031221273835E5     4.887268474987749E-1    1.741655014804692E-1    5.139581494732498E-1   -1.748910228473672E-1    5.144362417553939E-1   -1.749669328132226E-1    4.884601645515010E-1    1.740527712755575E-1
 1.565888266040779E5     4.895269711893238E-1    1.740251024760677E-1    5.131642530575101E-1   -1.747413414468942E-1    5.136335621711551E-1   -1.748147639072336E-1    4.892704405633891E-1    1.738966512918018E-1
 1.577835778430689E5     4.903320922425645E-1    1.738639296615526E-1    5.123644592432006E-1   -1.745933461432217E-1    5.128245946227888E-1   -1.746565969057352E-1    4.900401349716021E-1    1.737430722846696E-1
 1.589874448699104E5     4.911268932452213E-1    1.737092571823856E-1    5.115606189649542E-1   -1.744391234324004E-1    5.120171507907910E-1   -1.745057804104238E-1    4.908428426942963E-1    1.735997959747761E-1
 1.602004972368116E5     4.919213865039800E-1    1.735586865271189E-1    5.107540336942717E-1   -1.742900068472139E-1    5.112272548503860E-1   -1.743634981726670E-1    4.916571757257057E-1    1.734522650700958E-1
 1.614228050266550E5     4.927496308190562E-1    1.734137398438002E-1    5.099562574726140E-1   -1.741472566001421E-1    5.104156190257797E-1   -1.742187691824302E-1    4.924370706557686E-1    1.732929139431382E-1
 1.626544388570473E5     4.935399383921613E-1    1.732630358898259E-1    5.091339829292069E-1   -1.739880124565603E-1    5.096116229592280E-1   -1.740713712506329E-1    4.932575037522959E-1    1.731443238559385E-1
 1.638954698843964E5     4.943329745837797E-1    1.731085695283070E-1    5.083245111737004E-1   -1.738381037350720E-1    5.088064416502606E-1   -1.739267988196696E-1    4.940536396667070E-1    1.729952476472696E-1
 1.651459698080244E5     4.951533682812213E-1    1.729683024663219E-1    5.075178844523976E-1   -1.737016431391048E-1    5.079955903762214E-1   -1.737888118700354E-1    4.948823830086773E-1    1.728552531709451E-1
 1.664060108743095E5     4.959518869013930E-1    1.728190106741838E-1    5.067045561939094E-1   -1.735583791914176E-1    5.071784288650096E-1   -1.736339166014176E-1    4.956670236927367E-1    1.727081795000625E-1
 1.676756658808590E5     4.967621885322279E-1    1.726776642744618E-1    5.058974836900284E-1   -1.734152394920990E-1    5.063625508320019E-1   -1.735019170737636E-1    4.964734102017187E-1    1.725571491349212E-1
 1.689550081807175E5     4.975628922630618E-1    1.725322103920538E-1    5.050855259384571E-1   -1.732714022057680E-1    5.055611603091630E-1   -1.733568828432936E-1    4.972617832720066E-1    1.724102226373445E-1
 1.702441116866020E5     4.983862994027761E-1    1.723845992240747E-1    5.042798005574491E-1   -1.731313420214785E-1    5.047528095891508E-1   -1.732158598625057E-1    4.980892749041700E-1    1.722824630123013E-1
 1.715430508751738E5     4.991987249701035E-1    1.722391927524738E-1    5.034779920214536E-1   -1.729878471990239E-1    5.039532671081720E-1   -1.730731087700365E-1    4.988890689939306E-1    1.721291646528401E-1
 1.728519007913403E5     5.000017383956096E-1    1.720967220238983E-1    5.026636926513235E-1   -1.728494894091465E-1    5.031342213982800E-1   -1.729277921570230E-1    4.996883096049148E-1    1.719962809999111E-1
 1.741707370525927E5     5.008183651769205E-1    1.719526908055027E-1    5.018562664962806E-1   -1.726972386787674E-1    5.023369654862607E-1   -1.728005807227344E-1    5.005125099850531E-1    1.718431130437420E-1
 1.754996358533718E5     5.016252427510934E-1    1.718245280284780E-1    5.010491788977929E-1   -1.725504736503548E-1    5.015190206790442E-1   -1.726548400857257E-1    5.013130649737563E-1    1.717031209368449E-1
 1.768386739694722E5     5.024289790680667E-1    1.716694972489839E-1    5.002296134757708E-1   -1.724250574480125E-1    5.006900724095540E-1   -1.725130334552892E-1    5.021170603164534E-1    1.715585560677929E-1
 1.781879287624771E5     5.032275007777814E-1    1.715256328980100E-1    4.994128347575261E-1   -1.722823375867044E-1    4.998857692268542E-1   -1.723671058872817E-1    5.029216530126023E-1    1.714157681000883E-1
 1.795474781842276E5     5.040339765507618E-1    1.713793813280527E-1    4.985875242470789E-1   -1.721449845291493E-1    4.990616541248202E-1   -1.722298080899587E-1    5.037338679974126E-1    1.712676259543130E-1
 1.809174007813277E5     5.048503013821228E-1    1.712388458930275E-1    4.977811102857938E-1   -1.719931887957450E-1    4.982477692831060E-1   -1.720895980056276E-1    5.045337747978414E-1    1.711271816298543E-1
 1.822977756996804E5     5.056845540646993E-1    1.710979790652950E-1    4.969800366935076E-1   -1.718611069644048E-1    4.974360625482916E-1   -1.719468259872155E-1    5.053439904458522E-1    1.709864075762849E-1
 1.836886826890609E5     5.065077551222843E-1    1.709688453491474E-1    4.961471257338623E-1   -1.717321943288479E-1    4.966164356555561E-1   -1.718113772093465E-1    5.061383616191010E-1    1.708340997653004E-1
 1.850902021077247E5     5.073221051518320E-1    1.708217612995332E-1    4.953431582343296E-1   -1.715955333818989E-1    4.958008579552955E-1   -1.716855901663931E-1    5.069662960328185E-1    1.706928553826315E-1
 1.865024149270491E5     5.081206741421910E-1    1.706751986262539E-1    4.945257437022587E-1   -1.714549473608848E-1    4.949864422369763E-1   -1.715445557802459E-1    5.078011905631936E-1    1.705593006692062E-1
 1.879254027362132E5     5.089365900579427E-1    1.705263695315415E-1    4.936994578886384E-1   -1.713216835072652E-1    4.941722838511879E-1   -1.713998812106561E-1    5.086293323427603E-1    1.704317084866831E-1
 1.893592477469092E5     5.097697465418345E-1    1.704076280737213E-1    4.929252395050555E-1   -1.711623531590406E-1    4.933663890343855E-1   -1.712545638773267E-1    5.094470867868148E-1    1.702913040850467E-1
 1.908040327980933E5     5.105874889972206E-1    1.702559533120742E-1    4.920842442851394E-1   -1.710418806614984E-1    4.925437744848103E-1   -1.711304413459600E-1    5.102366425246210E-1    1.701477853755412E-1
 1.922598413607715E5     5.113956136004058E-1    1.701110774156019E-1    4.912622528060370E-1   -1.708968594349894E-1    4.917280606157443E-1   -1.709957386920771E-1    5.110557045706191E-1    1.700083235338711E-1
 1.937267575428232E5     5.122306110102037E-1    1.699640526269799E-1    4.904490347882492E-1   -1.707657092709900E-1    4.908821158931986E-1   -1.708546501393552E-1    5.118636274490633E-1    1.698644337136449E-1
 1.952048660938581E5     5.130530436735491E-1    1.698356726373394E-1    4.896312131881141E-1   -1.706338111398162E-1    4.900883145078714E-1   -1.707266511929154E-1    5.127060724633802E-1    1.697253104042711E-1
 1.966942524101142E5     5.138659267100938E-1    1.696953070143393E-1    4.888064558327658E-1   -1.704933282853277E-1    4.892678138910850E-1   -1.705818593252351E-1    5.135327993380762E-1    1.695976715176770E-1
 1.981950025393913E5     5.147002956667767E-1    1.695661978409128E-1    4.879814772634438E-1   -1.703563426447066E-1    4.884367784008953E-1   -1.704406985079049E-1    5.143483752785999E-1    1.694517934774235E-1
 1.997072031860212E5     5.155174025325580E-1    1.694178189317390E-1    4.871607831788983E-1   -1.702136809429968E-1    4.876127155082280E-1   -1.703066543039418E-1    5.151809014907643E-1    1.693164279857173E-1
 2.012309417158795E5     5.163271646140167E-1    1.692756036729189E-1    4.863206198093012E-1   -1.700726275976758E-1    4.867771766744463E-1   -1.701689566289047E-1    5.160001657460761E-1    1.691577136204593E-1
 2.027663061614301E5     5.171455111201573E-1    1.691400774155934E-1    4.855106041954906E-1   -1.699388231597601E-1    4.859712062897595E-1   -1.700316587764213E-1    5.167940752809875E-1    1.690207662229895E-1
 2.043133852268128E5     5.179555359740386E-1    1.689919309448769E-1    4.846891500416318E-1   -1.697951607958973E-1    4.851385589513092E-1   -1.698985164495090E-1    5.176266018026386E-1    1.688688319547528E-1
 2.058722682929675E5     5.187765969215340E-1    1.688558802580286E-1    4.838737860304158E-1   -1.696471670863014E-1    4.843030790916684E-1   -1.697517227958718E-1    5.184412335756211E-1    1.687374983127111E-1
 2.074430454227995E5     5.196042197002321E-1    1.687083766896074E-1    4.830465133330223E-1   -1.695218025183254E-1    4.834736033048638E-1   -1.696144868864229E-1    5.192661436248017E-1    1.685920101578793E-1
 2.090258073663807E5     5.204431757258607E-1    1.685651138780712E-1    4.822091847692882E-1   -1.693788104161554E-1    4.826468817547837E-1   -1.694828685320799E-1    5.201003219635797E-1    1.684553410405727E-1
 2.106206455661938E5     5.212506890175193E-1    1.684214992746149E-1    4.813894166283614E-1   -1.692428546887788E-1    4.818083379037538E-1   -1.693301701561662E-1    5.209057111211777E-1    1.683106829571981E-1
 2.122276521624151E5     5.220656360626109E-1    1.682717988200766E-1    4.805564188312399E-1   -1.691109599011434E-1    4.809785788339696E-1   -1.691889636409371E-1    5.217199306616013E-1    1.681590181381478E-1
 2.138469199982374E5     5.228912627928037E-1    1.681238655772118E-1    4.797193877844377E-1   -1.689668608132631E-1    4.801656382202938E-1   -1.690463859445586E-1    5.225609654701729E-1    1.680167942095560E-1
 2.154785426252357E5     5.237350490828586E-1    1.679926514236872E-1    4.788991899991640E-1   -1.688235189993506E-1    4.793329585530102E-1   -1.689089172615697E-1    5.234000978527837E-1    1.678724931943715E-1
 2.171226143087691E5     5.245588009331226E-1    1.678254360605477E-1    4.780572773057556E-1   -1.686827133430734E-1    4.784933435736105E-1   -1.687628797757789E-1    5.242097892714771E-1    1.677148615812530E-1
 2.187792300334291E5     5.254163794920799E-1    1.676999322149961E-1    4.772384433973125E-1   -1.685400430320393E-1    4.776708914055210E-1   -1.686236288736394E-1    5.250286285830591E-1    1.675600665443941E-1
 2.204484855085266E5     5.261977980557500E-1    1.675424809588079E-1    4.763909448275969E-1   -1.683923520800402E-1    4.768571281747565E-1   -1.684903529519073E-1    5.258820853212398E-1    1.674063529725056E-1
 2.221304771736209E5     5.270327455435017E-1    1.673992085027164E-1    4.755531698508331E-1   -1.682556457520869E-1    4.760379356715336E-1   -1.683319781083621E-1    5.266975641080411E-1    1.672548315520196E-1
 2.238253022040931E5     5.278642834457838E-1    1.672499168002191E-1    4.747188485984361E-1   -1.681085858479533E-1    4.752093651595710E-1   -1.681866832288751E-1    5.275388458798120E-1    1.671201443848399E-1
 2.255330585167579E5     5.286916385144681E-1    1.670974229710265E-1    4.738924491074472E-1   -1.679706318987347E-1    4.743755897995255E-1   -1.680493476143108E-1    5.283493205126265E-1    1.669641598985541E-1
 2.272538447755223E5     5.295175687208413E-1    1.669621160623979E-1    4.730442630957009E-1   -1.678055426330518E-1    4.735251301454295E-1   -1.678963891562374E-1    5.292012271852070E-1    1.668121963112018E-1
 2.289877603970853E5     5.303611565675836E-1    1.668113409554309E-1    4.722092295289375E-1   -1.676661274394501E-1    4.726949044425938E-1   -1.677510662448172E-1    5.300152958044223E-1    1.666601643943139E-1
 2.307349055566813E5     5.311789158014963E-1    1.666590878923214E-1    4.713699592703975E-1   -1.675206704153623E-1    4.718547952628878E-1   -1.676030969830981E-1    5.308507565760998E-1    1.664966199041751E-1
 2.324953811938693E5     5.320190216795873E-1    1.665062958149124E-1    4.705443842049638E-1   -1.673572274326261E-1    4.710360815205860E-1   -1.674532228294828E-1    5.316812048277945E-1    1.663482046703767E-1
 2.342692890183618E5     5.328602780333955E-1    1.663469482086899E-1    4.696849064471708E-1   -1.672180838090452E-1    4.701999976484120E-1   -1.673052578989406E-1    5.325029524132741E-1    1.662011699906346E-1
 2.360567315159030E5     5.336940685526317E-1    1.661791015003000E-1    4.688472887349382E-1   -1.670631921951775E-1    4.693458934934335E-1   -1.671451981887017E-1    5.333153348190730E-1    1.660340992909351E-1
 2.378578119541888E5     5.345029225632448E-1    1.660239906787120E-1    4.680027250761954E-1   -1.669116658562053E-1    4.685134854521161E-1   -1.669965736029259E-1    5.341118684205938E-1    1.658649920496187E-1
 2.396726343888348E5     5.353442427831591E-1    1.658643141093454E-1    4.671597673354639E-1   -1.667416936786906E-1    4.676737599235437E-1   -1.668438801538127E-1    5.349396768613062E-1    1.657048396409077E-1
 2.415013036693852E5     5.361646844785098E-1    1.656963174598605E-1    4.663138390517042E-1   -1.665885477385183E-1    4.668556443326219E-1   -1.666843204603253E-1    5.357711198849995E-1    1.655536085898086E-1
 2.433439254453724E5     5.369978869251719E-1    1.655440869214611E-1    4.654901571558014E-1   -1.664315064502102E-1    4.660099080408772E-1   -1.665312608108833E-1    5.366183524171170E-1    1.653790091395098E-1
 2.452006061724201E5     5.378463710383180E-1    1.653760439068928E-1    4.646806856725760E-1   -1.662708925359213E-1    4.651680240447241E-1   -1.663728097299555E-1    5.374520013492450E-1    1.652248590501626E-1
 2.470714531183934E5     5.386602054407431E-1    1.652080302326979E-1    4.638288230680044E-1   -1.661037156113296E-1    4.643192568817944E-1   -1.662172478148547E-1    5.382886743976666E-1    1.650724951134223E-1
 2.489565743695979E5     5.394813676711177E-1    1.650439036931672E-1    4.629754162259737E-1   -1.659386556751689E-1    4.634786286769626E-1   -1.660639908673427E-1    5.391201553877959E-1    1.649115127811613E-1
 2.508560788370214E5     5.403243896688051E-1    1.648724695650811E-1    4.621445657754923E-1   -1.657866050996930E-1    4.626404347406315E-1   -1.658948361656054E-1    5.399562069524535E-1    1.647585772858608E-1
 2.527700762626280E5     5.411431404216792E-1    1.647030226979129E-1    4.612990411643388E-1   -1.656107184182767E-1    4.618064012361853E-1   -1.657352508116207E-1    5.407689212009384E-1    1.645788424798773E-1
 2.546986772256976E5     5.419840824882269E-1    1.645204745708353E-1    4.604697027255771E-1   -1.654423470689683E-1    4.609463892361162E-1   -1.655672668878553E-1    5.415764665189684E-1    1.644061743725962E-1
 2.566419931492161E5     5.428279460771709E-1    1.643547207373175E-1    4.596317290962628E-1   -1.652679177009872E-1    4.601239555806980E-1   -1.654044659245086E-1    5.423904693109948E-1    1.642398379549807E-1
 2.586001363063102E5     5.436365168490968E-1    1.641722374113854E-1    4.587744878601436E-1   -1.651045078051986E-1    4.592644344064317E-1   -1.652373912583850E-1    5.432211232992686E-1    1.640616375846227E-1
 2.605732198267354E5     5.444405046555973E-1    1.639926839661870E-1    4.579503005471154E-1   -1.649328433459931E-1    4.584330650772817E-1   -1.650629691562208E-1    5.440520089995569E-1    1.639069533515563E-1
 2.625613577034118E5     5.452771903882183E-1    1.638103244749832E-1    4.571184736384293E-1   -1.647561994113126E-1    4.575954233347148E-1   -1.648996593866790E-1    5.448737629642653E-1    1.637217864213610E-1
 2.645646647990093E5     5.461247835804370E-1    1.636455587361067E-1    4.562800689916788E-1   -1.645832664988802E-1    4.567533512156159E-1   -1.647161651805004E-1    5.456845553023036E-1    1.635692071612601E-1
 2.665832568525859E5     5.469202009723586E-1    1.634675367910159E-1    4.554308702270187E-1   -1.644015308437355E-1    4.559178695259651E-1   -1.645494906315615E-1    5.465185528202787E-1    1.633831300258648E-1
 2.686172504862709E5     5.477469331905910E-1    1.632792442547346E-1    4.546130272103243E-1   -1.642286435330809E-1    4.550678906169151E-1   -1.643699939395073E-1    5.473447889565022E-1    1.632127895023690E-1
 2.706667632120051E5     5.485834304398581E-1    1.631011234311562E-1    4.537681216350151E-1   -1.640452396856450E-1    4.542346002230977E-1   -1.641976282727151E-1    5.481859326127964E-1    1.630486172606416E-1
 2.727319134383292E5     5.494067393360563E-1    1.629096616868047E-1    4.529420800828294E-1   -1.638622262631322E-1    4.533963249206936E-1   -1.640111550439269E-1    5.490253783360701E-1    1.628795721895045E-1
 2.748128204772244E5     5.502190635689335E-1    1.627287547349793E-1    4.521052925289524E-1   -1.636746193501046E-1    4.525656605800700E-1   -1.638353497974308E-1    5.498393696598584E-1    1.626968937136033E-1
 2.769096045510074E5     5.510549984268386E-1    1.625619045158010E-1    4.512929754708825E-1   -1.634894238037380E-1    4.517170155071284E-1   -1.636457055385043E-1    5.506665968938618E-1    1.625076302001018E-1
 2.790223867992730E5     5.518872072076338E-1    1.623698135230663E-1    4.504661311627768E-1   -1.633090616046653E-1    4.509116064369135E-1   -1.634765014558783E-1    5.515117862174499E-1    1.623482662818383E-1
 2.811512892858952E5     5.527165843643557E-1    1.621877906870096E-1    4.496432054724990E-1   -1.631217042073579E-1    4.500588606287367E-1   -1.632808105812555E-1    5.523429622067341E-1    1.621632660050454E-1
 2.832964350060779E5     5.535474938783624E-1    1.620019905569363E-1    4.488055478349324E-1   -1.629276931215307E-1    4.492241452325715E-1   -1.630927462983642E-1    5.531414486353381E-1    1.619651622054555E-1
 2.854579478934632E5     5.543315932763566E-1    1.617978413177686E-1    4.479724850613476E-1   -1.627371440691719E-1    4.484021322353584E-1   -1.629049735156072E-1    5.539897817356353E-1    1.617934481681688E-1
 2.876359528272883E5     5.551513811005985E-1    1.616214024221195E-1    4.471510548252204E-1   -1.625442075881474E-1    4.475608507617493E-1   -1.627144256868362E-1    5.548053101191719E-1    1.616037685109678E-1
 2.898305756396023E5     5.559666366967354E-1    1.614201825252619E-1    4.463408130823096E-1   -1.623567917972730E-1    4.467498485186253E-1   -1.625313904236611E-1    5.556563740285090E-1    1.614139537533626E-1
 2.920419431225354E5     5.567646377928156E-1    1.612287969634362E-1    4.455292205078777E-1   -1.621602342867447E-1    4.459181742879521E-1   -1.623241647413437E-1    5.564665175006495E-1    1.612321195676500E-1
 2.942701830356239E5     5.576044633489514E-1    1.610403529260313E-1    4.447242219322761E-1   -1.619695969830538E-1    4.450988870997011E-1   -1.621316165019252E-1    5.573073643249070E-1    1.610394423830634E-1
 2.965154241131938E5     5.584300659012175E-1    1.608431056601523E-1    4.438961074581101E-1   -1.617738698040009E-1    4.442820342515839E-1   -1.619334572481570E-1    5.581242447699762E-1    1.608670476495280E-1
 2.987777960717941E5     5.592240292951236E-1    1.606545634202565E-1    4.430774422139123E-1   -1.615711328891124E-1    4.434538425843840E-1   -1.617395300694035E-1    5.589425555305948E-1    1.606511487344673E-1
 3.010574296176943E5     5.600402525291447E-1    1.604575323642597E-1    4.422648353366958E-1   -1.613774502937881E-1    4.426401751427635E-1   -1.615334898356798E-1    5.597572554557598E-1    1.604608251220284E-1
 3.033544564544337E5     5.608420129062250E-1    1.602611890549885E-1    4.414553508816476E-1   -1.611745546184382E-1    4.418343480911541E-1   -1.613366565576439E-1    5.605777623575359E-1    1.602671398650091E-1
 3.056690092904338E5     5.616643904650653E-1    1.600673719197991E-1    4.406450064121783E-1   -1.609781032379352E-1    4.410183186662353E-1   -1.611383178270627E-1    5.614102671914261E-1    1.600743559703449E-1
 3.080012218466610E5     5.624921985820192E-1    1.598720815424440E-1    4.398545825943402E-1   -1.607791613626028E-1    4.402030878728295E-1   -1.609278553057051E-1    5.621953817192556E-1    1.598686831938690E-1
 3.103512288643551E5     5.633147052459966E-1    1.596775634822177E-1    4.390460304032628E-1   -1.605720617762737E-1    4.393671831215281E-1   -1.607185322288969E-1    5.630242476243483E-1    1.596654990657774E-1
 3.127191661128128E5     5.641222892592632E-1    1.594740929330318E-1    4.382347672541910E-1   -1.603730005139631E-1    4.385733461081108E-1   -1.605268663147822E-1    5.638510860547209E-1    1.594594718705471E-1
 3.151051703972316E5     5.649060884638818E-1    1.592759577409394E-1    4.374265801903952E-1   -1.601738499137919E-1    4.377475438047312E-1   -1.603022932967932E-1    5.646263491621406E-1    1.592567093498786E-1
 3.175093795666154E5     5.657241518189434E-1    1.590617589280625E-1    4.366206451779065E-1   -1.599723693105040E-1    4.369374086087754E-1   -1.601018053182245E-1    5.654432223140126E-1    1.590556667732729E-1
 3.199319325217355E5     5.665197010160719E-1    1.588615442289892E-1    4.358264037130565E-1   -1.597665616982798E-1    4.361279931276834E-1   -1.598957739096180E-1    5.662429698266312E-1    1.588485477611131E-1
 3.223729692231574E5     5.673246554884768E-1    1.586614767839387E-1    4.350050100658198E-1   -1.595562485409638E-1    4.353092155915755E-1   -1.596787959479729E-1    5.670493726746733E-1    1.586281523404901E-1
 3.248326306993267E5     5.681262042639458E-1    1.584523620735427E-1    4.342166968592051E-1   -1.593538727672957E-1    4.345166893110913E-1   -1.594745211131983E-1    5.678809949948562E-1    1.584387820402537E-1
 3.273110590547157E5     5.689387963028077E-1    1.582461296361369E-1    4.334226254051664E-1   -1.591566139734292E-1    4.337313916276292E-1   -1.592710870075496E-1    5.686965471105434E-1    1.582245945151776E-1
 3.298083974780366E5     5.697668865495599E-1    1.580545015698564E-1    4.326146551644182E-1   -1.589330096868462E-1    4.329416439539271E-1   -1.590533268079677E-1    5.694994203427060E-1    1.580160913634770E-1
 3.323247902505097E5     5.705549226804887E-1    1.578428674668874E-1    4.318215705970183E-1   -1.587334506433130E-1    4.321463062545418E-1   -1.588437101837185E-1    5.703077334291384E-1    1.578145025381634E-1
 3.348603827542018E5     5.713330401917069E-1    1.576328628450898E-1    4.310308051113030E-1   -1.585236987803904E-1    4.313504508120711E-1   -1.586411202738869E-1    5.710960791051632E-1    1.575839269206900E-1
 3.374153214804250E5     5.721573557575773E-1    1.574253404151543E-1    4.302474239106954E-1   -1.583163766486548E-1    4.305541231159787E-1   -1.584180574120143E-1    5.718847115812566E-1    1.573775230433609E-1
 3.399897540381991E5     5.729601559087155E-1    1.572103480929957E-1    4.294442329586576E-1   -1.581097164433068E-1    4.297688714964545E-1   -1.582071423656679E-1    5.726794819754052E-1    1.571616703502979E-1
 3.425838291627830E5     5.737583305045570E-1    1.570128141410661E-1    4.286530416372137E-1   -1.579006243897259E-1    4.289839978099322E-1   -1.579928400581752E-1    5.734913441184687E-1    1.569471106423031E-1
 3.451976967242625E5     5.745581443203802E-1    1.567991156482172E-1    4.278652991291776E-1   -1.576863021377124E-1    4.281994236181014E-1   -1.577860157649355E-1    5.742847450786376E-1    1.567291382189099E-1
 3.478315077362126E5     5.753657676788511E-1    1.565895382780964E-1    4.270862892275345E-1   -1.574853586081765E-1    4.274167614502699E-1   -1.575673551899983E-1    5.751009932672898E-1    1.565287029348149E-1
 3.504854143644205E5     5.761355388073772E-1    1.563680352566316E-1    4.262781574770779E-1   -1.572659621047232E-1    4.266161256831242E-1   -1.573517751115750E-1    5.758707202226100E-1    1.563065984638610E-1
 3.531595699356794E5     5.769462128373508E-1    1.561553340842684E-1    4.255261917136201E-1   -1.570599584791295E-1    4.258283586451399E-1   -1.571393641039185E-1    5.766855219372915E-1    1.560858723903421E-1
 3.558541289466428E5     5.777329720078159E-1    1.559324516868982E-1    4.247356682625985E-1   -1.568512786523829E-1    4.250491094841378E-1   -1.569314654039129E-1    5.774478499247525E-1    1.558563761233052E-1
 3.585692470727532E5     5.785277318973123E-1    1.557157609479289E-1    4.239653320538674E-1   -1.566400581098668E-1    4.242602279804437E-1   -1.567059750244288E-1    5.782382099105852E-1    1.556448473667611E-1
 3.613050811772345E5     5.793072573455962E-1    1.555009521786613E-1    4.231719309788046E-1   -1.564316782771872E-1    4.234790255987413E-1   -1.564896923567581E-1    5.790243184989501E-1    1.554299895495168E-1
 3.640617893201578E5     5.801130149498861E-1    1.552811605913013E-1    4.223928892460904E-1   -1.562230768561793E-1    4.227165863111934E-1   -1.562875692188398E-1    5.798026246788157E-1    1.551998126365269E-1
 3.668395307675686E5     5.808669610007495E-1    1.550694678576945E-1    4.216000588694928E-1   -1.560011010764586E-1    4.219375327001225E-1   -1.560678012734243E-1    5.805617448775477E-1    1.549824351071592E-1
 3.696384660006910E5     5.816489772065765E-1    1.548460511892802E-1    4.208266078720823E-1   -1.557920242057260E-1    4.211592031263541E-1   -1.558568721639738E-1    5.813504154057068E-1    1.547615152133252E-1
 3.724587567251991E5     5.824567341947822E-1    1.546291216786569E-1    4.200390554014231E-1   -1.555815735313347E-1    4.203951899995822E-1   -1.556433197458923E-1    5.821215700951730E-1    1.545332951396028E-1
 3.753005658805580E5     5.832637405413245E-1    1.544138750072593E-1    4.192836774080286E-1   -1.553739516960517E-1    4.196143464921092E-1   -1.554255941701894E-1    5.828871779701780E-1    1.543313184801591E-1
 3.781640576494411E5     5.840134374041641E-1    1.541963698363039E-1    4.185223167301671E-1   -1.551631343690460E-1    4.188237040652686E-1   -1.552066919997973E-1    5.836700702673437E-1    1.540942898986116E-1
 3.810493974672107E5     5.848099394268701E-1    1.539721159730686E-1    4.177465011647957E-1   -1.549470648094105E-1    4.180701541935705E-1   -1.550029538137812E-1    5.844372798281068E-1    1.538807286797114E-1
 3.839567520314787E5     5.855702763906109E-1    1.537467749555200E-1    4.169602532534743E-1   -1.547346482657284E-1    4.173032265355771E-1   -1.547942617733870E-1    5.852142272372346E-1    1.536499744597452E-1
 3.868862893117373E5     5.863368360967461E-1    1.535278450609407E-1    4.161960999166809E-1   -1.545229053087740E-1    4.165243917469857E-1   -1.545742564412173E-1    5.859833548942009E-1    1.534256818259632E-1
 3.898381785590618E5     5.871292232432609E-1    1.533077266706717E-1    4.154317151474934E-1   -1.543169372298231E-1    4.157607432033837E-1   -1.543628391508837E-1    5.867517559255921E-1    1.532078105893699E-1
 3.928125903158922E5     5.878923884050838E-1    1.530791437937886E-1    4.146450212230967E-1   -1.541019284671427E-1    4.149940383700104E-1   -1.541470212607948E-1    5.875274556586341E-1    1.529797106998537E-1
 3.958096964258819E5     5.886670720184647E-1    1.528595702862633E-1    4.138698516791460E-1   -1.538840774061579E-1    4.142295496198854E-1   -1.539401018857323E-1    5.882814690745104E-1    1.527509661864086E-1
 3.988296700438284E5     5.894366234791729E-1    1.526258628623944E-1    4.131156175426181E-1   -1.536711193650286E-1    4.134845709855082E-1   -1.537304967485291E-1    5.890532464196367E-1    1.525155796607703E-1
 4.018726856456762E5     5.901897410888992E-1    1.524012302737633E-1    4.123450303278547E-1   -1.534580184634836E-1    4.127117839749298E-1   -1.535198580188859E-1    5.898103965367189E-1    1.522959571541367E-1
 4.049389190385970E5     5.909369751110977E-1    1.521821865535000E-1    4.115789511332438E-1   -1.532433804237130E-1    4.119475209444082E-1   -1.533050416422608E-1    5.905689820552540E-1    1.520803994122482E-1
 4.080285473711492E5     5.917069376223182E-1    1.519510199512486E-1    4.108038446307651E-1   -1.530340950770584E-1    4.111733332816714E-1   -1.530941019449656E-1    5.913393219292581E-1    1.518464538939534E-1
 4.111417491435081E5     5.924699228812517E-1    1.517327500485702E-1    4.100299704454551E-1   -1.528173400105117E-1    4.103972311859586E-1   -1.528716774595145E-1    5.921116379557937E-1    1.516319509841152E-1
 4.142787042177814E5     5.932406450658289E-1    1.514870540291575E-1    4.092855048926861E-1   -1.526078536321452E-1    4.096498993166199E-1   -1.526585309657310E-1    5.928900692156315E-1    1.514022299158547E-1
 4.174395938283992E5     5.939978721643135E-1    1.512778204940504E-1    4.085203157423060E-1   -1.523891443029212E-1    4.089023147166933E-1   -1.524578626532381E-1    5.936741689194289E-1    1.511944556989091E-1
 4.206246005925882E5     5.947577250721493E-1    1.510299693269910E-1    4.077598555896169E-1   -1.521759018771683E-1    4.081648427297194E-1   -1.522502550628053E-1    5.944342260821206E-1    1.509595979999245E-1
 4.238339085209167E5     5.955220154893153E-1    1.508080141904126E-1    4.069931553387701E-1   -1.519624862230011E-1    4.073813137310861E-1   -1.520295027978678E-1    5.951713634899832E-1    1.507319177611221E-1
 4.270677030279291E5     5.962723599770482E-1    1.505855400119988E-1    4.062338160365325E-1   -1.517463745124741E-1    4.066205618446951E-1   -1.518085531115958E-1    5.959175207231453E-1    1.505049289365956E-1
 4.303261709428567E5     5.970680367425774E-1    1.503617199131689E-1    4.054872221433952E-1   -1.515375465815652E-1    4.058643792511260E-1   -1.515993531170015E-1    5.966786819950310E-1    1.502718380178693E-1
 4.336095005204146E5     5.978229907591422E-1    1.501248541401582E-1    4.047355855772027E-1   -1.513232930390195E-1    4.051157188583314E-1   -1.513821755153814E-1    5.974682753273685E-1    1.500527789848219E-1
 4.369178814516730E5     5.985642891004216E-1    1.499009812044597E-1    4.039451538760460E-1   -1.510940065474875E-1    4.043687334367189E-1   -1.511755029483342E-1    5.982113964033849E-1    1.498234768183113E-1
 4.402515048750198E5     5.993318685019022E-1    1.496619215923614E-1    4.031948883393114E-1   -1.508716937080209E-1    4.035998030717834E-1   -1.509578031873304E-1    5.990061809955550E-1    1.495974550795784E-1
 4.436105633872023E5     6.000726109833028E-1    1.494332147974466E-1    4.024450948026376E-1   -1.506552741576508E-1    4.028588003685057E-1   -1.507349091465830E-1    5.997585914742576E-1    1.493667042424603E-1
 4.469952510544541E5     6.008143044369290E-1    1.491862627586647E-1    4.016870923256917E-1   -1.504364960732456E-1    4.020903360621839E-1   -1.505179483530478E-1    6.005194087821539E-1    1.491358998409064E-1
 4.504057634237097E5     6.016017552058820E-1    1.489604078697593E-1    4.009287471686027E-1   -1.502191508304202E-1    4.013388449781408E-1   -1.503052280635837E-1    6.012742819429258E-1    1.489015602157661E-1
 4.538422975338975E5     6.023353571709099E-1    1.487201578849733E-1    4.001623639534536E-1   -1.499953857209451E-1    4.005869377703843E-1   -1.500851277769906E-1    6.019988094147464E-1    1.486700178409766E-1
 4.573050519273265E5     6.030892061493069E-1    1.484949249895507E-1    3.994262340478682E-1   -1.497793647087647E-1    3.998321688146748E-1   -1.498649093325579E-1    6.027518077207542E-1    1.484373961041434E-1
 4.607942266611566E5     6.038649666789164E-1    1.482629871192717E-1    3.986704771459706E-1   -1.495559550442829E-1    3.990684978230560E-1   -1.496444168962132E-1    6.035210996800915E-1    1.481986456633181E-1
 4.643100233189550E5     6.046397878646941E-1    1.480226970873325E-1    3.979248372064761E-1   -1.493357547006409E-1    3.983058708625568E-1   -1.494076565410685E-1    6.042617355244178E-1    1.479628149470895E-1
 4.678526450223470E5     6.053991761103892E-1    1.477814426533084E-1    3.971695448861459E-1   -1.491015348823654E-1    3.975594448923605E-1   -1.491915386924482E-1    6.049989797957015E-1    1.477240498930810E-1
 4.714222964427450E5     6.061214814745038E-1    1.475281001554509E-1    3.964112270770428E-1   -1.488756451900336E-1    3.968105741388758E-1   -1.489711686670350E-1    6.057563006618963E-1    1.474827543395714E-1
 4.750191838131770E5     6.068506269099661E-1    1.472879881661917E-1    3.956497250236568E-1   -1.486480509168607E-1    3.960800785572991E-1   -1.487527413480025E-1    6.065279802298286E-1    1.472501266114920E-1
 4.786435149402010E5     6.075877417230767E-1    1.470450118280293E-1    3.948958595356582E-1   -1.484150102054494E-1    3.953230887830677E-1   -1.485248953976536E-1    6.072596028289997E-1    1.470004348342081E-1
 4.822954992159092E5     6.083514547460276E-1    1.467990128564021E-1    3.941479164944129E-1   -1.481861632517953E-1    3.945709981715235E-1   -1.483036766001150E-1    6.079941885032980E-1    1.467544465622477E-1
 4.859753476300298E5     6.090878783476400E-1    1.465431519171690E-1    3.933933467172506E-1   -1.479506355327298E-1    3.938350130511638E-1   -1.480703893052051E-1    6.087536584110047E-1    1.465119256172980E-1
 4.896832727821107E5     6.098464521193049E-1    1.463066416856173E-1    3.926548251291337E-1   -1.477231054673131E-1    3.930736544971827E-1   -1.478305122871865E-1    6.094995296990721E-1    1.462723518032840E-1
 4.934194888938060E5     6.105665680144344E-1    1.460480965315237E-1    3.919012464327293E-1   -1.474795618667602E-1    3.923445917715125E-1   -1.476140896798706E-1    6.102623078843511E-1    1.460180622376235E-1
 4.971842118212518E5     6.113148658358271E-1    1.458011712831508E-1    3.911769516309040E-1   -1.472554105292535E-1    3.915884990144736E-1   -1.473606714226062E-1    6.109899648444403E-1    1.457858216646356E-1
 5.009776590675358E5     6.120661471582918E-1    1.455553994797742E-1    3.904388166854731E-1   -1.470166402954646E-1    3.908351751075296E-1   -1.471284269975496E-1    6.117173095410822E-1    1.455273678755497E-1
 5.048000497952673E5     6.127894991122146E-1    1.453004216995687E-1    3.896935886561006E-1   -1.467755647885159E-1    3.901066929417135E-1   -1.469024224097740E-1    6.124462694796337E-1    1.452780446000897E-1
 5.086516048392332E5     6.135480770719675E-1    1.450524656113684E-1    3.889668959716504E-1   -1.465433694221999E-1    3.893559414984909E-1   -1.466579695162393E-1    6.131784408049444E-1    1.450283671132738E-1
 5.125325467191607E5     6.142933272885498E-1    1.447918014940448E-1    3.882481192942954E-1   -1.463097907929522E-1    3.886354920338044E-1   -1.464224439001149E-1    6.139078012943190E-1    1.447788146485877E-1
 5.164430996525706E5     6.150206370596327E-1    1.445412078643188E-1    3.874978041751330E-1   -1.460659723126087E-1    3.879001936490827E-1   -1.461900036756058E-1    6.146591704460562E-1    1.445294379726334E-1
 5.203834895677360E5     6.157567403845310E-1    1.442880605850241E-1    3.867839490445013E-1   -1.458282242364514E-1    3.871684314238773E-1   -1.459517168590611E-1    6.153620696545355E-1    1.442695325436160E-1
 5.243539441167285E5     6.164916938302991E-1    1.440255548542374E-1    3.860341269715388E-1   -1.455809051412472E-1    3.864230687224239E-1   -1.457007845933244E-1    6.161160628635144E-1    1.440182726418668E-1
 5.283546926885745E5     6.171823370843917E-1    1.437668145706547E-1    3.852878939729607E-1   -1.453339528905394E-1    3.856840434950536E-1   -1.454532541079843E-1    6.168267560551581E-1    1.437655584171745E-1
 5.323859664225065E5     6.179240668620561E-1    1.435036242784945E-1    3.845566904449118E-1   -1.450814305359977E-1    3.849426541950844E-1   -1.452092797198778E-1    6.175460423124840E-1    1.434982654962504E-1
 5.364479982213206E5     6.186295114895819E-1    1.432474518002226E-1    3.838280926705060E-1   -1.448355061574024E-1    3.842160716728121E-1   -1.449664087088382E-1    6.182829399605319E-1    1.432383184934068E-1
 5.405410227648258E5     6.193755231754223E-1    1.429852370535867E-1    3.831023662071735E-1   -1.445869774849424E-1    3.835169244771961E-1   -1.447263409834919E-1    6.189941781935713E-1    1.429862012805542E-1
 5.446652765234077E5     6.200928629573841E-1    1.427160159076738E-1    3.823972120270848E-1   -1.443408040051545E-1    3.827913607720495E-1   -1.444793977551142E-1    6.197620115601474E-1    1.427293393877765E-1
 5.488209977716873E5     6.208161045790127E-1    1.424595776955365E-1    3.816695889522401E-1   -1.440915670726270E-1    3.820705152924451E-1   -1.442331079197991E-1    6.204663961905664E-1    1.424684195708737E-1
 5.530084266022880E5     6.215099381171797E-1    1.421879963343108E-1    3.809599707290670E-1   -1.438421803247078E-1    3.813710886124345E-1   -1.439906788812540E-1    6.211733572296897E-1    1.422068923293081E-1
 5.572278049397101E5     6.222214481177621E-1    1.419268058545441E-1    3.802458509665297E-1   -1.435912010924505E-1    3.806443534207081E-1   -1.437444101473561E-1    6.218574723381884E-1    1.419432940332864E-1
 5.614793765543010E5     6.229586103385939E-1    1.416551828139297E-1    3.795421674282428E-1   -1.433474215906146E-1    3.799423827318216E-1   -1.434989832760973E-1    6.225642985140402E-1    1.416747864122025E-1
 5.657633870763436E5     6.236519667377305E-1    1.413859140634270E-1    3.788349024225725E-1   -1.430954252372048E-1    3.792375276894442E-1   -1.432499680638352E-1    6.232917809408306E-1    1.414039326462064E-1
 5.700800840102463E5     6.243721594185037E-1    1.411287158967692E-1    3.781195254982249E-1   -1.428420077069611E-1    3.785131173546529E-1   -1.429986682346091E-1    6.239846136052399E-1    1.411458493984311E-1
 5.744297167488408E5     6.250562323415177E-1    1.408660557452083E-1    3.774163239103988E-1   -1.425812733078946E-1    3.778105347583605E-1   -1.427449567741753E-1    6.246803549403579E-1    1.408824313017875E-1
 5.788125365877954E5     6.257446320381822E-1    1.405940106619949E-1    3.767116491612734E-1   -1.423356313841646E-1    3.771096803501023E-1   -1.424904304799404E-1    6.254004237368697E-1    1.406267731864360E-1
 5.832287967401261E5     6.264271573971393E-1    1.403240150335871E-1    3.759981208309028E-1   -1.420752075303171E-1    3.764019425525006E-1   -1.422346166797352E-1    6.260790515458001E-1    1.403565127458154E-1
 5.876787523508312E5     6.271284074856568E-1    1.400545469696610E-1    3.752909856714996E-1   -1.418205083356474E-1    3.756920072358322E-1   -1.419805920845826E-1    6.267386912376769E-1    1.400917740783015E-1
 5.921626605116295E5     6.278316333153221E-1    1.397851113338713E-1    3.746225833582913E-1   -1.415829020455431E-1    3.749981574446828E-1   -1.417347812430619E-1    6.274127002437216E-1    1.398275591052026E-1
 5.966807802758140E5     6.285329189581270E-1    1.395157170803397E-1    3.739398983253906E-1   -1.413384508067035E-1    3.743060992408240E-1   -1.414756544809570E-1    6.281173659109244E-1    1.395637772431435E-1
 6.012333726732214E5     6.292044032372214E-1    1.392562564142338E-1    3.732485265821509E-1   -1.410781358573855E-1    3.736245553730526E-1   -1.412419579802689E-1    6.287783914828962E-1    1.392991295028210E-1
 6.058207007253073E5     6.298605624723280E-1    1.389898164508035E-1    3.725338388975712E-1   -1.408180112630909E-1    3.729281795676419E-1   -1.409791830958185E-1    6.294374797980131E-1    1.390358062350605E-1
 6.104430294603459E5     6.305565359691810E-1    1.387154584333468E-1    3.718593854487650E-1   -1.405688671513124E-1    3.722596437544395E-1   -1.407441411265017E-1    6.301182304040329E-1    1.387765285099456E-1
 6.151006259287392E5     6.312443298543668E-1    1.384694219934618E-1    3.711794457304688E-1   -1.403207470970479E-1    3.715726695388979E-1   -1.404934340823003E-1    6.308463247986382E-1    1.385129219178483E-1
 6.197937592184512E5     6.318986010838106E-1    1.381935809089195E-1    3.705069421734951E-1   -1.400752911864690E-1    3.708902770127317E-1   -1.402567367380754E-1    6.314982027832635E-1    1.382475153063179E-1
 6.245227004705463E5     6.325646018902681E-1    1.379233878513104E-1    3.698251062651928E-1   -1.398289571327337E-1    3.702060074357058E-1   -1.399952728649697E-1    6.321528121943197E-1    1.379802795749498E-1
 6.292877228948588E5     6.332592417743971E-1    1.376630597223304E-1    3.691533216446629E-1   -1.395885608735752E-1    3.695033367217967E-1   -1.397418762025963E-1    6.328129668557128E-1    1.377186425658111E-1
 6.340891017857760E5     6.339135794052131E-1    1.374000799916013E-1    3.684903075467836E-1   -1.393473422203623E-1    3.688329279561015E-1   -1.395070844771177E-1    6.334883188810377E-1    1.374644047008237E-1
 6.389271145381465E5     6.345735126871767E-1    1.371365990097726E-1    3.678121832214588E-1   -1.390986877598517E-1    3.681636507153425E-1   -1.392629430885847E-1    6.341708619051930E-1    1.372046879350213E-1
 6.438020406633007E5     6.352368502500412E-1    1.368764306382783E-1    3.671366714102771E-1   -1.388564160027300E-1    3.674833716542031E-1   -1.390063057427747E-1    6.348205021956526E-1    1.369558916501943E-1
 6.487141618052023E5     6.359037833112372E-1    1.366212063328000E-1    3.664711112884385E-1   -1.386032098361528E-1    3.668199344836101E-1   -1.387708531078034E-1    6.355073586163372E-1    1.366782169275915E-1
 6.536637617567203E5     6.365605772993742E-1    1.363665313380264E-1    3.657966569557213E-1   -1.383705051658875E-1    3.661544033126319E-1   -1.385365213863748E-1    6.362076542191150E-1    1.364229787947739E-1
 6.586511264760230E5     6.372474303470631E-1    1.361083881221375E-1    3.651227588541316E-1   -1.381219687184760E-1    3.654701281897458E-1   -1.382798995742020E-1    6.368494576725373E-1    1.361818017325258E-1
 6.636765441031042E5     6.378933650706465E-1    1.358351393730627E-1    3.644632806302308E-1   -1.378788729465789E-1    3.647984202667138E-1   -1.380409163050038E-1    6.375020080712053E-1    1.359176363343725E-1
 6.687403049764220E5     6.385643838297886E-1    1.355784359717774E-1    3.637972020413404E-1   -1.376374845123826E-1    3.641428663896465E-1   -1.378079873045711E-1    6.381437169308113E-1    1.356663442371049E-1
 6.738427016496789E5     6.392166070553826E-1    1.353277615170220E-1    3.631270616975414E-1   -1.373886449516603E-1    3.634765429697345E-1   -1.375632728765030E-1    6.388094080208115E-1    1.354189661108468E-1
 6.789840289087215E5     6.398768655341671E-1    1.350746518708990E-1    3.624506014371549E-1   -1.371464797818307E-1    3.628122028090112E-1   -1.373276311926951E-1    6.394791833615304E-1    1.351675150433755E-1
 6.841645837885707E5     6.405487901937260E-1    1.348175074467835E-1    3.617970082863326E-1   -1.369185660482674E-1    3.621538692249199E-1   -1.371002481801452E-1    6.401570851279833E-1    1.349133049361318E-1
 6.893846655905881E5     6.412177857352999E-1    1.345574301065403E-1    3.611396581578553E-1   -1.366827464831824E-1    3.614909217816552E-1   -1.368748561862807E-1    6.408039441953878E-1    1.346560444642702E-1
 6.946445758997592E5     6.418497746633808E-1    1.343087132578288E-1    3.604832035272604E-1   -1.364564319633018E-1    3.608232256797010E-1   -1.366373234718193E-1    6.414746758243522E-1    1.343993065164672E-1
 6.999446186021230E5     6.424846921509273E-1    1.340642758333211E-1    3.598101794575613E-1   -1.362036988830537E-1    3.601663841683863E-1   -1.363913553612302E-1    6.421182194701152E-1    1.341549573674690E-1
 7.052850999023273E5     6.431745182280982E-1    1.338070245777417E-1    3.591563037518958E-1   -1.359759702244589E-1    3.595058860035840E-1   -1.361526249798215E-1    6.427611530964802E-1    1.339098887619647E-1
 7.106663283413178E5     6.438264996286491E-1    1.335634805019975E-1    3.585026128910192E-1   -1.357537872037980E-1    3.588553791365227E-1   -1.359229381160163E-1    6.434468993757019E-1    1.336656105481069E-1
 7.160886148141696E5     6.444817490644854E-1    1.333025723635303E-1    3.578354900395934E-1   -1.355189893888703E-1    3.581909795464118E-1   -1.357058767333766E-1    6.440961915521844E-1    1.334138286353106E-1
 7.215522725880400E5     6.451370809643169E-1    1.330684604479130E-1    3.571845055081653E-1   -1.353048466545435E-1    3.575280785324983E-1   -1.354655597602175E-1    6.447058671955309E-1    1.331679832907372E-1
 7.270576173202734E5     6.457830332543594E-1    1.328175716374445E-1    3.565164750747833E-1   -1.350604294288913E-1    3.568733017270831E-1   -1.352482237934882E-1    6.453736361557192E-1    1.329190985101164E-1
 7.326049670766364E5     6.464269837878233E-1    1.325446840447154E-1    3.558673707264813E-1   -1.348297004842118E-1    3.562262709741442E-1   -1.350216416778388E-1    6.460633680133239E-1    1.326696501716458E-1
 7.381946423496918E5     6.470566507823174E-1    1.323052436598707E-1    3.552131926404157E-1   -1.346144884171196E-1    3.555495504701033E-1   -1.347884521374540E-1    6.467209093918362E-1    1.324031097962787E-1
 7.438269660773217E5     6.477019588934713E-1    1.320614458791748E-1    3.545617613545263E-1   -1.343774801470036E-1    3.548878828944213E-1   -1.345571465001114E-1    6.473707836278280E-1    1.321634843784950E-1
 7.495022636613748E5     6.483590926516087E-1    1.318020827480262E-1    3.538986173496584E-1   -1.341525248508669E-1    3.542209021091755E-1   -1.343194427016107E-1    6.480266303529996E-1    1.319112594133976E-1
 7.552208629864733E5     6.490032657887356E-1    1.315498772244334E-1    3.532383821404779E-1   -1.339110771048814E-1    3.535750087424293E-1   -1.340916068629551E-1    6.486924441882325E-1    1.316617001486630E-1
 7.609830944389519E5     6.496512121407384E-1    1.312975325305642E-1    3.525808119919637E-1   -1.336711151913830E-1    3.529103239074736E-1   -1.338534570744780E-1    6.493303452475466E-1    1.314194341211242E-1
 7.667892909259528E5     6.503071322209062E-1    1.310400229102731E-1    3.519251233121284E-1   -1.334504349139807E-1    3.522623729747075E-1   -1.336379426337266E-1    6.499970560342370E-1    1.311615737425569E-1
 7.726397878946491E5     6.509529950750057E-1    1.307911134211692E-1    3.512610779364230E-1   -1.332084511870883E-1    3.515964647599038E-1   -1.333991146583615E-1    6.506365874771690E-1    1.309168874153480E-1
 7.785349233516312E5     6.515952422877858E-1    1.305533016199169E-1    3.505945270721421E-1   -1.329699461150496E-1    3.509388024439192E-1   -1.331565309101934E-1    6.512907300778878E-1    1.306671812508647E-1
 7.844750378824320E5     6.522361114764186E-1    1.302954801935959E-1    3.499449915140659E-1   -1.327350934322611E-1    3.502686713763017E-1   -1.329173172432730E-1    6.519394242092393E-1    1.304206107076805E-1
 7.904604746712097E5     6.529006990607576E-1    1.300452470734156E-1    3.492936996222332E-1   -1.324999927463345E-1    3.496136544103692E-1   -1.326910323753626E-1    6.525465947408673E-1    1.301701370591961E-1
 7.964915795205662E5     6.535674554657964E-1    1.297749943370447E-1    3.486385518445824E-1   -1.322645653349877E-1    3.489638038857370E-1   -1.324552725213908E-1    6.532247226591459E-1    1.299219094220735E-1
 8.025687008715309E5     6.541909282935559E-1    1.295076698654894E-1    3.479695262021064E-1   -1.320234037821321E-1    3.483149405167567E-1   -1.322208627043915E-1    6.538971740766073E-1    1.296494765098879E-1
 8.086921898236905E5     6.548307690073866E-1    1.292603103991518E-1    3.473278845521310E-1   -1.317797501460299E-1    3.476461587948982E-1   -1.319775268813873E-1    6.545184544087753E-1    1.294045008125858E-1
 8.148624001554718E5     6.554937731839181E-1    1.289933536952890E-1    3.466658636666816E-1   -1.315325228077993E-1    3.469912570358115E-1   -1.317329016510173E-1    6.551782020255973E-1    1.291324788899503E-1
 8.210796883445872E5     6.561399453498524E-1    1.287310321476269E-1    3.460074469960007E-1   -1.312838188136434E-1    3.463410374424417E-1   -1.315024575532608E-1    6.558030106284947E-1    1.288858048913696E-1
 8.273444135886204E5     6.567746300742454E-1    1.284601611865762E-1    3.453633995304115E-1   -1.310614818635418E-1    3.456741685653237E-1   -1.312508422306061E-1    6.564388199563505E-1    1.286142266695957E-1
 8.336569378257846E5     6.573887668358703E-1    1.282029378850731E-1    3.447185301749529E-1   -1.308063767356239E-1    3.450346182581900E-1   -1.310121841932983E-1    6.570958174941943E-1    1.283506458220416E-1
 8.400176257558319E5     6.580522740475673E-1    1.279090068777398E-1    3.440691924030137E-1   -1.305658018102107E-1    3.443877552717405E-1   -1.307735698212203E-1    6.577555426427130E-1    1.280811907408930E-1
 8.464268448611222E5     6.586854311923074E-1    1.276477447631355E-1    3.434242687091623E-1   -1.303189307853263E-1    3.437493665202522E-1   -1.305418779420989E-1    6.583943170509950E-1    1.278001930884824E-1
 8.528849654278599E5     6.593259286494463E-1    1.273927131403361E-1    3.427735010232981E-1   -1.300525591503493E-1    3.430964403076462E-1   -1.303009214690624E-1    6.590256768069833E-1    1.275246715392659E-1
 8.593923605674774E5     6.599632606959094E-1    1.271063392688628E-1    3.421389692723296E-1   -1.298132967165088E-1    3.424543754526574E-1   -1.300313551419763E-1    6.596487673781551E-1    1.272792181426722E-1
 8.659494062381978E5     6.606107938361210E-1    1.268363880676512E-1    3.415033264211337E-1   -1.295550090499537E-1    3.417968294889792E-1   -1.297812703458215E-1    6.602589236845051E-1    1.270143692845633E-1
 8.725564812667536E5     6.612291407994164E-1    1.265463091117016E-1    3.408597852987029E-1   -1.292999900637845E-1    3.411640010921738E-1   -1.295358649413361E-1    6.609216753210769E-1    1.267253785501126E-1
 8.792139673702718E5     6.618564835350067E-1    1.262879121941324E-1    3.402293348448059E-1   -1.290635212401551E-1    3.405255010264115E-1   -1.292902453720986E-1    6.615446534151401E-1    1.264625976607312E-1
 8.859222491783336E5     6.625006786486650E-1    1.259982267743534E-1    3.395971240335682E-1   -1.288107552966203E-1    3.398847085980710E-1   -1.290253046217277E-1    6.621520007934049E-1    1.261970105410494E-1
 8.926817142551860E5     6.631083460127591E-1    1.257270262042799E-1    3.389607138063749E-1   -1.285581923761031E-1    3.392613986000999E-1   -1.287681643364408E-1    6.627828722255387E-1    1.259200529975396E-1
 8.994927531221397E5     6.636993587244271E-1    1.254491685337999E-1    3.383137025166454E-1   -1.282758987972518E-1    3.386271009515499E-1   -1.285286250535477E-1    6.633836672071488E-1    1.256463815355711E-1
 9.063557592801275E5     6.643175799291940E-1    1.251749077492445E-1    3.376897641326007E-1   -1.280168328393486E-1    3.379938758305409E-1   -1.282757093364431E-1    6.640234306275178E-1    1.253668344794190E-1
 9.132711292324457E5     6.649401160652813E-1    1.249057553420873E-1    3.370796003953354E-1   -1.277860121936060E-1    3.373744494782840E-1   -1.280146847636874E-1    6.646374046568627E-1    1.250964440969289E-1
 9.202392625076511E5     6.655419645383918E-1    1.246210991056149E-1    3.364582545499133E-1   -1.275168668670951E-1    3.367481629850892E-1   -1.277666635655481E-1    6.652497410742069E-1    1.248298321238621E-1
 9.272605616826499E5     6.661595983755187E-1    1.243501852256912E-1    3.358410954364163E-1   -1.272766092818038E-1    3.361278577936538E-1   -1.275099663166461E-1    6.658376416771749E-1    1.245414448241321E-1
 9.343354324059531E5     6.667713957640261E-1    1.240725803558239E-1    3.352192032483078E-1   -1.270214658001166E-1    3.355097910196992E-1   -1.272635199421774E-1    6.664695468411262E-1    1.242650216278684E-1
 9.414642834211199E5     6.673847562495701E-1    1.237869427819073E-1    3.346084839326681E-1   -1.267592215886252E-1    3.348860913125963E-1   -1.269878291712657E-1    6.670510820252927E-1    1.239833719725578E-1
 9.486475265903610E5     6.679796823511163E-1    1.235160737484495E-1    3.339991478715252E-1   -1.265092825765592E-1    3.342685341959035E-1   -1.267390387627227E-1    6.676621358397843E-1    1.237098319853706E-1
 9.558855769183410E5     6.685922909397908E-1    1.232319733697682E-1    3.333881834668606E-1   -1.262667511626002E-1    3.336522440059808E-1   -1.264811996459978E-1    6.682562122984275E-1    1.234469269080368E-1
 9.631788525761530E5     6.691782146575748E-1    1.229445550274901E-1    3.327861989857102E-1   -1.259909825210983E-1    3.330548665372720E-1   -1.262356072085435E-1    6.688575114730794E-1    1.231842173716259E-1
 9.705277749254764E5     6.697544349248248E-1    1.226840008641521E-1    3.321693949386416E-1   -1.257354094215775E-1    3.324416553667464E-1   -1.259836313832699E-1    6.694511890272583E-1    1.228924326090405E-1
 9.779327685429282E5     6.703327236976401E-1    1.224139411206354E-1    3.315707201414224E-1   -1.254892274620872E-1    3.318307018048854E-1   -1.257169571576949E-1    6.700621640494284E-1    1.226172646500595E-1
 9.853942612445805E5     6.709330938660946E-1    1.221409208321249E-1    3.309856019307041E-1   -1.252354346601570E-1    3.312323838839829E-1   -1.254719534036605E-1    6.706435299024236E-1    1.223558235334412E-1
 9.929126841106854E5     6.715315468412055E-1    1.218447435011460E-1    3.303816848484359E-1   -1.249890452104772E-1    3.306369326753476E-1   -1.252159730250458E-1    6.712472109296186E-1    1.220791533427892E-1
 1.000488471510578E6     6.721127738832589E-1    1.215929561266428E-1    3.297870598355178E-1   -1.247407212333069E-1    3.300372870802259E-1   -1.249725995625501E-1    6.718136129093784E-1    1.218017399538444E-1
 1.008122061127771E6     6.727077902953117E-1    1.212998718489813E-1    3.291927654661354E-1   -1.245108855714111E-1    3.294310607411780E-1   -1.247267494939471E-1    6.723936266536314E-1    1.215345739492406E-1
 1.015813893985245E6     6.732868729444406E-1    1.210647849811760E-1    3.285956383380130E-1   -1.242589326316176E-1    3.288440483548139E-1   -1.244810642304303E-1    6.729699825794991E-1    1.212704018089839E-1
 1.023564414470923E6     6.738526303517218E-1    1.207897372897926E-1    3.280056956244622E-1   -1.240035775198174E-1    3.282454953894338E-1   -1.242410429525465E-1    6.735500546602156E-1    1.210148182065871E-1
 1.031374070363347E6     6.744358268349553E-1    1.205062140124021E-1    3.274148726417652E-1   -1.237826241981585E-1    3.276599085013786E-1   -1.239994483817319E-1    6.741348703058486E-1    1.207460974461764E-1
 1.039243312857548E6     6.750159124391838E-1    1.202365080942254E-1    3.268279235023921E-1   -1.235427369683205E-1    3.270602765953983E-1   -1.237591026866213E-1    6.747034478960263E-1    1.204887980727942E-1
 1.047172596591111E6     6.755684973315044E-1    1.199771015401045E-1    3.262418268842429E-1   -1.232922571955100E-1    3.264625987279889E-1   -1.235085598281914E-1    6.752835987618229E-1    1.202108238304506E-1
 1.055162379670449E6     6.761288919761627E-1    1.197117088752105E-1    3.256371879359896E-1   -1.230368153812720E-1    3.258888071907994E-1   -1.232752550506566E-1    6.758928303732196E-1    1.199327199138570E-1
 1.063213123697260E6     6.767270156635292E-1    1.194701909334385E-1    3.250574482272197E-1   -1.228121803361128E-1    3.252888753386716E-1   -1.230579349831742E-1    6.764489914363299E-1    1.196775125000335E-1
 1.071325293795198E6     6.772834962966144E-1    1.192288521330726E-1    3.244752149218776E-1   -1.225569742472894E-1    3.247093998766385E-1   -1.228120283045094E-1    6.770478824146625E-1    1.194158230452565E-1
 1.079499358636750E6     6.778560627031111E-1    1.189407783378349E-1    3.238851136690227E-1   -1.223345273217659E-1    3.241166759255069E-1   -1.225786774291732E-1    6.776250755023776E-1    1.191692045889013E-1
 1.087735790470306E6     6.784068812588184E-1    1.186795371183933E-1    3.232933975548345E-1   -1.220913547399791E-1    3.235223954349416E-1   -1.223366820491571E-1    6.781858737569907E-1    1.189096889329421E-1
 1.096035065147453E6     6.789837054471661E-1    1.184406885317037E-1    3.227031090261249E-1   -1.218577997902010E-1    3.229379856986591E-1   -1.220964541795596E-1    6.787834315025336E-1    1.186494548279953E-1
 1.104397662150453E6     6.795418722392477E-1    1.181627404810013E-1    3.221162804352301E-1   -1.216217985865360E-1    3.223361530213187E-1   -1.218731591223278E-1    6.793474272495696E-1    1.183791005543331E-1
 1.112824064619953E6     6.801299084108923E-1    1.179304879826041E-1    3.215365849309437E-1   -1.213861739565051E-1    3.217520362403704E-1   -1.216287755399156E-1    6.799175900208674E-1    1.181253319528183E-1
 1.121314759382903E6     6.807100485129161E-1    1.176634755899935E-1    3.209485401917139E-1   -1.211545709950964E-1    3.211741326562804E-1   -1.213923098615605E-1    6.804844682272940E-1    1.178628868891154E-1
 1.129870236980669E6     6.812948691737570E-1    1.174204087480892E-1    3.203686190789331E-1   -1.209191354085857E-1    3.205732119593983E-1   -1.211556307574562E-1    6.811000321233236E-1    1.176095777392608E-1
 1.138490991697383E6     6.818419458997010E-1    1.171710843197753E-1    3.197844020696281E-1   -1.206850394059180E-1    3.199741578523312E-1   -1.209254910799878E-1    6.816734597717079E-1    1.173352160746955E-1
 1.147177521588496E6     6.824110208662469E-1    1.169037850579803E-1    3.191997302770166E-1   -1.204406466252781E-1    3.193991824630932E-1   -1.206853819054734E-1    6.822238338960067E-1    1.170804438686192E-1
 1.155930328509552E6     6.829960942531597E-1    1.166637101140710E-1    3.186064892339352E-1   -1.202190426602156E-1    3.188083902710192E-1   -1.204487278703646E-1    6.827969285283810E-1    1.168439137425526E-1
 1.164749918145190E6     6.835780602754565E-1    1.163800974644982E-1    3.180189036038568E-1   -1.199817122408634E-1    3.182248972718689E-1   -1.202117657232186E-1    6.834008064391148E-1    1.166026303491899E-1
 1.173636800038349E6     6.841433117377917E-1    1.161388432710015E-1    3.174195144276993E-1   -1.197592901620854E-1    3.176322460028703E-1   -1.199761810508552E-1    6.839708007648714E-1    1.163286504115719E-1
 1.182591487619709E6     6.847114204751225E-1    1.158700173299455E-1    3.168351979149563E-1   -1.195146125071948E-1    3.170456931169723E-1   -1.197356752311742E-1    6.845594579349975E-1    1.160684680912080E-1
 1.191614498237359E6     6.852710150728457E-1    1.156272004791134E-1    3.162455390518421E-1   -1.192686508129998E-1    3.164482222681828E-1   -1.194993160727238E-1    6.851237760208966E-1    1.157974527449681E-1
 1.200706353186678E6     6.858604127453923E-1    1.153388379719395E-1    3.156747444784043E-1   -1.190314385654180E-1    3.158557403358463E-1   -1.192626870426654E-1    6.856901542273330E-1    1.155517010475004E-1
 1.209867577740467E6     6.864265466699765E-1    1.150777652625313E-1    3.150834895763084E-1   -1.187985148272072E-1    3.152794670082386E-1   -1.190047673563303E-1    6.862451769533410E-1    1.152854366843867E-1
 1.219098701179276E6     6.870239921361453E-1    1.148362061119954E-1    3.145058313863431E-1   -1.185467674234339E-1    3.146894644049932E-1   -1.187680530912936E-1    6.868455595962808E-1    1.150454625987053E-1
 1.228400256821998E6     6.875859814452775E-1    1.145604873336173E-1    3.139221653404763E-1   -1.183090320206083E-1    3.140957464842520E-1   -1.185221357883176E-1    6.874029279315520E-1    1.147663012179459E-1
 1.237772782056674E6     6.881662468468632E-1    1.142743570883017E-1    3.133358239431669E-1   -1.180582737210567E-1    3.135049945332530E-1   -1.182932413353243E-1    6.879660727498330E-1    1.144702029181562E-1
 1.247216818371540E6     6.887145936884799E-1    1.140196278741066E-1    3.127592765451823E-1   -1.178113277912358E-1    3.129398046530490E-1   -1.180292450834508E-1    6.885435989462493E-1    1.142298493247751E-1
 1.256732911386322E6     6.892844874004972E-1    1.137361713238069E-1    3.121803971842543E-1   -1.175579086577703E-1    3.123525914298447E-1   -1.177772858782327E-1    6.891033918710621E-1    1.139573906009683E-1
 1.266321610883739E6     6.898383595041085E-1    1.134850145961396E-1    3.115963379697845E-1   -1.173144052998989E-1    3.117844599907295E-1   -1.175262226681616E-1    6.896656738492112E-1    1.136683053404692E-1
 1.275983470841281E6     6.903997708630428E-1    1.132324537623450E-1    3.110299615858545E-1   -1.170575177646487E-1    3.111892493948694E-1   -1.172777901138041E-1    6.902469844375136E-1    1.133726822562740E-1
 1.285719049463211E6     6.909708064250647E-1    1.129627360839531E-1    3.104582853936530E-1   -1.168043937079589E-1    3.106113319723093E-1   -1.170270731755902E-1    6.907998383032745E-1    1.131126751173049E-1
 1.295528909212810E6     6.915201809972782E-1    1.126692996773912E-1    3.098752904212254E-1   -1.165611289603341E-1    3.100451047642982E-1   -1.167728645481811E-1    6.913563318364245E-1    1.128538665001120E-1
 1.305413616844883E6     6.920552237551690E-1    1.123798438590393E-1    3.093047010689101E-1   -1.163064371324464E-1    3.094874350733510E-1   -1.165074556604945E-1    6.919119270660539E-1    1.125673117244497E-1
 1.315373743438491E6     6.926284301252751E-1    1.120903841946875E-1    3.087447475102550E-1   -1.160625418016831E-1    3.089162430291830E-1   -1.162511901717556E-1    6.924961400553767E-1    1.122958582528822E-1
 1.325409864429950E6     6.931802829655623E-1    1.118645310347829E-1    3.081922663255964E-1   -1.157939724676771E-1    3.083361867304967E-1   -1.159968654212274E-1    6.930061555437835E-1    1.119976558894381E-1
 1.335522559646084E6     6.937040254189146E-1    1.115548714221539E-1    3.076144999716717E-1   -1.155458794972981E-1    3.077768798959008E-1   -1.157401710440749E-1    6.935358856127056E-1    1.117215857720770E-1
 1.345712413337699E6     6.942715919687246E-1    1.112858122293865E-1    3.070767761848899E-1   -1.152900905903532E-1    3.072208592594144E-1   -1.154796961036922E-1    6.941009096637197E-1    1.114337360945165E-1
 1.355980014213373E6     6.948037253863424E-1    1.110061781723577E-1    3.065140580946668E-1   -1.150412922124470E-1    3.066632304945504E-1   -1.152254758650268E-1    6.946474055902863E-1    1.111430844334483E-1
 1.366325955473440E6     6.953547166562187E-1    1.107238217213469E-1    3.059702900020486E-1   -1.147789528718050E-1    3.061096464488999E-1   -1.149646278520514E-1    6.951771019398133E-1    1.108914038096398E-1
 1.376750834844268E6     6.958900038703375E-1    1.104538154350964E-1    3.054180960969620E-1   -1.145192361704608E-1    3.055636133022034E-1   -1.147109476229322E-1    6.957160061430117E-1    1.106079995116372E-1
 1.387255254612807E6     6.964306902249189E-1    1.101682572966881E-1    3.048746295189417E-1   -1.142688553978225E-1    3.050253258753635E-1   -1.144463634586933E-1    6.962767542130690E-1    1.103448254557223E-1
 1.397839821661363E6     6.969299952350625E-1    1.098998465989697E-1    3.043211814566476E-1   -1.140102684953912E-1    3.044744746590006E-1   -1.141885678258916E-1    6.968100359588862E-1    1.100535325427370E-1
 1.408505147502673E6     6.974708732539875E-1    1.096355915669338E-1    3.037773414208048E-1   -1.137578099359707E-1    3.039243050094123E-1   -1.139345909973686E-1    6.973201202167891E-1    1.097787873364700E-1
 1.419251848315235E6     6.979700517548425E-1    1.093460198521928E-1    3.032343230600370E-1   -1.135147684517775E-1    3.033848289164803E-1   -1.136778546857526E-1    6.978486295731590E-1    1.095148632266540E-1
 1.430080544978898E6     6.985308606565597E-1    1.090968299283663E-1    3.027108024043257E-1   -1.132472706262342E-1    3.028467314658106E-1   -1.134308541219719E-1    6.983590512042799E-1    1.092152256343404E-1
 1.440991863110751E6     6.990346458502845E-1    1.088039261988351E-1    3.021582002108943E-1   -1.130081230139873E-1    3.023248727933566E-1   -1.131837920454384E-1    6.988877352132213E-1    1.089461679292410E-1
 1.451986433101243E6     6.995441634717836E-1    1.085287171463152E-1    3.016345802913530E-1   -1.127559340680726E-1    3.017821736934641E-1   -1.129341894176134E-1    6.994095233124694E-1    1.086872408523930E-1
 1.463064890150622E6     7.000779885133969E-1    1.082532567288185E-1    3.010917457737291E-1   -1.125258367164765E-1    3.012388923506342E-1   -1.126884286036633E-1    6.999318202483232E-1    1.084181251618727E-1
 1.474227874305625E6     7.005715312791230E-1    1.079832975451744E-1    3.005594709109202E-1   -1.122744941468855E-1    3.007178444257211E-1   -1.124336509604434E-1    7.004531278507834E-1    1.081651886693376E-1
 1.485476030496454E6     7.011127221942125E-1    1.077138415113633E-1    3.000373655531347E-1   -1.120276890800198E-1    3.001756634282289E-1   -1.121944578325164E-1    7.009634515496077E-1    1.078922789267840E-1
 1.496810008574050E6     7.016484564063198E-1    1.074653795454792E-1    2.995100104341827E-1   -1.117868442219489E-1    2.996523535284615E-1   -1.119523835773371E-1    7.014657352723307E-1    1.076110059127106E-1
 1.508230463347619E6     7.021763939233368E-1    1.071982784739601E-1    2.989878624282725E-1   -1.115563040715344E-1    2.991309478827686E-1   -1.116979216789133E-1    7.019748770464987E-1    1.073578744717243E-1
 1.519738054622472E6     7.026846107511836E-1    1.069320297821515E-1    2.984652357735263E-1   -1.113070961086319E-1    2.986012299462771E-1   -1.114719543464437E-1    7.024780253490376E-1    1.070841379209902E-1
 1.531333447238147E6     7.032095662589662E-1    1.066778917669552E-1    2.979374344174590E-1   -1.110656202914813E-1    2.980661495419198E-1   -1.112290768196243E-1    7.030053604900697E-1    1.068237134693951E-1
 1.543017311106810E6     7.037008707971488E-1    1.064074832141904E-1    2.974211548232201E-1   -1.108282434834168E-1    2.975515068629480E-1   -1.109864789722773E-1    7.035210067897354E-1    1.065689149546763E-1
 1.554790321251977E6     7.042066514225863E-1    1.061633389570508E-1    2.968911811090503E-1   -1.105964107323254E-1    2.970235392215522E-1   -1.107421478197861E-1    7.040502470779704E-1    1.063152921052783E-1
 1.566653157847488E6     7.047254154598280E-1    1.058962062922161E-1    2.963637326750499E-1   -1.103625575041986E-1    2.964872425553119E-1   -1.105121663463178E-1    7.045423688572827E-1    1.060484088317090E-1
 1.578606506256824E6     7.052185843342674E-1    1.056228820834209E-1    2.958182039311697E-1   -1.101325469699269E-1    2.959541424939073E-1   -1.102712637942932E-1    7.050370836901014E-1    1.057648088653827E-1
 1.590651057072690E6     7.057552984299065E-1    1.053723993143384E-1    2.952958132994498E-1   -1.098895479250533E-1    2.954333092438363E-1   -1.100343393746116E-1    7.055750767866927E-1    1.055319410395749E-1
 1.602787506156919E6     7.062951272637592E-1    1.051246302193966E-1    2.947687921065266E-1   -1.096644750871446E-1    2.948920344935279E-1   -1.097932857654479E-1    7.060775690501645E-1    1.052660314574395E-1
 1.615016554680682E6     7.067726472012452E-1    1.048644289732485E-1    2.942305603691917E-1   -1.094200939435983E-1    2.943828580495512E-1   -1.095571861141148E-1    7.065964632469196E-1    1.050151016346689E-1
 1.627338909164981E6     7.072983201554791E-1    1.046026373044162E-1    2.937163493179400E-1   -1.091802580503346E-1    2.938502914581657E-1   -1.093173423893463E-1    7.071209817752204E-1    1.047743291475971E-1
 1.639755281521474E6     7.078024519135957E-1    1.043463351173259E-1    2.931944425863464E-1   -1.089424371905833E-1    2.933234329321138E-1   -1.090837064041012E-1    7.076448280405524E-1    1.044962121290212E-1
 1.652266389093622E6     7.082846585052188E-1    1.040647220914156E-1    2.926664845061485E-1   -1.087070200947283E-1    2.928007232037515E-1   -1.088432761945306E-1    7.081705526877334E-1    1.042539130901670E-1
 1.664872954698102E6     7.088080077136103E-1    1.038091675538731E-1    2.921460709333737E-1   -1.084727197771686E-1    2.922699862520173E-1   -1.086034926581651E-1    7.086667127128874E-1    1.039708773693070E-1
 1.677575706666590E6     7.093043052308023E-1    1.035512675278072E-1    2.916087179167616E-1   -1.082345559730107E-1    2.917369969100232E-1   -1.083614200059718E-1    7.091872357359241E-1    1.037062442337391E-1
 1.690375378887833E6     7.098290744992641E-1    1.032931873949918E-1    2.910867281161873E-1   -1.080010473967128E-1    2.912169428063804E-1   -1.081228935951140E-1    7.096754837317747E-1    1.034346178350664E-1
 1.703272710850043E6     7.103231059257245E-1    1.030284562045830E-1    2.905494609716447E-1   -1.077540582280257E-1    2.906827666951961E-1   -1.078814128637392E-1    7.102003925459712E-1    1.031739501180797E-1
 1.716268447683636E6     7.108464168198946E-1    1.027702970634784E-1    2.900284026336795E-1   -1.075119251962740E-1    2.901538135506495E-1   -1.076336164196355E-1    7.106788986962476E-1    1.029029410985822E-1
 1.729363340204262E6     7.113375119913944E-1    1.024990124683495E-1    2.895078553845219E-1   -1.072631048933256E-1    2.896375162322977E-1   -1.073959771354640E-1    7.111982002300373E-1    1.026185807885337E-1
 1.742558144956193E6     7.118517777502068E-1    1.022463299700042E-1    2.889907146212496E-1   -1.070204939168779E-1    2.891188699584661E-1   -1.071488341335855E-1    7.117061060136024E-1    1.023495036892491E-1
 1.755853624256030E6     7.123327317382319E-1    1.019460396042951E-1    2.884634333322719E-1   -1.067748952605839E-1    2.886085217876366E-1   -1.068959253056705E-1    7.122195711252307E-1    1.020912087708903E-1
 1.769250546236744E6     7.128620763826140E-1    1.016822863557832E-1    2.879483808742180E-1   -1.065278686208620E-1    2.881040004297827E-1   -1.066454472592001E-1    7.127407061253439E-1    1.018077816237827E-1
 1.782749684892061E6     7.133290493273517E-1    1.013989374122311E-1    2.874343449767341E-1   -1.062824046564489E-1    2.875804858613142E-1   -1.064004455104175E-1    7.132416578452561E-1    1.015297918618338E-1
 1.796351820121167E6     7.138222580290993E-1    1.011289354807626E-1    2.869261397027422E-1   -1.060291623791413E-1    2.870573823497375E-1   -1.061435053895419E-1    7.137188765435132E-1    1.012604693749043E-1
 1.810057737773773E6     7.143084250237605E-1    1.008433128239904E-1    2.864046283126964E-1   -1.057820556814047E-1    2.865399896509885E-1   -1.058933423010496E-1    7.141965589573632E-1    1.009820906550858E-1
 1.823868229695514E6     7.148452802633397E-1    1.005864824190059E-1    2.859023377990129E-1   -1.055299739538719E-1    2.860390066504205E-1   -1.056470598136033E-1    7.146774879750587E-1    1.007097065927139E-1
 1.837784093773698E6     7.153259158512725E-1    1.003029524558532E-1    2.853999640201573E-1   -1.052825753139969E-1    2.855225173084871E-1   -1.053867654210058E-1    7.151924278960199E-1    1.004496680113497E-1
 1.851806133983411E6     7.157965916326973E-1    1.000318441687162E-1    2.849074886540675E-1   -1.050322428472073E-1    2.850277115325632E-1   -1.051384678257483E-1    7.156978357878258E-1    1.001761651115909E-1
 1.865935160433950E6     7.163057099907559E-1    9.975833447463800E-2    2.844152337373996E-1   -1.047816322917340E-1    2.845269616365858E-1   -1.048848622831372E-1    7.161865286550262E-1    9.990058405985991E-2
 1.880171989415638E6     7.167981742218037E-1    9.948603258118020E-2    2.839115730849493E-1   -1.045278202836080E-1    2.840251995864146E-1   -1.046348315240256E-1    7.166631319767256E-1    9.961167021339579E-2
 1.894517443446981E6     7.172726611388658E-1    9.920891047257555E-2    2.834140474222677E-1   -1.042769214008749E-1    2.835273277167710E-1   -1.043815321464541E-1    7.171306916984745E-1    9.932822675389003E-2
 1.908972351322182E6     7.177254805314427E-1    9.893184675873867E-2    2.829394103792459E-1   -1.040348251085190E-1    2.830241128066266E-1   -1.041284198516499E-1    7.176017616782180E-1    9.905039812454042E-2
 1.923537548159045E6     7.181791372668810E-1    9.865094419617908E-2    2.824444320122519E-1   -1.037800110591402E-1    2.825407563140506E-1   -1.038781614702565E-1    7.180444081225165E-1    9.877318654763603E-2
 1.938213875447196E6     7.186852033240895E-1    9.837934299551811E-2    2.819570046837178E-1   -1.035408526129238E-1    2.820386671255518E-1   -1.036353436205829E-1    7.185430342532872E-1    9.850329298027255E-2
 1.953002181096708E6     7.191354529760710E-1    9.809365924094164E-2    2.814691004694340E-1   -1.033002827785920E-1    2.815676450466384E-1   -1.033875783610820E-1    7.189963192350668E-1    9.822345475196749E-2
 1.967903319487111E6     7.196059153992633E-1    9.782847295441628E-2    2.809836146914991E-1   -1.030549361674611E-1    2.810850813176710E-1   -1.031425146825918E-1    7.194680046295669E-1    9.795635272629830E-2
 1.982918151516703E6     7.200806465477152E-1    9.756462166507106E-2    2.804923096627170E-1   -1.028101316001532E-1    2.805967583168226E-1   -1.028968139423616E-1    7.199570414548916E-1    9.769468578927425E-2
 1.998047544652348E6     7.205469150788729E-1    9.728365197616079E-2    2.800044518308031E-1   -1.025674350778173E-1    2.801122261761818E-1   -1.026497869326265E-1    7.203940392955669E-1    9.741117564472776E-2
 2.013292372979546E6     7.209816339374449E-1    9.701818288113553E-2    2.795297135357641E-1   -1.023282626486344E-1    2.796220161921123E-1   -1.024087623393650E-1    7.208621888796621E-1    9.714351864391103E-2
 2.028653517252947E6     7.214566312868343E-1    9.675607538944228E-2    2.790570866101694E-1   -1.020977472485568E-1    2.791489509202340E-1   -1.021698588892459E-1    7.213190274241843E-1    9.687716628210800E-2
 2.044131864947255E6     7.219281808018481E-1    9.649586165927831E-2    2.785676222483107E-1   -1.018592640221619E-1    2.786674086760908E-1   -1.019319657092285E-1    7.218087556094712E-1    9.660486810052354E-2
 2.059728310308467E6     7.223880851703907E-1    9.622713217614252E-2    2.780869125770151E-1   -1.016225620469606E-1    2.781816476097563E-1   -1.016909613527545E-1    7.222605677678446E-1    9.633805186133571E-2
 2.075443754405562E6     7.228609144641243E-1    9.597243755968268E-2    2.776159402459619E-1   -1.013908309580747E-1    2.777045231246378E-1   -1.014474205580953E-1    7.227013155706810E-1    9.608093266252499E-2
 2.091279105182548E6     7.233344139728983E-1    9.570552874670335E-2    2.771474878674957E-1   -1.011617595478199E-1    2.772382401832904E-1   -1.012129715563281E-1    7.231861957813979E-1    9.581777784777196E-2
 2.107235277510921E6     7.237600221161791E-1    9.544377607002603E-2    2.766630624374365E-1   -1.009284549924506E-1    2.767339523842658E-1   -1.009751551999340E-1    7.236063482630593E-1    9.556176938841214E-2
 2.123313193242529E6     7.242166615813985E-1    9.517533341427092E-2    2.761851523546847E-1   -1.006986168877318E-1    2.762548787420488E-1   -1.007362390494709E-1    7.240650469208092E-1    9.529652151130751E-2
 2.139513781262815E6     7.246539279814733E-1    9.492020268786976E-2    2.757151132361831E-1   -1.004704221154879E-1    2.757773020075104E-1   -1.005017238160982E-1    7.245351769148330E-1    9.502319350794021E-2
 2.155837977544490E6     7.251377395437126E-1    9.465645160161897E-2    2.752294495655390E-1   -1.002444500243755E-1    2.752948292053289E-1   -1.002631957960967E-1    7.249812150538271E-1    9.477256351622781E-2
 2.172286725201612E6     7.256150663195622E-1    9.441594160680816E-2    2.747579666712416E-1   -1.000147152127544E-1    2.748132700496966E-1   -1.000250497008202E-1    7.254268719507674E-1    9.451419713562660E-2
 2.188860974544063E6     7.260500401015096E-1    9.415204125635226E-2    2.742719541929165E-1   -9.978579660806043E-2    2.743306443088775E-1   -9.977852904492070E-2    7.259087766825887E-1    9.424766756132820E-2
 2.205561683132472E6     7.264790295084218E-1    9.390361100249978E-2    2.737874991380709E-1   -9.954917150999650E-2    2.738639305083352E-1   -9.954818611460030E-2    7.264046903636946E-1    9.397354987843275E-2
 2.222389815833514E6     7.269280854049193E-1    9.363848300108989E-2    2.733089455344815E-1   -9.932469100161569E-2    2.733765465268431E-1   -9.930130670858850E-2    7.268333056963385E-1    9.372178315697088E-2
 2.239346344875663E6     7.273853340845973E-1    9.337255180180880E-2    2.728249106926451E-1   -9.908921746825079E-2    2.728981558216544E-1   -9.905613647756993E-2    7.273112100894006E-1    9.344666361460999E-2
 2.256432249905369E6     7.278495819482128E-1    9.312698413546090E-2    2.723563668612682E-1   -9.886578200085039E-2    2.724119470449548E-1   -9.880306633499891E-2    7.277536479973425E-1    9.317538623628553E-2
 2.273648518043640E6     7.283178615776729E-1    9.287022362491117E-2    2.718757996107081E-1   -9.863244835428046E-2    2.719360165264039E-1   -9.855775081303661E-2    7.282196774841454E-1    9.291834131001242E-2
 2.290996143943099E6     7.287839179823561E-1    9.262611093013090E-2    2.714025505877353E-1   -9.840615772375340E-2    2.714538436467095E-1   -9.830089880873498E-2    7.286336908253453E-1    9.265762778003399E-2
 2.308476129845417E6     7.292283888242970E-1    9.238083666023710E-2    2.709196132054498E-1   -9.816421144155107E-2    2.709884403441234E-1   -9.804938856451853E-2    7.290921119735368E-1    9.236728411835320E-2
 2.326089485639235E6     7.296716066122054E-1    9.211328890447869E-2    2.704322990171265E-1   -9.792358008877794E-2    2.705266473916067E-1   -9.779239330047088E-2    7.295371618099377E-1    9.210806885663900E-2
 2.343837228918507E6     7.301581733397824E-1    9.187479806943674E-2    2.699532121121262E-1   -9.768136777153441E-2    2.700679813024258E-1   -9.754309163403947E-2    7.299957475166015E-1    9.184014629602981E-2
 2.361720385041283E6     7.306081443436941E-1    9.159604671657294E-2    2.694756728746098E-1   -9.744712396359415E-2    2.696132734218488E-1   -9.729027169920057E-2    7.304408131507767E-1    9.157329605301777E-2
 2.379739987188969E6     7.310660428711959E-1    9.134806964844004E-2    2.690091073661231E-1   -9.718773008200521E-2    2.691643950755411E-1   -9.703987956473757E-2    7.308746932009326E-1    9.130141392855708E-2
 2.397897076425990E6     7.315542639464634E-1    9.107624090616610E-2    2.685350684929951E-1   -9.695383779014231E-2    2.687086255495466E-1   -9.679146258045641E-2    7.313226624529625E-1    9.103760199713501E-2
 2.416192701759947E6     7.319802507441516E-1    9.081216914877251E-2    2.680679635467359E-1   -9.670007022372981E-2    2.682690019422913E-1   -9.655059000541601E-2    7.317692141159029E-1    9.076990803775406E-2
 2.434627920202243E6     7.324511774055650E-1    9.050921238638422E-2    2.675939474020592E-1   -9.645717957287239E-2    2.678303332821515E-1   -9.630559280956896E-2    7.322146380193562E-1    9.049841108714553E-2
 2.453203796829114E6     7.328958509874202E-1    9.024693502153278E-2    2.671347239399290E-1   -9.619588276311948E-2    2.673834755858809E-1   -9.607285109401420E-2    7.326441534514777E-1    9.022628997590026E-2
 2.471921404843189E6     7.333471425749662E-1    8.997894351702185E-2    2.666858894212911E-1   -9.594492082042508E-2    2.669297980366764E-1   -9.583049658788842E-2    7.330586616063915E-1    8.996695427830530E-2
 2.490781825635486E6     7.337917147146329E-1    8.971131191494225E-2    2.662355468571830E-1   -9.570223996119280E-2    2.664968756948595E-1   -9.559000766541995E-2    7.334951562434767E-1    8.971640706148661E-2
 2.509786148847881E6     7.350067395480230E-1    8.689310811160722E-2    2.672731075434175E-1   -9.419598233352770E-2    2.659387888658918E-1   -9.728468113033151E-2    7.346878205495557E-1    9.042081866163777E-2
 2.528935472436085E6     7.354159812430962E-1    8.663929715778849E-2    2.668887485141042E-1   -9.371805181208746E-2    2.654015815714700E-1   -9.722998468304699E-2    7.350949433398897E-1    9.021978985390321E-2
 2.548230902733043E6     7.358521867550312E-1    8.661832216498502E-2    2.664569669925264E-1   -9.343776401750913E-2    2.649121086433325E-1   -9.706083806244502E-2    7.355221964649298E-1    8.989683042706462E-2
 2.567673554512876E6     7.362569880723749E-1    8.622888219910033E-2    2.660244696931322E-1   -9.318590773320050E-2    2.644784467488951E-1   -9.679875814936156E-2    7.359432107681975E-1    8.964765432061808E-2
 2.587264551055275E6     7.367513270276319E-1    8.603006388092722E-2    2.656282033417288E-1   -9.291230415734815E-2    2.640752612644664E-1   -9.652427228758123E-2    7.363956312169024E-1    8.938773377133687E-2
 2.607005024210399E6     7.371699282024354E-1    8.570444340337585E-2    2.651719437708594E-1   -9.270585597937220E-2    2.637166152268208E-1   -9.616489403216105E-2    7.368277681415450E-1    8.914245281528206E-2
 2.626896114464281E6     7.376219626716225E-1    8.544491625247877E-2    2.647142564914568E-1   -9.251276639456835E-2    2.632783026333450E-1   -9.596736388876487E-2    7.372204794133794E-1    8.889809645332633E-2
 2.646938971004693E6     7.380260083145721E-1    8.518143145588830E-2    2.643028073269460E-1   -9.225362415019076E-2    2.628599065744328E-1   -9.567956032957015E-2    7.376505984900659E-1    8.861761156001342E-2
 2.667134751787555E6     7.384869937657859E-1    8.507202952777754E-2    2.638449962415098E-1   -9.204656142131197E-2    2.624760227692638E-1   -9.537578231207119E-2    7.380735849459236E-1    8.843545838867814E-2
 2.687484623603833E6     7.389117042731894E-1    8.483660850308551E-2    2.634555545545438E-1   -9.176230718513839E-2    2.620569854186737E-1   -9.518062246183634E-2    7.385107594332180E-1    8.804244060315951E-2
 2.707989762146940E6     7.393413254908251E-1    8.470919105951633E-2    2.630270870597892E-1   -9.152787590031287E-2    2.616350356106898E-1   -9.491601009215624E-2    7.389179658813373E-1    8.777541542457847E-2
 2.728651352080688E6     7.396905344524666E-1    8.434872072154616E-2    2.626006704205217E-1   -9.130351636792025E-2    2.612582749713082E-1   -9.461858022872588E-2    7.393284742528978E-1    8.755981806676033E-2
 2.749470587107692E6     7.401521295550919E-1    8.414527836812798E-2    2.621691999706250E-1   -9.103241701077198E-2    2.608496307134694E-1   -9.435498041890537E-2    7.397416512814613E-1    8.718627264569340E-2
 2.770448670038360E6     7.405782338058197E-1    8.396391810974020E-2    2.617114485675443E-1   -9.087734629492192E-2    2.604141550152518E-1   -9.412709172262197E-2    7.401638954161548E-1    8.693808024349939E-2
 2.791586812860380E6     7.410452343887411E-1    8.367483678866183E-2    2.612649154558330E-1   -9.068189224784229E-2    2.600169489039224E-1   -9.386498952926461E-2    7.405769800921189E-1    8.665063104335392E-2
 2.812886236808732E6     7.414936563138688E-1    8.353410724007751E-2    2.608730587710967E-1   -9.039826490980048E-2    2.595899340027362E-1   -9.362664420427365E-2    7.409866478916938E-1    8.636683321763226E-2
 2.834348172436268E6     7.418879437427875E-1    8.326623986039765E-2    2.604393459153214E-1   -9.016112601048348E-2    2.591718111096851E-1   -9.339315141207752E-2    7.414378984550098E-1    8.617996246315832E-2
 2.855973859684773E6     7.423429412545218E-1    8.302238002600351E-2    2.600182074945616E-1   -8.994397697344160E-2    2.587410714536062E-1   -9.315062611821201E-2    7.418311454601193E-1    8.580240731781699E-2
 2.877764547956619E6     7.427387595174386E-1    8.276354214596462E-2    2.596526505638075E-1   -8.963428211934790E-2    2.583411363790641E-1   -9.287462781575108E-2    7.422594170889225E-1    8.550317254622447E-2
 2.899721496186967E6     7.431687831863927E-1    8.250950711141021E-2    2.591864791129855E-1   -8.949362483622463E-2    2.579732958431651E-1   -9.260736303137344E-2    7.426876696823304E-1    8.528266043918700E-2
 2.921845972916440E6     7.435687300746231E-1    8.220278283902983E-2    2.587475437454952E-1   -8.926333612874315E-2    2.575509882654078E-1   -9.234220554078869E-2    7.431252412859688E-1    8.502371995096850E-2
 2.944139256364495E6     7.439881270239926E-1    8.200621557709292E-2    2.583371039968700E-1   -8.902732005888243E-2    2.571550490482828E-1   -9.211017960042335E-2    7.435479029533292E-1    8.481940140125976E-2
 2.966602634503201E6     7.443801056544732E-1    8.157186835079067E-2    2.578758669218254E-1   -8.884531550595225E-2    2.567715326981976E-1   -9.183623214240196E-2    7.440031310544259E-1    8.463081095896115E-2
 2.989237405131679E6     7.447951918327579E-1    8.132036094749269E-2    2.574155628918590E-1   -8.867519993385353E-2    2.563525444971222E-1   -9.157932871020601E-2    7.444271311891133E-1    8.451405376046787E-2
 3.012044875951098E6     7.450693168274486E-1    8.215031570684631E-2    2.571116514866045E-1   -8.907111150780808E-2    2.563204588872692E-1   -9.018411426652181E-2    7.450471828606694E-1    8.409631885620383E-2
 3.035026364640187E6     7.455065835026945E-1    8.182968051655103E-2    2.566935515421719E-1   -8.886103712789342E-2    2.558914438672502E-1   -8.998633446761242E-2    7.454398633900924E-1    8.370229122016272E-2
 3.058183198931389E6     7.459212082841057E-1    8.164904764587094E-2    2.562639236230345E-1   -8.864881597653423E-2    2.554915765527762E-1   -8.972605936783304E-2    7.458726700642874E-1    8.344928333335892E-2
 3.081516716687564E6     7.463448775841062E-1    8.132663225356274E-2    2.558785689322858E-1   -8.838385326707064E-2    2.550769651131743E-1   -8.951253093645481E-2    7.462552504273187E-1    8.319270093680316E-2
 3.105028265979277E6     7.467707664794547E-1    8.122207244708031E-2    2.554628447703148E-1   -8.812882150191872E-2    2.546755528728524E-1   -8.926733689973784E-2    7.466165589611227E-1    8.272931294612547E-2
 3.128719205162701E6     7.471423822489077E-1    8.080432448537565E-2    2.550396829784011E-1   -8.794207409358837E-2    2.542555907159507E-1   -8.904722047315207E-2    7.470473494445011E-1    8.258412823887838E-2
 3.152590902958065E6     7.475543593428351E-1    8.045187090562808E-2    2.545999531516217E-1   -8.777106305796996E-2    2.538421573905432E-1   -8.883006780492962E-2    7.474318219727796E-1    8.221369129521758E-2
 3.176644738528751E6     7.479242790232172E-1    8.020770274450817E-2    2.542147228252247E-1   -8.748650864066650E-2    2.533998383205471E-1   -8.863734496938000E-2    7.478356094876734E-1    8.183668357817822E-2
 3.200882101560967E6     7.483361009267910E-1    7.997675381279105E-2    2.538448486571837E-1   -8.721490408355397E-2    2.529954413954125E-1   -8.842873293348520E-2    7.482394631299699E-1    8.155776917987370E-2
 3.225304392344028E6     7.487318348025691E-1    7.965732164222827E-2    2.534266967364796E-1   -8.703108065696111E-2    2.526121943020348E-1   -8.819737242624541E-2    7.486142432202569E-1    8.122303245160184E-2
 3.249913021851289E6     7.491542524527103E-1    7.932369224865241E-2    2.530596884529085E-1   -8.676056371579834E-2    2.522485097209756E-1   -8.791629008682231E-2    7.490575598885950E-1    8.115516276188145E-2
 3.274709411821612E6     7.495277884155057E-1    7.902525402981653E-2    2.526400577759582E-1   -8.657698592909734E-2    2.518617745669834E-1   -8.766724395551775E-2    7.494483694011737E-1    8.088393577979354E-2
 3.299694994841541E6     7.499299245496089E-1    7.883647193842658E-2    2.522394833845120E-1   -8.634000585793430E-2    2.514459900414391E-1   -8.747519962268036E-2    7.497844552514630E-1    8.048530163587252E-2
 3.324871214428060E6     7.503354614649783E-1    7.835836767321600E-2    2.518548458343500E-1   -8.592675578453723E-2    2.509189457143837E-1   -8.745316100628245E-2    7.501431234082606E-1    8.039652480629109E-2
 3.350239525111979E6     7.506768523577525E-1    7.811391372239818E-2    2.514429937256861E-1   -8.569412059538875E-2    2.505094894777519E-1   -8.723567019694380E-2    7.504748270364273E-1    8.003491451258872E-2
 3.375801392522001E6     7.510818090829904E-1    7.779525688127777E-2    2.510441695460249E-1   -8.553499040960338E-2    2.500982576102707E-1   -8.702064050269634E-2    7.508553047431832E-1    7.977785642441779E-2
 3.401558293469354E6     7.515074652738736E-1    7.763625920489331E-2    2.506335002921674E-1   -8.551256798129742E-2    2.498358221144693E-1   -8.658536940245584E-2    7.513222576601268E-1    7.952793757452080E-2
 3.427511716033138E6     7.519384483960294E-1    7.751783983247028E-2    2.502732519013611E-1   -8.525153974800742E-2    2.494364484663484E-1   -8.636889491034432E-2    7.517179957011035E-1    7.918333829562217E-2
 3.453663159646295E6     7.523213662183168E-1    7.724398417705421E-2    2.498721369692363E-1   -8.504901860993018E-2    2.490674352394543E-1   -8.615385682660104E-2    7.521147601939668E-1    7.898606953086054E-2
 3.480014135182226E6     7.527018973963999E-1    7.705372776957894E-2    2.494979709038887E-1   -8.478907789439272E-2    2.486622554543229E-1   -8.593005635180044E-2    7.525101133193998E-1    7.874904027648627E-2
 3.506566165042107E6     7.531286808516349E-1    7.702101095936234E-2    2.491105693654292E-1   -8.472097617640448E-2    2.484584992903302E-1   -8.551554403920841E-2    7.529957217753818E-1    7.847127506927584E-2
 3.533320783242811E6     7.535111077641582E-1    7.674563775211472E-2    2.487106401392973E-1   -8.447233667290333E-2    2.480313365163928E-1   -8.532224025895076E-2    7.533931149128439E-1    7.829171834449591E-2
 3.560279535505542E6     7.538890047979162E-1    7.654562082315425E-2    2.483389695818961E-1   -8.422892373281722E-2    2.476682647168100E-1   -8.508937242446279E-2    7.537362014372421E-1    7.791736035798734E-2
 3.587443979345170E6     7.542749833206063E-1    7.625504568831780E-2    2.479408784793730E-1   -8.401532824565805E-2    2.472774646128296E-1   -8.483565633292928E-2    7.541158959307150E-1    7.771633604992693E-2
 3.614815684160168E6     7.546793383501770E-1    7.594971597072298E-2    2.474922624571635E-1   -8.386827007984594E-2    2.468717586958872E-1   -8.463891218848962E-2    7.544422743947568E-1    7.720790333234151E-2
 3.642396231323309E6     7.550666182877042E-1    7.560591733990275E-2    2.471451385978871E-1   -8.363287230082676E-2    2.464652958735689E-1   -8.446490433917200E-2    7.548483716722355E-1    7.697198527642722E-2
 3.670187214273024E6     7.555144107175803E-1    7.441180765611510E-2    2.467427749984549E-1   -8.247168119481170E-2    2.455822764495572E-1   -8.548173045152264E-2    7.548937249450507E-1    7.680656141148956E-2
 3.698190238605455E6     7.558982952514917E-1    7.397636996269107E-2    2.463380372703551E-1   -8.228643132392989E-2    2.451664159226686E-1   -8.527960241947101E-2    7.553121597920972E-1    7.656800716743337E-2
 3.726406922167240E6     7.562977283390483E-1    7.376743626687264E-2    2.460043445077104E-1   -8.202006990242026E-2    2.448117476164544E-1   -8.506622409699760E-2    7.556982172056304E-1    7.626124004362378E-2
 3.754838895148946E6     7.566725633758037E-1    7.347206716304945E-2    2.456059032190369E-1   -8.183152602693010E-2    2.444495760360180E-1   -8.480489707897465E-2    7.560945670727558E-1    7.603364027654658E-2
 3.783487800179276E6     7.569309725770431E-1    7.352977903638622E-2    2.452696179227681E-1   -8.181584312463298E-2    2.441650980140293E-1   -8.413206488267158E-2    7.565950057998100E-1    7.598296845010531E-2
 3.812355292419964E6     7.573179516823675E-1    7.339404284592199E-2    2.449214526238276E-1   -8.155666684169738E-2    2.437655994013368E-1   -8.395009980242367E-2    7.570103913905424E-1    7.570701983027771E-2
 3.841443039661395E6     7.577078059104099E-1    7.299387825472482E-2    2.445529630677304E-1   -8.134664261809613E-2    2.433923167718436E-1   -8.369029009061943E-2    7.573680646147757E-1    7.552336635926712E-2
 3.870752722418987E6     7.580406794303687E-1    7.282227914254222E-2    2.441459060562662E-1   -8.113864664748208E-2    2.429922714587601E-1   -8.349931682057524E-2    7.577087700389185E-1    7.519462119637360E-2
 3.900286034030236E6     7.583864226411643E-1    7.261784677299069E-2    2.438187628909077E-1   -8.085991395600500E-2    2.426079190850557E-1   -8.331646448433912E-2    7.580757417076441E-1    7.487693088231655E-2
 3.930044680752580E6     7.587608861389791E-1    7.220320992446559E-2    2.434341194718518E-1   -8.066636213019907E-2    2.422265465388093E-1   -8.309151519978404E-2    7.583992192833562E-1    7.449085225097959E-2
 3.960030381861967E6     7.591447065071922E-1    7.188853560538568E-2    2.430667641547399E-1   -8.043707762661177E-2    2.418949600203138E-1   -8.283817198147030E-2    7.588027500321380E-1    7.423148831175234E-2
 3.990244869752173E6     7.595091336588585E-1    7.163576735981213E-2    2.426792448095837E-1   -8.024986064221343E-2    2.415032481367040E-1   -8.264246684686487E-2    7.591598923508204E-1    7.403549848298627E-2
 4.020689890034929E6     7.598340119467736E-1    7.198120294302733E-2    2.423279893434657E-1   -8.051303995059869E-2    2.414654751584059E-1   -8.172572697090537E-2    7.596884277404548E-1    7.366379124046754E-2
 4.051367201640718E6     7.602240380855330E-1    7.178967153113779E-2    2.419358124131938E-1   -8.034793573577485E-2    2.410389206069346E-1   -8.158362703129673E-2    7.599911583942197E-1    7.327862473238694E-2
 4.082278576920427E6     7.605912447626334E-1    7.155592611233084E-2    2.416181853938675E-1   -8.006719413208034E-2    2.406844682745297E-1   -8.135699860034645E-2    7.604034211194979E-1    7.312115866269168E-2
 4.113425801747740E6     7.609633939787774E-1    7.138303845378489E-2    2.412573586938881E-1   -7.982726982523433E-2    2.403199246501556E-1   -8.116260751455860E-2    7.607734508180828E-1    7.280939777153929E-2
 4.144810675622302E6     7.612725515554779E-1    7.106096743670903E-2    2.408869890242683E-1   -7.961200551856903E-2    2.399788001439034E-1   -8.092643588101321E-2    7.611497482062201E-1    7.263169316937970E-2
 4.176435011773718E6     7.616397880859842E-1    7.081651941781480E-2    2.405483789787938E-1   -7.938278792527781E-2    2.396418563437706E-1   -8.065697424429558E-2    7.615361214488204E-1    7.240569424026114E-2
 4.208300637266261E6     7.620057558916039E-1    7.040764537418946E-2    2.401300815311849E-1   -7.921866807028910E-2    2.392666089740440E-1   -8.046541061111115E-2    7.618697363676555E-1    7.209169315673029E-2
 4.240409393104453E6     7.623627035716175E-1    7.030021757270635E-2    2.397911721742791E-1   -7.898398620905296E-2    2.389207455253849E-1   -8.024875431279334E-2    7.622384997165966E-1    7.180111221653253E-2
 4.272763134339464E6     7.627060401833357E-1    7.002406869783125E-2    2.394378905341265E-1   -7.878168672194889E-2    2.385620419146137E-1   -8.001834934817562E-2    7.625505481595227E-1    7.150651970875276E-2
 4.305363730176185E6     7.630620030063362E-1    6.977568288575796E-2    2.390819357190647E-1   -7.856802574965618E-2    2.381862692700084E-1   -7.982353335869040E-2    7.629342262358847E-1    7.137168133830384E-2
 4.338213064081349E6     7.633805710623277E-1    6.918884450116855E-2    2.387391315146728E-1   -7.814991700234829E-2    2.376987017141447E-1   -7.983807486391042E-2    7.631976008613284E-1    7.097544451712080E-2
 4.371313033892244E6     7.637636341849815E-1    6.894559257458599E-2    2.383691840578475E-1   -7.793381129608330E-2    2.373200651839830E-1   -7.965541277361692E-2    7.635413605852119E-1    7.067879480196565E-2
 4.404665551926396E6     7.640873306591099E-1    6.870900466667541E-2    2.380023786907669E-1   -7.773282915696691E-2    2.369595124224585E-1   -7.943707296124122E-2    7.639200438121272E-1    7.047334015806424E-2
 4.438272545092077E6     7.644850254780300E-1    6.847053414944634E-2    2.376859957443937E-1   -7.747959992265646E-2    2.365818452667094E-1   -7.925855080239373E-2    7.642710192358989E-1    7.022570675540472E-2
 4.472135954999580E6     7.648343898380984E-1    6.813514087267133E-2    2.373120082176472E-1   -7.729982156637161E-2    2.362650389229765E-1   -7.900859612932475E-2    7.646501005470908E-1    6.992290806041565E-2
 4.506257738073424E6     7.651624527937401E-1    6.791673650813063E-2    2.369700711078906E-1   -7.704370582378940E-2    2.358880749594879E-1   -7.882107110807565E-2    7.649858950763450E-1    6.969713766812503E-2
 4.540639865665382E6     7.655098733444792E-1    6.793489420280892E-2    2.366115516126673E-1   -7.704253997766966E-2    2.356821142783965E-1   -7.836658332724972E-2    7.653820885708181E-1    6.924699005712892E-2
 4.575284324168356E6     7.659085198388006E-1    6.766849996021494E-2    2.362646778592187E-1   -7.682850686864974E-2    2.353327648017610E-1   -7.817130642907805E-2    7.657730084061507E-1    6.909334948373910E-2
 4.610193115131186E6     7.662420830963265E-1    6.679256410768908E-2    2.358719493426422E-1   -7.611143047690482E-2    2.346853514820225E-1   -7.868164927781397E-2    7.660196980701725E-1    6.903706811804969E-2
 4.645368255374223E6     7.665447870221237E-1    6.648759269957244E-2    2.355173091508350E-1   -7.588726230154363E-2    2.343025199715253E-1   -7.851257616875255E-2    7.663254758605128E-1    6.867822142601034E-2
 4.680811777105891E6     7.668555740387019E-1    6.620975461634894E-2    2.351969844876851E-1   -7.563282672917426E-2    2.339597549353886E-1   -7.829159569783020E-2    7.666982435777470E-1    6.846063348753736E-2
 4.716525728040087E6     7.672226607570138E-1    6.588031851270192E-2    2.348346471666501E-1   -7.545646270603688E-2    2.336262781290582E-1   -7.806924984423338E-2    7.670144108411769E-1    6.813434339762443E-2
 4.752512171514469E6     7.675855197728872E-1    6.563338091655135E-2    2.344856148780358E-1   -7.523957960230281E-2    2.332577355291348E-1   -7.791176244466146E-2    7.673518081329238E-1    6.799922464637143E-2
 4.788773186609713E6     7.678959746408903E-1    6.540703469580840E-2    2.341398682730391E-1   -7.502684193236832E-2    2.329040980487454E-1   -7.775737997724833E-2    7.677020519679623E-1    6.749872283403488E-2
 4.825310868269563E6     7.683674634625015E-1    6.475518856341637E-2    2.337177959861731E-1   -7.460919400899467E-2    2.325196109864381E-1   -7.798817300267252E-2    7.679567960696511E-1    6.734770773639383E-2
 4.862127327421905E6     7.687083498489385E-1    6.445532293739220E-2    2.334088287097397E-1   -7.436820202214856E-2    2.321967128198891E-1   -7.775725993467235E-2    7.683277994588584E-1    6.709321948457203E-2
 4.899224691100715E6     7.690095889636199E-1    6.413292998910522E-2    2.330282939013186E-1   -7.420748337029091E-2    2.318609501321574E-1   -7.755952827121533E-2    7.686880758530998E-1    6.686430122025190E-2
 4.936605102568937E6     7.693420011871466E-1    6.386132249230772E-2    2.326869313082927E-1   -7.398274692026856E-2    2.315668934450780E-1   -7.728855514164198E-2    7.690340539553637E-1    6.668935461814876E-2
 4.974270721442348E6     7.696623003298949E-1    6.363107355558777E-2    2.323635152858573E-1   -7.374484593055430E-2    2.312220415812026E-1   -7.708129980696694E-2    7.693335701847146E-1    6.637490174922617E-2
 5.012223723814265E6     7.700226665850801E-1    6.336284410142434E-2    2.320342646081112E-1   -7.351486660946571E-2    2.308513890642800E-1   -7.696347765285332E-2    7.696993293102387E-1    6.597918938270356E-2
 5.050466302381308E6     7.703658831631560E-1    6.312531523017384E-2    2.317133439961666E-1   -7.328157377318908E-2    2.305124552153727E-1   -7.678978751867355E-2    7.700429708456962E-1    6.572792773752989E-2
 5.089000666570071E6     7.706437629628486E-1    6.282378315907573E-2    2.313611888179558E-1   -7.308009315801750E-2    2.301872246404065E-1   -7.656756011315245E-2    7.703577349274237E-1    6.544344078338792E-2
 5.127829042664761E6     7.710018165139860E-1    6.255572598758216E-2    2.310478216047797E-1   -7.287165878533022E-2    2.298532851314443E-1   -7.639996248256851E-2    7.707610999092691E-1    6.507918056654112E-2
 5.166953673935857E6     7.713482413022333E-1    6.227180933789007E-2    2.307254958632244E-1   -7.262309776839841E-2    2.295307289584841E-1   -7.618642385679350E-2    7.710747465670497E-1    6.494634612211776E-2
 5.206376820769652E6     7.716762563805130E-1    6.205522552754760E-2    2.303530885539124E-1   -7.246335339937923E-2    2.291836757517554E-1   -7.600294498653704E-2    7.713989470087106E-1    6.459669303730452E-2
 5.246100760798878E6     7.720073330570275E-1    6.176451973600217E-2    2.299854069126793E-1   -7.230624869797705E-2    2.288471747493525E-1   -7.584178832184976E-2    7.717379463524582E-1    6.440105965533664E-2
 5.286127789034322E6     7.723282079184581E-1    6.148473401579869E-2    2.296858257911041E-1   -7.204319590294041E-2    2.285108743900070E-1   -7.565176021060772E-2    7.720454971018245E-1    6.414676077120594E-2
 5.326460217997355E6     7.726452272005804E-1    6.267959220092380E-2    2.294587476270787E-1   -7.288417970412182E-2    2.287877600229332E-1   -7.391253175703989E-2    7.726332231188168E-1    6.356720243913806E-2
 5.367100377853584E6     7.729995965523394E-1    6.241555803956281E-2    2.291190920809821E-1   -7.270938345510969E-2    2.284690191480331E-1   -7.371526323766930E-2    7.729932710955630E-1    6.322580481626416E-2
 5.408050616547454E6     7.733239807603346E-1    6.218044786622479E-2    2.288229906374874E-1   -7.247227693101195E-2    2.281122455004988E-1   -7.357557938092982E-2    7.733258094226158E-1    6.310065374867867E-2
 5.449313299937895E6     7.736274884255833E-1    6.184499127472031E-2    2.284998370327153E-1   -7.225432960161011E-2    2.278220056529115E-1   -7.332609565779032E-2    7.736508472092380E-1    6.288559666502784E-2
 5.490890811935049E6     7.739353645913823E-1    6.014825162019230E-2    2.280419043788186E-1   -7.100858314320048E-2    2.269196474292737E-1   -7.460413712320306E-2    7.736848923705768E-1    6.290192231177352E-2
 5.532785554637930E6     7.742129271813329E-1    5.986644057095797E-2    2.277210663175847E-1   -7.078283461983326E-2    2.266046498256412E-1   -7.437117334882402E-2    7.740010207622585E-1    6.282056147956083E-2
 5.574999948473252E6     7.745709077427375E-1    6.103707576053671E-2    2.275350022279322E-1   -7.158993106859918E-2    2.268300377169883E-1   -7.275622909523687E-2    7.746047120729782E-1    6.195645874148340E-2
 5.617536432335250E6     7.748831118809111E-1    6.076996127363398E-2    2.272054540770374E-1   -7.139962835308303E-2    2.265307192832452E-1   -7.254069511828495E-2    7.748978981626046E-1    6.161198549389798E-2
 5.660397463726575E6     7.752227169188128E-1    6.050965199847116E-2    2.269050496326465E-1   -7.117631011365314E-2    2.262388095055247E-1   -7.234933610330641E-2    7.752407710066466E-1    6.150233198245324E-2
 5.703585518900323E6     7.755438131300018E-1    5.876040501255517E-2    2.264162813166841E-1   -7.000709739089080E-2    2.253474436492947E-1   -7.361886617181676E-2    7.753003330186276E-1    6.148551211364074E-2
 5.747103093003022E6     7.758988050446294E-1    5.848601415357003E-2    2.260998043355704E-1   -6.980371418263967E-2    2.250481571019734E-1   -7.340852688629657E-2    7.756254169681857E-1    6.123996581051028E-2
 5.790952700218840E6     7.761524279367910E-1    5.820889243877648E-2    2.257614107385296E-1   -6.963404368346553E-2    2.247257932982470E-1   -7.320462704115314E-2    7.758962739373439E-1    6.081962830550201E-2
 5.835136873914825E6     7.764506767261179E-1    5.944369789601217E-2    2.256206628489250E-1   -7.040002823191832E-2    2.249775880556971E-1   -7.156969960966579E-2    7.765426324939649E-1    6.037268011122918E-2
 5.879658166787256E6     7.767525277027447E-1    5.916093779752238E-2    2.252687585539237E-1   -7.021391998347457E-2    2.246660002153988E-1   -7.134189849152996E-2    7.768176601368598E-1    6.009359961220349E-2
 5.924519151009166E6     7.770358886367976E-1    5.887620840063400E-2    2.249618158545345E-1   -6.999695487729424E-2    2.243990383432798E-1   -7.110984732206435E-2    7.771693178496597E-1    5.996029495549934E-2
 5.969722418378883E6     7.773886666988977E-1    5.862657630982736E-2    2.246712608477533E-1   -6.977993174244208E-2    2.240670368569752E-1   -7.092896097317132E-2    7.774840504873216E-1    5.978142047907133E-2
 6.015270580469812E6     7.777429268964052E-1    5.834645090414430E-2    2.243258411994543E-1   -6.962816301895665E-2    2.237546541030770E-1   -7.072904321869571E-2    7.777313069966073E-1    5.942757681905168E-2
 6.061166268781302E6     7.780260113950062E-1    5.810334513179869E-2    2.239951236778106E-1   -6.945250425333203E-2    2.234440845442392E-1   -7.054291904177681E-2    7.780938800517766E-1    5.902905739580173E-2
 6.107412134890671E6     7.782304946933704E-1    5.767246972469205E-2    2.236999035879798E-1   -6.911810482777306E-2    2.230435817372964E-1   -7.040999524930314E-2    7.783326093029832E-1    5.893643781241644E-2
 6.154010850606443E6     7.785660944127893E-1    5.739781972256178E-2    2.233928939735449E-1   -6.889457127021036E-2    2.227259152319680E-1   -7.018975462076356E-2    7.786540099542314E-1    5.882413744715177E-2
 6.200965108122637E6     7.788680902785132E-1    5.713218257188225E-2    2.230900746074766E-1   -6.871340252574397E-2    2.224200783951831E-1   -7.000394613971903E-2    7.789244560845618E-1    5.854141601804406E-2
 6.248277620174343E6     7.791472641240880E-1    5.682821893692959E-2    2.227573674301893E-1   -6.850921565866246E-2    2.221197213071227E-1   -6.980002457646056E-2    7.792598667728963E-1    5.819934859426201E-2
 6.295951120194497E6     7.794480804423299E-1    5.658655527102303E-2    2.224394947451755E-1   -6.832135526840254E-2    2.218179696870090E-1   -6.962919962492936E-2    7.795306454288112E-1    5.781280606048343E-2
 6.343988362471664E6     7.797897889971614E-1    5.645005990225726E-2    2.221297325695666E-1   -6.823830850557552E-2    2.216287199670952E-1   -6.934270055452228E-2    7.798975977682345E-1    5.754258350465283E-2
 6.392392122309345E6     7.801407636786288E-1    5.618087447424696E-2    2.218556140734197E-1   -6.801822614266959E-2    2.213364828062626E-1   -6.913729770017818E-2    7.801556671311122E-1    5.714731626301681E-2
 6.441165196186168E6     7.804215885489293E-1    5.590159975251396E-2    2.215295334318058E-1   -6.784555387106156E-2    2.210185326320615E-1   -6.896543310977676E-2    7.804920802322094E-1    5.683449393782513E-2
 6.490310401917514E6     7.807026063006243E-1    5.562049043062071E-2    2.212397672025044E-1   -6.764552644251637E-2    2.207308374775741E-1   -6.876139594755090E-2    7.807832048749839E-1    5.665933080925509E-2
 6.539830578818345E6     7.810312644765308E-1    5.536768826615122E-2    2.209258705950882E-1   -6.747168668445326E-2    2.204366511118433E-1   -6.854025163258859E-2    7.810737391617660E-1    5.639858579902309E-2
 6.589728587867169E6     7.812935598769297E-1    5.506817403626585E-2    2.205988094179925E-1   -6.729012668832296E-2    2.201436022232313E-1   -6.834568013248543E-2    7.813804559940445E-1    5.615643137942940E-2
 6.640007311871376E6     7.816129129049283E-1    5.479188587026575E-2    2.203081998782089E-1   -6.711144074461343E-2    2.198412835718632E-1   -6.818594528427978E-2    7.816715387719715E-1    5.575279429230402E-2
 6.690669655633785E6     7.818966033575119E-1    5.452878226920851E-2    2.199977161586936E-1   -6.691931475745744E-2    2.195528265176826E-1   -6.794958310426623E-2    7.819527144347991E-1    5.565903085641036E-2
 6.741718546120445E6     7.821522989739508E-1    5.423990131820491E-2    2.197078655344438E-1   -6.668262386936052E-2    2.192549383810878E-1   -6.778405636731712E-2    7.822625610101344E-1    5.533656853296456E-2
 6.793156932629797E6     7.824466450403026E-1    5.397128660148905E-2    2.194151453841576E-1   -6.651811303399074E-2    2.189541356481174E-1   -6.758276364718670E-2    7.825586521496199E-1    5.507502971342392E-2
 6.844987786962981E6     7.827689494948483E-1    5.369365590902082E-2    2.191182151715427E-1   -6.631169348005728E-2    2.186655333209147E-1   -6.742427168245479E-2    7.828061605548009E-1    5.487919055243811E-2
 6.897214103595586E6     7.829143156493470E-1    5.303567207532170E-2    2.188123059771939E-1   -6.584295488493477E-2    2.181173664755858E-1   -6.748784202215390E-2    7.830099620099858E-1    5.464261446991647E-2
 6.949838899850640E6     7.831871531137312E-1    5.275660983064185E-2    2.185317097164714E-1   -6.564031823289625E-2    2.178115444573041E-1   -6.729471982939572E-2    7.833142630634347E-1    5.434422280925171E-2
 7.002865216072913E6     7.834943510280065E-1    5.164126712739663E-2    2.181482404107996E-1   -6.504192286841197E-2    2.171917841261167E-1   -6.789293287822934E-2    7.834609676295679E-1    5.414878826448270E-2
 7.056296115804635E6     7.838058782959223E-1    5.137642467219543E-2    2.178629500129704E-1   -6.485282050401581E-2    2.169073728024383E-1   -6.772061578723468E-2    7.837357985806346E-1    5.385693939240443E-2
 7.110134685962399E6     7.840958992224267E-1    5.107978830309887E-2    2.175676643530970E-1   -6.465299692972694E-2    2.166139125000322E-1   -6.751797644840414E-2    7.840143191749394E-1    5.352241906272112E-2
 7.164384037015557E6     7.844174003417247E-1    5.077837643141411E-2    2.172767437740438E-1   -6.447897414368858E-2    2.163226893481261E-1   -6.733503416896025E-2    7.843294278724937E-1    5.326397912143019E-2
 7.219047303165923E6     7.847292253090943E-1    5.048143456279497E-2    2.169892632642492E-1   -6.431290140211179E-2    2.160307241160167E-1   -6.714125164104266E-2    7.846102153955844E-1    5.296582386582777E-2
 7.274127642528819E6     7.850133993488950E-1    5.020896799612106E-2    2.166972633477076E-1   -6.411370247809446E-2    2.157452482524972E-1   -6.695103824683868E-2    7.848788277917045E-1    5.268757264861217E-2
 7.329628237315600E6     7.854281186109121E-1    4.945132525382544E-2    2.163252777773340E-1   -6.373627188054715E-2    2.154124121793380E-1   -6.727587598389929E-2    7.851720186778754E-1    5.241966872163237E-2
 7.385552294017412E6     7.856848247890714E-1    4.920596505928775E-2    2.160321817116252E-1   -6.354948547006763E-2    2.151258785843262E-1   -6.708713031103615E-2    7.854415336195772E-1    5.211180193018919E-2
 7.441903043590503E6     7.858809127660544E-1    5.043188029092006E-2    2.159192632148494E-1   -6.418096480444423E-2    2.153655192974220E-1   -6.542619263660056E-2    7.859158064548700E-1    5.176044790476902E-2
 7.498683741642874E6     7.861493334225560E-1    5.015959845102320E-2    2.156429639016359E-1   -6.398995841112853E-2    2.150762084177573E-1   -6.522937837076957E-2    7.861966812306317E-1    5.147311162089134E-2
 7.555897668622349E6     7.863900907088374E-1    4.879948849260302E-2    2.152624327018621E-1   -6.319677008910768E-2    2.143447724291185E-1   -6.604311924606325E-2    7.863473231072423E-1    5.125241643076066E-2
 7.613548130006171E6     7.866578917293647E-1    4.849162999444636E-2    2.149670583749011E-1   -6.299052136306264E-2    2.140463610961980E-1   -6.585284285729452E-2    7.866066746513442E-1    5.097318996317338E-2
 7.671638456491867E6     7.874852181889184E-1    4.713615545443329E-2    2.144558556675032E-1   -6.238052963793992E-2    2.138580422112538E-1   -6.698220677743688E-2    7.868215964000769E-1    5.065810183340981E-2
 7.730172004189732E6     7.877743930514790E-1    4.684647917868867E-2    2.141869989811720E-1   -6.220476204177270E-2    2.135818889218303E-1   -6.680160984956683E-2    7.870732942469630E-1    5.038166695505681E-2
 7.789152154816771E6     7.881152088718101E-1    4.656147904134064E-2    2.139014222332313E-1   -6.200867671822766E-2    2.133114016773841E-1   -6.662734550319051E-2    7.873534233985886E-1    5.009976445773042E-2
 7.848582315891974E6     7.878089056772762E-1    4.731516858125640E-2    2.138492825670161E-1   -6.226949012649462E-2    2.129359792238139E-1   -6.513504970887839E-2    7.877303557269817E-1    4.983400080978916E-2
 7.908465920933248E6     7.881071243662792E-1    4.701553845126973E-2    2.135712155064763E-1   -6.209500106829309E-2    2.126543376113310E-1   -6.494729551218315E-2    7.880186252312514E-1    4.955934875438676E-2
 7.968806429655775E6     7.883782839824813E-1    4.671760650779350E-2    2.133015326418315E-1   -6.190240302709910E-2    2.123879025813438E-1   -6.476792302320378E-2    7.882917669174209E-1    4.926606445115228E-2
 8.029607328171868E6     7.886487495247755E-1    4.644078032119393E-2    2.130298174839702E-1   -6.172554070593751E-2    2.120953103309845E-1   -6.458453499591105E-2    7.885020058799043E-1    4.897895406312717E-2
 8.090872129192449E6     7.889211567532777E-1    4.616029408330974E-2    2.127487622357563E-1   -6.154850523558587E-2    2.118354939423337E-1   -6.440573959866024E-2    7.888142278584883E-1    4.871096288643793E-2
 8.152604372229892E6     7.891838885534412E-1    4.587440264713884E-2    2.124783432469592E-1   -6.136984431394762E-2    2.115561395064527E-1   -6.423278568247137E-2    7.890932382964386E-1    4.839085793782167E-2
 8.214807623802581E6     7.894554515871809E-1    4.557296531057450E-2    2.122078321713097E-1   -6.118707880476308E-2    2.112999453353579E-1   -6.405269884502859E-2    7.893953348266610E-1    4.812752565791081E-2
 8.277485477640945E6     7.897021100288845E-1    4.527286199975938E-2    2.119191164368180E-1   -6.100802541833158E-2    2.110205861283133E-1   -6.388214398282797E-2    7.896203831770761E-1    4.784480627805083E-2
 8.340641554895067E6     7.899957736610936E-1    4.498660314522673E-2    2.116638079773137E-1   -6.082200941925122E-2    2.107453204226658E-1   -6.370714466660958E-2    7.899111039183632E-1    4.756083043198234E-2
 8.404279504343957E6     7.902694957040973E-1    4.467368474670089E-2    2.113980644681445E-1   -6.065032236808059E-2    2.104796979467991E-1   -6.352676166990415E-2    7.901721946613867E-1    4.726508687047433E-2
 8.468403002606256E6     7.904907153603470E-1    4.440459347878317E-2    2.111195129286908E-1   -6.046745632144344E-2    2.102128307552891E-1   -6.335125867618865E-2    7.904745692255537E-1    4.696204889415393E-2
 8.533015754352720E6     7.907301661153331E-1    4.462986067422384E-2    2.109305190531380E-1   -6.054972051580489E-2    2.101090024381348E-1   -6.261885758860559E-2    7.907790911925300E-1    4.666998733262081E-2
 8.598121492520234E6     7.910001225648597E-1    4.433990482936609E-2    2.106516583691970E-1   -6.036582521408078E-2    2.098541772641010E-1   -6.244651306486130E-2    7.910294492024650E-1    4.639049127620223E-2
 8.663723978527457E6     7.919263593966176E-1    4.239319791527627E-2    2.100892572637861E-1   -5.952131667985224E-2    2.095151621327568E-1   -6.420526923284231E-2    7.912162962961904E-1    4.608200588482941E-2
 8.729827002492212E6     7.921930033185501E-1    4.209411621056078E-2    2.098223574965165E-1   -5.934526817134879E-2    2.092405440017771E-1   -6.403299516032525E-2    7.914935061959345E-1    4.580892437020596E-2
 8.796434383450346E6     7.924574578366540E-1    4.177891975469699E-2    2.095560151123491E-1   -5.918138959193650E-2    2.089805549136903E-1   -6.387573555028102E-2    7.917540201510278E-1    4.550491841882496E-2
 8.863549969576446E6     7.922741327086452E-1    4.213428736726373E-2    2.094555004385679E-1   -5.922600848775077E-2    2.085717174611240E-1   -6.285590129338650E-2    7.920088442188924E-1    4.523902959189794E-2
 8.931177638406139E6     7.925296480814693E-1    4.181721023533783E-2    2.091817755744260E-1   -5.905338933236305E-2    2.083163016875400E-1   -6.269833536423339E-2    7.922912383239631E-1    4.495371459187945E-2
 8.999321297060097E6     7.927925516493919E-1    4.151208884004479E-2    2.089242845911071E-1   -5.888203568048353E-2    2.080527116789264E-1   -6.252190046900902E-2    7.925195198715539E-1    4.464907971233002E-2
 9.067984882469844E6     7.930624848615241E-1    4.123365175392833E-2    2.086795812527061E-1   -5.870970900359875E-2    2.077932533167998E-1   -6.235462525532553E-2    7.927863107762015E-1    4.438792376085940E-2
 9.137172361605095E6     7.933141858629131E-1    4.092370877096121E-2    2.084129782200224E-1   -5.853358448179224E-2    2.075256103653746E-1   -6.218496894497030E-2    7.930441827940067E-1    4.408796862602170E-2
 9.206887731702998E6     7.933918966227691E-1    4.201441908053348E-2    2.083442142683653E-1   -5.897038337258174E-2    2.076554813039036E-1   -6.057857947345258E-2    7.934367362302279E-1    4.378098483678045E-2
 9.277135020499127E6     7.936779415997482E-1    4.170903210661573E-2    2.080957699277353E-1   -5.881128240584216E-2    2.074051018762575E-1   -6.041167839325862E-2    7.937161941519471E-1    4.346552028914109E-2
 9.347918286460072E6     7.939131570178080E-1    4.140981942926435E-2    2.078490521071050E-1   -5.863745997907045E-2    2.071451496658380E-1   -6.023915514412041E-2    7.939483721700598E-1    4.319263933977156E-2
 9.419241619017981E6     7.942293691667341E-1    4.110340268066921E-2    2.075875842494883E-1   -5.846527985495131E-2    2.068993030078513E-1   -6.007198943361955E-2    7.942805255034369E-1    4.288489410852754E-2
 9.491109138806809E6     7.944053658728627E-1    4.081454535416007E-2    2.073265417152153E-1   -5.828503298785224E-2    2.066417136567936E-1   -5.989856857955378E-2    7.945109339606852E-1    4.259277876893763E-2
 9.563524997900363E6     7.946618615197225E-1    4.048276026248712E-2    2.070707462408432E-1   -5.811617445486360E-2    2.063842262279925E-1   -5.972756090792688E-2    7.947404454022677E-1    4.227914910804510E-2
 9.636493380052259E6     7.949052789282188E-1    4.020764170385194E-2    2.068103103286906E-1   -5.794021999051904E-2    2.061354542710677E-1   -5.956195265681100E-2    7.950171873466322E-1    4.198857912905463E-2
 9.710018500937525E6     7.951668231105465E-1    3.989992080282598E-2    2.065658828956352E-1   -5.778201493328453E-2    2.058757539236659E-1   -5.939557826518239E-2    7.952508808087754E-1    4.168995577208608E-2
 9.784104608396223E6     7.954750712650229E-1    3.865821188673851E-2    2.062083042196647E-1   -5.717362710395071E-2    2.052878438855125E-1   -6.013881324037926E-2    7.954478980014060E-1    4.143796448759271E-2
 9.858755982678859E6     7.957691176580368E-1    3.835966934638498E-2    2.059637537811610E-1   -5.700734767529357E-2    2.050346674178908E-1   -5.997965308666482E-2    7.956732980070890E-1    4.111899096599540E-2
 9.933976936693633E6     7.960040148412321E-1    3.804652059200054E-2    2.057106922602524E-1   -5.683470721063614E-2    2.047921891379924E-1   -5.981445253827953E-2    7.959543080783069E-1    4.084291597180579E-2
 1.000977181625571E7     7.962605662964845E-1    3.771538326998408E-2    2.054587883248569E-1   -5.667535747984674E-2    2.045465013334140E-1   -5.965039350495231E-2    7.962113524397612E-1    4.055236088893743E-2
 1.008614500033817E7     7.964937488912964E-1    3.742705496354368E-2    2.052073675107743E-1   -5.649750567324084E-2    2.042955849758957E-1   -5.948914738522540E-2    7.964484294868758E-1    4.024176754760556E-2
 1.016310090132507E7     7.967704332662141E-1    3.712558055408054E-2    2.049727510697014E-1   -5.634566553330587E-2    2.040583419876468E-1   -5.932646148318865E-2    7.966752607685617E-1    3.994420168281435E-2
 1.024064396526634E7     7.968785676514964E-1    3.774339045770316E-2    2.048361214549102E-1   -5.658887662694072E-2    2.041489135327999E-1   -5.824014621926239E-2    7.969726322815841E-1    3.962644605620826E-2
 1.031877867213467E7     7.971774767696086E-1    3.743234049499376E-2    2.045870883207215E-1   -5.641990787134581E-2    2.039076168848033E-1   -5.806786306198432E-2    7.972364296258480E-1    3.931737244256066E-2
 1.039750953608436E7     7.974522555826993E-1    3.714831906833357E-2    2.043416209153787E-1   -5.625733080172105E-2    2.036664592109744E-1   -5.790430487539578E-2    7.975062328088267E-1    3.904082050841759E-2
 1.047684110571204E7     7.976700056385505E-1    3.683232254855296E-2    2.041055631742328E-1   -5.609170270057318E-2    2.034263813574319E-1   -5.774104440186174E-2    7.977199784167930E-1    3.871235289881356E-2
 1.055677796431950E7     7.979132235174936E-1    3.653126767687664E-2    2.038676762479866E-1   -5.593021835015755E-2    2.031827877146157E-1   -5.757850352641755E-2    7.979544146696869E-1    3.843438540242246E-2
 1.063732473017859E7     7.988353319120828E-1    3.409688185952310E-2    2.032687700264011E-1   -5.497813163148561E-2    2.027086282274554E-1   -5.982253774278584E-2    7.981289813630857E-1    3.808492158554472E-2
 1.071848605679777E7     7.990710922795491E-1    3.376945652251483E-2    2.030241686691792E-1   -5.482339439749691E-2    2.024694562510617E-1   -5.967023241949995E-2    7.983352955892885E-1    3.778423192860269E-2
 1.080026663319129E7     7.988770590715800E-1    3.412506748877819E-2    2.029439683255247E-1   -5.485308432102946E-2    2.020725958582201E-1   -5.861933879454612E-2    7.986478135223687E-1    3.751873809943794E-2
 1.088267118414987E7     7.991507384972588E-1    3.380514118056033E-2    2.026997914489574E-1   -5.469070059687871E-2    2.018425767989883E-1   -5.845291320787444E-2    7.988843150003326E-1    3.722935157290377E-2
 1.096570447051370E7     7.998348664057685E-1    3.280194446417021E-2    2.023084144222162E-1   -5.433915035625713E-2    2.017508612310038E-1   -5.920187051724310E-2    7.990829817888898E-1    3.686619312994302E-2
 1.104937128944762E7     8.000670067488085E-1    3.250112809071751E-2    2.020628158170144E-1   -5.416868456952078E-2    2.015178037571838E-1   -5.905370208503466E-2    7.993559247327323E-1    3.656521855331209E-2
 1.113367647471805E7     8.002953871246685E-1    3.218731227248548E-2    2.018289907362861E-1   -5.401238580934417E-2    2.012816594789443E-1   -5.890317707702919E-2    7.995782009755795E-1    3.626653823114571E-2
 1.121862489697252E7     8.000001145711736E-1    3.461747194052042E-2    2.019842817061837E-1   -5.502779744537349E-2    2.017157471374126E-1   -5.584032113678841E-2    8.000284212466143E-1    3.588821813958569E-2
 1.130422146402085E7     8.002558698822531E-1    3.433709467259462E-2    2.017500080041605E-1   -5.486292408353820E-2    2.014696842426427E-1   -5.568601742398478E-2    8.002296397256423E-1    3.555678563531846E-2
 1.139047112111875E7     8.004920546342800E-1    3.400423133656018E-2    2.015228013819919E-1   -5.469901229584613E-2    2.012477104116819E-1   -5.551541108418245E-2    8.004803379212290E-1    3.526721302987199E-2
 1.147737885125368E7     8.007273715935898E-1    3.368861165040628E-2    2.012945478401475E-1   -5.454637489207891E-2    2.010098951437174E-1   -5.536164302052331E-2    8.007403762580078E-1    3.495708886983837E-2
 1.156494967543242E7     8.009538196083306E-1    3.335653103639670E-2    2.010670904168840E-1   -5.439022714167564E-2    2.007782003389368E-1   -5.519816580446446E-2    8.009368294700239E-1    3.465337427330085E-2
 1.165318865297152E7     8.011020055815132E-1    3.288103146333583E-2    2.008297107972275E-1   -5.409770411434624E-2    2.004327020314151E-1   -5.511998800481600E-2    8.011149255912107E-1    3.438873048957120E-2
 1.174210088178934E7     8.019682817945418E-1    2.995652063643068E-2    2.002062647960544E-1   -5.290835970118817E-2    1.996600382566253E-1   -5.782240478739683E-2    8.012369351392299E-1    3.411868930567116E-2
 1.183169149870061E7     8.022096975680114E-1    2.959729870624914E-2    1.999730715444130E-1   -5.276553307107185E-2    1.994486113424619E-1   -5.768380953622871E-2    8.014977923220954E-1    3.380006640089070E-2
 1.192196567971337E7     8.024457924443933E-1    2.927969944662476E-2    1.997418612949863E-1   -5.260663144358930E-2    1.992133680643290E-1   -5.753914623112764E-2    8.017297080041387E-1    3.349115353543806E-2
 1.201292864032780E7     8.026952584738902E-1    2.896742630386512E-2    1.995117071138137E-1   -5.245261381278070E-2    1.989901715262792E-1   -5.738250227167038E-2    8.019470696268658E-1    3.318354206141676E-2
 1.210458563583766E7     8.029264472753218E-1    2.864244893030155E-2    1.992834076129750E-1   -5.229331414183142E-2    1.987610773612064E-1   -5.723902800978604E-2    8.021705124061875E-1    3.284121717249572E-2
 1.219694196163385E7     8.031531024322317E-1    2.831419117391796E-2    1.990574476365370E-1   -5.214159791946583E-2    1.985277123328606E-1   -5.708873408019488E-2    8.023610253011837E-1    3.250667838859925E-2
 1.229000295351040E7     8.026491470895604E-1    2.977974530821198E-2    1.991775025189394E-1   -5.254983940360471E-2    1.983596732309132E-1   -5.476979847331901E-2    8.026463237639058E-1    3.224431549021323E-2
 1.238377398797275E7     8.029034726831096E-1    2.943896243560771E-2    1.989542614613368E-1   -5.239693123237175E-2    1.981376018425968E-1   -5.462171056856754E-2    8.028881500461321E-1    3.190275913385354E-2
 1.247826048254829E7     8.030982066397704E-1    2.910811819573176E-2    1.987381003379418E-1   -5.224261127021833E-2    1.979158662490355E-1   -5.445677426393464E-2    8.031185045517837E-1    3.161579053587587E-2
 1.257346789609938E7     8.035916874978655E-1    2.991576591932472E-2    1.985905083216493E-1   -5.277006103869064E-2    1.983926184902520E-1   -5.343269853073761E-2    8.034192792044218E-1    3.115413980889680E-2
 1.266940172913885E7     8.038069133395545E-1    2.958833298028153E-2    1.983732337934851E-1   -5.261905863466530E-2    1.981786619749785E-1   -5.326913321865739E-2    8.036581960149127E-1    3.082615233532083E-2
 1.276606752414753E7     8.040230669432192E-1    2.927380145369267E-2    1.981487123999123E-1   -5.245330790334534E-2    1.979565317174724E-1   -5.312282614870853E-2    8.039065509360039E-1    3.050438991847927E-2
 1.286347086589479E7     8.042319202748556E-1    2.893070818617732E-2    1.979226563184902E-1   -5.230869489627327E-2    1.977353851227335E-1   -5.296845638024646E-2    8.040845207818201E-1    3.013423139269192E-2
 1.296161738176090E7     8.044614315192220E-1    2.859150429237625E-2    1.977116555264488E-1   -5.216072798211027E-2    1.975182566912463E-1   -5.282096156696053E-2    8.043029822181406E-1    2.982476418602964E-2
 1.306051274206230E7     8.046784557863210E-1    2.827151250933249E-2    1.974806110302606E-1   -5.200310383926079E-2    1.973033058507939E-1   -5.266683848404441E-2    8.045520288662887E-1    2.951333151692442E-2
 1.316016266037924E7     8.049106131404609E-1    2.795679821773359E-2    1.972699637748429E-1   -5.184406324957473E-2    1.970825602423149E-1   -5.251088577434643E-2    8.047451621540058E-1    2.919622779247548E-2
 1.326057289388563E7     8.050292720162265E-1    2.731264860815419E-2    1.970548553217610E-1   -5.147463415231546E-2    1.966638450940490E-1   -5.251502975772535E-2    8.049706243644854E-1    2.896050380543366E-2
 1.336174924368203E7     8.052051171876976E-1    2.698088503517183E-2    1.968472336800803E-1   -5.131888732106127E-2    1.964395423635645E-1   -5.235717950148794E-2    8.051546346636311E-1    2.861731138154576E-2
 1.346369755513046E7     8.055446603957589E-1    2.693164732469550E-2    1.966225503674897E-1   -5.139726245872776E-2    1.964449125580249E-1   -5.205723342946159E-2    8.053852828052814E-1    2.822929417696778E-2
 1.356642371819227E7     8.057528314705109E-1    2.657686183622080E-2    1.964086586789034E-1   -5.125003360146513E-2    1.962368099180343E-1   -5.191480636137422E-2    8.056065733831925E-1    2.790044239022233E-2
 1.366993366776852E7     8.060235046243087E-1    2.623185434529187E-2    1.962067548923331E-1   -5.110837976786613E-2    1.960179759856730E-1   -5.176124570233341E-2    8.058212870092724E-1    2.756115600883220E-2
 1.377423338404255E7     8.062173042739351E-1    2.593411301019741E-2    1.959927800493762E-1   -5.094805491301409E-2    1.958029506266787E-1   -5.161526292023948E-2    8.060299060089736E-1    2.722985429973472E-2
 1.387932889282586E7     8.062805004064407E-1    2.381014446089190E-2    1.955931837850810E-1   -4.993876683332184E-2    1.947099771410297E-1   -5.304312637600159E-2    8.062065750532305E-1    2.704757198789591E-2
 1.398522626590596E7     8.071855949963234E-1    2.224893530214688E-2    1.951295793561673E-1   -4.948819283942810E-2    1.946348625808662E-1   -5.448390351298944E-2    8.063909160005751E-1    2.666085500751586E-2
 1.409193162139728E7     8.074143509669252E-1    2.188352060787471E-2    1.949253772591535E-1   -4.934778029283980E-2    1.944217064865799E-1   -5.435381071411691E-2    8.066105996851188E-1    2.633568124350253E-2
 1.419945112409473E7     8.069678866852219E-1    2.274571080649300E-2    1.949719985107715E-1   -4.950990188917444E-2    1.940751481030989E-1   -5.262888232044333E-2    8.068617543757783E-1    2.605726626295216E-2
 1.430779098582953E7     8.071427248249985E-1    2.243032880166107E-2    1.947589374647319E-1   -4.935324168629860E-2    1.938656824492406E-1   -5.248352151596935E-2    8.070481013876531E-1    2.570195838676097E-2
 1.441695746582855E7     8.073838038720135E-1    2.205301186525332E-2    1.945489508486020E-1   -4.922143123757553E-2    1.936559852409360E-1   -5.233995388241824E-2    8.072820678563652E-1    2.537025633658588E-2
 1.452695687107559E7     8.076074515721465E-1    2.170997752335157E-2    1.943441718100643E-1   -4.908090953662148E-2    1.934564545331639E-1   -5.220332713628002E-2    8.074936110493568E-1    2.500803702803903E-2
 1.463779555667585E7     8.078046656882423E-1    2.138198430222457E-2    1.941398139055336E-1   -4.893796220019189E-2    1.932485706763231E-1   -5.206417253458512E-2    8.077101040798007E-1    2.468935178549533E-2
 1.474947992622320E7     8.080149027703981E-1    2.104913630238281E-2    1.939304639166029E-1   -4.879510816804918E-2    1.930453652718637E-1   -5.192082271725844E-2    8.078976117022640E-1    2.435008789825713E-2
 1.486201643216998E7     8.081492527547147E-1    2.167603402701496E-2    1.938750759637410E-1   -4.899284188322769E-2    1.931965622134666E-1   -5.072986981973265E-2    8.081177647682618E-1    2.400575005028036E-2
 1.497541157619987E7     8.083953946707386E-1    2.030662757897400E-2    1.935276604918285E-1   -4.850874901898188E-2    1.926245067059036E-1   -5.163825172501639E-2    8.082992413162315E-1    2.364565818868420E-2
 1.508967190960350E7     8.086005097467724E-1    1.995153890492672E-2    1.933234667750578E-1   -4.836578546548571E-2    1.924334661346057E-1   -5.149915565800973E-2    8.085362863765252E-1    2.330352331036626E-2
 1.520480403365694E7     8.088213881528895E-1    1.958810283503224E-2    1.931149137806693E-1   -4.822180309321998E-2    1.922247087290875E-1   -5.136630514951336E-2    8.087309745046600E-1    2.298711027165690E-2
 1.532081460000315E7     8.089953917949042E-1    1.923244163258452E-2    1.929089282894514E-1   -4.809078886162303E-2    1.920185746217480E-1   -5.123122796373241E-2    8.089129744913751E-1    2.259757514003663E-2
 1.543771031103615E7     8.092422436112838E-1    1.888368639319381E-2    1.927180284259983E-1   -4.794530122232553E-2    1.918209948473103E-1   -5.109085726164355E-2    8.091212184379224E-1    2.225775378295006E-2
 1.555549792028828E7     8.094269859909755E-1    1.850991384582543E-2    1.925170574333417E-1   -4.781238187766824E-2    1.916274771593170E-1   -5.095838032739385E-2    8.093665008545913E-1    2.191745438298042E-2
 1.567418423282054E7     8.095550669103441E-1    1.916556997233905E-2    1.924713634655106E-1   -4.800972561591228E-2    1.917899228372353E-1   -4.975479105491487E-2    8.095350859882389E-1    2.156165847226484E-2
 1.579377610561541E7     8.097594098402512E-1    1.880477734877017E-2    1.922685633903609E-1   -4.787144840490053E-2    1.915860802147552E-1   -4.960597446824833E-2    8.097205851327930E-1    2.120155261591633E-2
 1.591428044797338E7     8.099659561677405E-1    1.844871903167688E-2    1.920793351858876E-1   -4.773577218481388E-2    1.913858020630564E-1   -4.947678045813624E-2    8.099037108301361E-1    2.083880741668532E-2
 1.603570422191187E7     8.101398960637781E-1    1.807730367667844E-2    1.918720372268497E-1   -4.759681825650257E-2    1.911915895243044E-1   -4.933642363273305E-2    8.101003482920210E-1    2.049159446494806E-2
 1.615805444256752E7     8.103307948347327E-1    1.771422507338202E-2    1.916725909681167E-1   -4.745645003364177E-2    1.909987586726538E-1   -4.919516045938169E-2    8.103244416081284E-1    2.016150674892398E-2
 1.628133817860163E7     8.105190892090346E-1    1.736654890106725E-2    1.914799544702796E-1   -4.731894764951056E-2    1.908085253158067E-1   -4.906649533912445E-2    8.105633912143223E-1    1.980176331329699E-2
 1.640556255260818E7     8.107105156661841E-1    1.661314772151149E-2    1.912345636771092E-1   -4.703264846349527E-2    1.904238004496975E-1   -4.931677094911745E-2    8.107371597164575E-1    1.945154083030932E-2
 1.653073474152580E7     8.109214798968712E-1    1.621143398606049E-2    1.910506185828682E-1   -4.690430838809233E-2    1.902392421929386E-1   -4.917135676643566E-2    8.109180176814875E-1    1.907261669208095E-2
 1.665686197705204E7     8.111308514525141E-1    1.586218797411266E-2    1.908587224407979E-1   -4.676524774907388E-2    1.900499824087454E-1   -4.904010419606627E-2    8.111000348771839E-1    1.871544897770062E-2
 1.678395154606132E7     8.113242968649120E-1    1.549423715781326E-2    1.906641024222969E-1   -4.662837975276504E-2    1.898508519319393E-1   -4.891200536759979E-2    8.112796138541483E-1    1.836808769754246E-2
 1.691201079102603E7     8.116297266185869E-1    1.447363814067103E-2    1.903845402811567E-1   -4.631471271958363E-2    1.894842619030372E-1   -4.947549095700363E-2    8.114833797785822E-1    1.798800480424442E-2
 1.704104711044038E7     8.118055398982966E-1    1.409948125638419E-2    1.901883108838020E-1   -4.619188390318289E-2    1.892924748171425E-1   -4.934129888295242E-2    8.116600722951519E-1    1.761542290347778E-2
 1.717106795924834E7     8.120049445316126E-1    1.372057068909306E-2    1.900028158077293E-1   -4.605092422578467E-2    1.891085855183953E-1   -4.920637788043254E-2    8.118822515171356E-1    1.728510880234220E-2
 1.730208084927390E7     8.129080604479613E-1    1.211547995873962E-2    1.895683831542119E-1   -4.566162810155761E-2    1.890907294501471E-1   -5.075436942810781E-2    8.120548365037659E-1    1.686634720655170E-2
 1.743409334965526E7     8.123825415134620E-1    1.295903952358236E-2    1.896279005077833E-1   -4.578804502244788E-2    1.887298264866221E-1   -4.896948337619560E-2    8.122550688864723E-1    1.654769272076379E-2
 1.756711308728221E7     8.126131796213808E-1    1.257735985549578E-2    1.894436465885519E-1   -4.566253731352230E-2    1.885400685742588E-1   -4.883520522965925E-2    8.124290243380826E-1    1.617157237089161E-2
 1.770114774723655E7     8.128020501595306E-1    1.219109934239175E-2    1.892637588951705E-1   -4.553500508502280E-2    1.883613059998907E-1   -4.870070182445799E-2    8.126345379301069E-1    1.581271826081716E-2
 1.783620507323623E7     8.130676972066627E-1    1.365240388924444E-2    1.893042930542511E-1   -4.617210271270036E-2    1.890899822410249E-1   -4.685323863931865E-2    8.128442037204170E-1    1.535727824844211E-2
 1.797229286808272E7     8.131409871656631E-1    1.297107258154556E-2    1.891000886044887E-1   -4.583347490188321E-2    1.886782805961985E-1   -4.689313945160885E-2    8.130328558439643E-1    1.505494278852162E-2
 1.810941899411174E7     8.134135622352693E-1    1.290668825417628E-2    1.889323890525698E-1   -4.591414032691579E-2    1.887226594375366E-1   -4.658637585146207E-2    8.132149911412337E-1    1.461527706245256E-2
 1.824759137364766E7     8.136305949329780E-1    1.250483138697928E-2    1.887507081390464E-1   -4.578829684616199E-2    1.885350051474209E-1   -4.646225650627452E-2    8.133814229971553E-1    1.420770588651005E-2
 1.838681798946100E7     8.138008838272890E-1    1.212773243708160E-2    1.885701252195822E-1   -4.564879573300282E-2    1.883552529533801E-1   -4.632802725475376E-2    8.135702669797724E-1    1.387470077511136E-2
 1.852710688522972E7     8.140813247340385E-1    9.343644867744264E-3    1.880653669008265E-1   -4.465837406765144E-2    1.872352427171633E-1   -4.859572376936815E-2    8.137533930537501E-1    1.355986090657609E-2
 1.866846616600409E7     8.140476668064938E-1    9.491717445070335E-3    1.879770599435329E-1   -4.464367479420948E-2    1.870803651571059E-1   -4.781017930831447E-2    8.139114203351044E-1    1.317676439383194E-2
 1.881090399867451E7     8.142613083575623E-1    1.080350234394531E-2    1.880169270884677E-1   -4.516617456376837E-2    1.877198363948811E-1   -4.601068335884229E-2    8.141170589867380E-1    1.274010811244124E-2
 1.895442861244394E7     8.144284772462765E-1    1.040993483132760E-2    1.878405641483489E-1   -4.503507051873583E-2    1.875448715368960E-1   -4.588310463684584E-2    8.142776371315620E-1    1.235231797798459E-2
 1.909904829930285E7     8.146276140256926E-1    1.002996731449772E-2    1.876655473561726E-1   -4.491025700869344E-2    1.873684077820728E-1   -4.575092099744693E-2    8.144808242835841E-1    1.200122738707171E-2
 1.924477141450845E7     8.148191793191464E-1    9.651258382667767E-3    1.874955986680036E-1   -4.479175625688762E-2    1.871984160116220E-1   -4.561798968987503E-2    8.146651623250415E-1    1.161601093259962E-2
 1.939160637706759E7     8.149684319592242E-1    9.251601295634640E-3    1.873129306383201E-1   -4.466131912267740E-2    1.870203259204174E-1   -4.549159206441155E-2    8.148384366546326E-1    1.122222578828469E-2
 1.953956167022271E7     8.151446702241852E-1    8.841042057457707E-3    1.871428963611650E-1   -4.453466115413453E-2    1.868471076039153E-1   -4.537262805922922E-2    8.150115675199322E-1    1.084045174636435E-2
 1.968864584194249E7     8.152861927716128E-1    8.281348050847716E-3    1.869539697796304E-1   -4.430336580443779E-2    1.865382535215428E-1   -4.535817630894147E-2    8.151583230358880E-1    1.045439628980561E-2
 1.983886750541528E7     8.156787267008512E-1    5.780548761327790E-3    1.864722151084425E-1   -4.354873622144775E-2    1.856390638726256E-1   -4.748995866888120E-2    8.153239593523506E-1    1.009104591426988E-2
 1.999023533954688E7     8.158565445379301E-1    5.375830089343064E-3    1.862961208152901E-1   -4.343697983394278E-2    1.854629105108674E-1   -4.738194321754127E-2    8.155090323628639E-1    9.679680331025887E-3
 2.014275808946211E7     8.160244792258096E-1    4.976847322545542E-3    1.861244727856989E-1   -4.330939771877778E-2    1.852874523827518E-1   -4.726005192913768E-2    8.156727121775448E-1    9.286199726295878E-3
 2.029644456700960E7     8.161957493830804E-1    4.544115835245889E-3    1.859553636163724E-1   -4.319301449194330E-2    1.851193696653377E-1   -4.714257338978253E-2    8.158348778215815E-1    8.910775039763329E-3
 2.045130365127147E7     8.163689681094307E-1    4.121899909701753E-3    1.857904520492666E-1   -4.307297068414373E-2    1.849504073364296E-1   -4.702109029714604E-2    8.160170525591068E-1    8.510484031458668E-3
 2.060734428907584E7     8.165793910137948E-1    3.748719990312769E-3    1.856205539014082E-1   -4.296059499010593E-2    1.847769134482796E-1   -4.690623422187291E-2    8.161593717764589E-1    8.111908125666539E-3
 2.076457549551392E7     8.167161856508899E-1    3.314419031039324E-3    1.854450836133624E-1   -4.283939448121400E-2    1.846087736882943E-1   -4.678343701741229E-2    8.163147134868124E-1    7.710550763090414E-3
 2.092300635446098E7     8.168593590259978E-1    2.877840303997987E-3    1.852753252543419E-1   -4.272157112700992E-2    1.844406647541915E-1   -4.666899100407817E-2    8.164937171203607E-1    7.295505507844122E-3
 2.108264601910070E7     8.170317672096020E-1    2.483801391929652E-3    1.851116956278056E-1   -4.259630716383341E-2    1.842754409406584E-1   -4.655851425147171E-2    8.166794229212330E-1    6.901882430346036E-3
 2.124350371245464E7     8.170861287638987E-1    4.456115508021424E-3    1.852813765986313E-1   -4.327883894086882E-2    1.850668782563102E-1   -4.396209210741517E-2    8.168426112316287E-1    6.424697394557191E-3
 2.140558872791451E7     8.172528247473355E-1    4.048665022193085E-3    1.851162735566406E-1   -4.316988838413710E-2    1.849043380330995E-1   -4.383186991874938E-2    8.170289067102308E-1    6.040348618895238E-3
 2.156891042977939E7     8.172043198405697E-1    2.407558609945435E-3    1.848018767848598E-1   -4.249791348119837E-2    1.839899570934765E-1   -4.477620052266113E-2    8.171672291828819E-1    5.715940953233458E-3
 2.173347825379676E7     8.173626133470222E-1    1.967356868598428E-3    1.846376083930971E-1   -4.238426558391356E-2    1.838291170781927E-1   -4.466711558395396E-2    8.173566209547076E-1    5.288793131745337E-3
 2.189930170770744E7     8.175165350427562E-1    1.531393962735173E-3    1.844698614931369E-1   -4.226707257959052E-2    1.836605904729514E-1   -4.455632444337147E-2    8.175098117193804E-1    4.888937235935675E-3
 2.206639037179505E7     8.176706581285873E-1    1.110290017647018E-3    1.843136943583961E-1   -4.215035278825444E-2    1.834954036617740E-1   -4.443466055449671E-2    8.176503989720406E-1    4.486688553613997E-3
 2.223475389943947E7     8.180599255220086E-1    1.928562371521105E-3    1.843075520545794E-1   -4.257962140237987E-2    1.840869108349225E-1   -4.326013741227064E-2    8.178348333467759E-1    3.994178216887908E-3
 2.240440201767448E7     8.182293230846749E-1    1.485023036730924E-3    1.841468113612181E-1   -4.247089947075316E-2    1.839236495858002E-1   -4.313868609558861E-2    8.179843052445189E-1    3.569890351106778E-3
 2.257534452774993E7     8.183632448713647E-1    1.049829205380992E-3    1.839859624575752E-1   -4.235026437070788E-2    1.837661234211432E-1   -4.302073924335162E-2    8.181285611184440E-1    3.148320711438900E-3
 2.274759130569773E7     8.185206630396996E-1    6.121474289478572E-4    1.838300284321895E-1   -4.224054332228443E-2    1.836020459586537E-1   -4.291487977779340E-2    8.182815270547245E-1    2.717640214332939E-3
 2.292115230290256E7     8.186712154913123E-1    1.849610834276346E-4    1.836757329905768E-1   -4.212210429523909E-2    1.834510472364061E-1   -4.279519827727397E-2    8.184572542563398E-1    2.300802067436869E-3
 2.309603754667697E7     8.188209463029482E-1   -2.555532577706807E-4    1.835182715098174E-1   -4.201470540486103E-2    1.832908067993226E-1   -4.268063507134301E-2    8.186006314160610E-1    1.881067109839766E-3
 2.327225714084021E7     8.189586245419234E-1   -7.187871623987933E-4    1.833567466091250E-1   -4.190473489343404E-2    1.831297780844083E-1   -4.256806642068638E-2    8.187577768741098E-1    1.448548420640163E-3
 2.344982126630262E7     8.189145736969782E-1   -2.000446710814914E-3    1.831028877913732E-1   -4.137725420998123E-2    1.824190255546219E-1   -4.311225473083451E-2    8.189458500537633E-1    1.124098146638156E-3
 2.362874018165328E7     8.190591652308534E-1   -2.453406630891358E-3    1.829422767954028E-1   -4.126457761294885E-2    1.822466871913794E-1   -4.300773783578642E-2    8.190562095317191E-1    6.715742582943654E-4
 2.380902422375290E7     8.193259535985117E-1   -3.918395411629948E-3    1.826354324679773E-1   -4.091286420320973E-2    1.817288928855679E-1   -4.406035283324947E-2    8.192251453667645E-1    2.429816117149348E-4
 2.399068380833123E7     8.194841772063616E-1   -4.377064666017180E-3    1.824774336148056E-1   -4.080987525570803E-2    1.815672208840654E-1   -4.396395109374391E-2    8.193711627699254E-1   -2.032857172688530E-4
 2.417372943058824E7     8.195209868194098E-1   -3.777724989149174E-3    1.824830183518402E-1   -4.093789409152530E-2    1.817829810991598E-1   -4.267730867255722E-2    8.195419468533052E-1   -6.049215909944668E-4
 2.435817166580120E7     8.196585309934448E-1   -4.218641636626449E-3    1.823265923933292E-1   -4.083617521732143E-2    1.816255635170399E-1   -4.256431028018264E-2    8.196747253301299E-1   -1.055591053239254E-3
 2.454402116993507E7     8.199244376533593E-1   -5.724187431668605E-3    1.820239374575976E-1   -4.049514123139942E-2    1.811086425050023E-1   -4.363950857010922E-2    8.198152814257851E-1   -1.509498445613859E-3
 2.473128868025839E7     8.200736900062791E-1   -6.150512176162631E-3    1.818759607806766E-1   -4.038239380823931E-2    1.809547593005428E-1   -4.353975734105307E-2    8.199542896040053E-1   -1.930866002096656E-3
 2.491998501596375E7     8.202115280256543E-1   -6.650831084638575E-3    1.817215926491115E-1   -4.028777569730084E-2    1.807995939831102E-1   -4.343464352628590E-2    8.201130109065258E-1   -2.363922367152319E-3
 2.511012107879237E7     8.204185239036289E-1   -5.223890027199889E-3    1.818207806166738E-1   -4.081300124982786E-2    1.815808699234504E-1   -4.147786694799815E-2    8.202026575081240E-1   -2.914154078184285E-3
 2.530170785366461E7     8.205517044312945E-1   -5.686722948546359E-3    1.816732643954844E-1   -4.070420988382800E-2    1.814335188968743E-1   -4.136571054220522E-2    8.203526199558118E-1   -3.356164621517880E-3
 2.549475640931404E7     8.206995554357199E-1   -6.147899828108233E-3    1.815169865322710E-1   -4.059770626531323E-2    1.812773149698130E-1   -4.125110705380505E-2    8.204774842791606E-1   -3.789835850285859E-3
 2.568927789892715E7     8.208483861294565E-1   -6.624942073638647E-3    1.813720119487166E-1   -4.049242418083096E-2    1.811224812091441E-1   -4.115429326929539E-2    8.206283865670420E-1   -4.260861248018094E-3
 2.588528356078789E7     8.208710024604835E-1   -7.379073278656277E-3    1.811886877810681E-1   -4.019249339532582E-2    1.807387282496491E-1   -4.124143657042777E-2    8.207879159844177E-1   -4.636585716278910E-3
 2.608278471892660E7     8.211181421924091E-1   -7.552819440059326E-3    1.810802010172824E-1   -4.027395553296344E-2    1.808301944462584E-1   -4.093061438175522E-2    8.208985992503856E-1   -5.159372840752741E-3
 2.628179278377446E7     8.212631561624927E-1   -7.997136596132848E-3    1.809413719712430E-1   -4.016651287634541E-2    1.806902627406829E-1   -4.081984702106207E-2    8.210243010846016E-1   -5.622530770445199E-3
 2.648231925282269E7     8.212004749619842E-1   -9.333055715036672E-3    1.806894692485678E-1   -3.966921826170991E-2    1.799819779534735E-1   -4.140101076493526E-2    8.211985653799728E-1   -5.966762163766045E-3
 2.668437571128672E7     8.213334859530487E-1   -9.793284602556393E-3    1.805507087659231E-1   -3.957195119799904E-2    1.798362580219152E-1   -4.129718642108130E-2    8.213317562286755E-1   -6.442022368773157E-3
 2.688797383277575E7     8.214721561734379E-1   -1.028535730905365E-2    1.804073583928093E-1   -3.947553228182057E-2    1.796939687856064E-1   -4.120321092372204E-2    8.214544608764036E-1   -6.924742125157307E-3
 2.709312537996687E7     8.216816049179112E-1   -1.022464894385168E-2    1.803424721561493E-1   -3.956756418856040E-2    1.798851895033492E-1   -4.062165168387986E-2    8.215946180946507E-1   -7.423520617406294E-3
 2.729984220528475E7     8.218210933904835E-1   -1.069351442893320E-2    1.802041717074343E-1   -3.947818301898279E-2    1.797446259949868E-1   -4.052304121267752E-2    8.217243663047464E-1   -7.885448203436497E-3
 2.750813625158667E7     8.219667718392276E-1   -1.117811970932791E-2    1.800612631375453E-1   -3.937854043442846E-2    1.796034194369253E-1   -4.042432293178518E-2    8.218571606426275E-1   -8.337978620619729E-3
 2.771801955285188E7     8.223262949319089E-1   -1.377177785833255E-2    1.796298638049018E-1   -3.883546454963042E-2    1.787460227339398E-1   -4.272190644849971E-2    8.220231090752502E-1   -8.802533651499200E-3
 2.792950423487763E7     8.221162592869034E-1   -1.310218168995984E-2    1.796519866218877E-1   -3.890801197090804E-2    1.788020521920657E-1   -4.114615726573922E-2    8.221363096934891E-1   -9.254181277005134E-3
 2.814260251597910E7     8.222536395581248E-1   -1.359334603386505E-2    1.795129574089036E-1   -3.880878928562616E-2    1.786592781473557E-1   -4.105371100536714E-2    8.222472981298268E-1   -9.752894433648018E-3
 2.835732670769557E7     8.223895475904812E-1   -1.411886674714080E-2    1.793739149957692E-1   -3.872926456277931E-2    1.785226712253347E-1   -4.096068397049918E-2    8.223930510781774E-1   -1.020535783510361E-2
 2.857368921550186E7     8.226993783801887E-1   -1.337676862489222E-2    1.794072315987183E-1   -3.910544872940275E-2    1.791493830084230E-1   -3.973965452755846E-2    8.224833033102135E-1   -1.077580119118252E-2
 2.879170253952448E7     8.228137319950145E-1   -1.388802402265267E-2    1.792789307397891E-1   -3.900256818560766E-2    1.790064104845785E-1   -3.965229639486807E-2    8.225974898478544E-1   -1.125807998904666E-2
 2.901137927526460E7     8.229570798828086E-1   -1.436769970802579E-2    1.791398324004018E-1   -3.891466952183704E-2    1.788737238368806E-1   -3.955495489990979E-2    8.227298770617337E-1   -1.174674060036960E-2
 2.923273211432508E7     8.230641920306745E-1   -1.490246878888645E-2    1.789998099547770E-1   -3.882041489528255E-2    1.787320484152815E-1   -3.946953299399356E-2    8.228320176806221E-1   -1.224152822406299E-2
 2.945577384514398E7     8.231852951998614E-1   -1.542297339578930E-2    1.788682223701525E-1   -3.873173093900820E-2    1.786014415785415E-1   -3.937893501328529E-2    8.229716655229831E-1   -1.271442442494527E-2
 2.968051735373363E7     8.233150362753345E-1   -1.591299068264245E-2    1.787328360175272E-1   -3.864560628408784E-2    1.784614959513058E-1   -3.928384223044077E-2    8.230638858216117E-1   -1.320619630676275E-2
 2.990697562442441E7     8.232553647191683E-1   -1.700110581808385E-2    1.785303849404443E-1   -3.828323203541736E-2    1.779299206917402E-1   -3.959232314904854E-2    8.232189357185373E-1   -1.363850560281826E-2
 3.013516174061584E7     8.234128835091725E-1   -1.723250474811073E-2    1.784312238231205E-1   -3.828267425833045E-2    1.779575106017028E-1   -3.930673345184926E-2    8.233402939283814E-1   -1.413896191208021E-2
 3.036508888553168E7     8.234622589657904E-1   -1.797779952926012E-2    1.782633361961664E-1   -3.810090310586376E-2    1.776662050333372E-1   -3.942360900957972E-2    8.234556246937895E-1   -1.463947964486424E-2
 3.059677034298190E7     8.235943671463984E-1   -1.849346156053097E-2    1.781312977960831E-1   -3.802449154997730E-2    1.775318494879548E-1   -3.933550628354622E-2    8.235795449747966E-1   -1.513435078846645E-2
 3.083021949813037E7     8.244655422799940E-1   -2.164250404335394E-2    1.776622500269604E-1   -3.759870882743056E-2    1.770881267236835E-1   -4.258888020637749E-2    8.237253655345760E-1   -1.566930143921507E-2
 3.106544983826748E7     8.245923935575986E-1   -2.216360978766854E-2    1.775418122100376E-1   -3.751261965833207E-2    1.769527802262995E-1   -4.251281314546255E-2    8.238449066156970E-1   -1.617316307767296E-2
 3.130247495359022E7     8.241011590269874E-1   -1.957134656642161E-2    1.778159847749961E-1   -3.802772106168562E-2    1.775295622636797E-1   -3.866608818084286E-2    8.238815268018701E-1   -1.674237128346132E-2
 3.154130853798668E7     8.241952352741441E-1   -2.010559389907630E-2    1.776866553098726E-1   -3.795114108381827E-2    1.774035078702782E-1   -3.858076204481102E-2    8.239777344378345E-1   -1.725738047956110E-2
 3.178196438982744E7     8.243112439946045E-1   -2.064751433415651E-2    1.775608626993511E-1   -3.785901135926974E-2    1.772783924498028E-1   -3.849979654636456E-2    8.241017954670417E-1   -1.777944300249298E-2
 3.202445641276293E7     8.243020148339935E-1   -2.146115961998256E-2    1.773902416786610E-1   -3.760074300666662E-2    1.769028189751940E-1   -3.862732175772037E-2    8.242335826776235E-1   -1.824143552570739E-2
 3.226879861652631E7     8.245200322853435E-1   -2.170493036863019E-2    1.773037531265551E-1   -3.768801124843341E-2    1.770149260405863E-1   -3.833466848764287E-2    8.243173922614012E-1   -1.882442475676464E-2
 3.251500511774320E7     8.246706669714653E-1   -2.467956403448551E-2    1.768671606357002E-1   -3.708223984171993E-2    1.759305285217474E-1   -4.090148675325243E-2    8.244804849927755E-1   -1.927278579482333E-2
 3.276309014074709E7     8.247627922773573E-1   -2.521356933443270E-2    1.767389134077163E-1   -3.699321820248107E-2    1.757982505092699E-1   -4.082137341992427E-2    8.245852777921316E-1   -1.979644126378202E-2
 3.301306801840112E7     8.248603886798829E-1   -2.578524880816549E-2    1.766087779529313E-1   -3.693245515807417E-2    1.756701413265080E-1   -4.075270710055523E-2    8.246934206457414E-1   -2.032827117935975E-2
 3.326495319292643E7     8.249797233068138E-1   -2.635860697395421E-2    1.764892513701792E-1   -3.685140954554224E-2    1.755414125464152E-1   -4.067001345367375E-2    8.247924254027557E-1   -2.087308833624992E-2
 3.351876021673609E7     8.250427507830006E-1   -2.450884717753415E-2    1.766746746469232E-1   -3.729825205570919E-2    1.763771109666666E-1   -3.793668363973354E-2    8.248314010149188E-1   -2.146292230851059E-2
 3.377450375327612E7     8.251248815427038E-1   -2.504363541788329E-2    1.765491548032856E-1   -3.722290479648967E-2    1.762490080393904E-1   -3.785083674230985E-2    8.249346496176726E-1   -2.199665098472748E-2
 3.403219857787284E7     8.250335869052721E-1   -2.611953345804248E-2    1.763414790373533E-1   -3.688803346557127E-2    1.757226822602145E-1   -3.818637231797022E-2    8.250632929399256E-1   -2.245392209982233E-2
 3.429185957858586E7     8.251222672065937E-1   -2.667846850013433E-2    1.762174651366468E-1   -3.681790302403623E-2    1.755933385457076E-1   -3.810442771695584E-2    8.251491689940162E-1   -2.300171181447629E-2
 3.455350175706909E7     8.251980129309011E-1   -2.725441963614821E-2    1.760852152766487E-1   -3.675340563229535E-2    1.754639941689547E-1   -3.803063713376189E-2    8.252379448857287E-1   -2.354603259222956E-2
 3.481714022943672E7     8.254675517829787E-1   -2.970999596638844E-2    1.757359092650828E-1   -3.643445336553662E-2    1.747715729203275E-1   -4.021627400515017E-2    8.253559206550802E-1   -2.413273002159807E-2
 3.508279022713681E7     8.255466345231324E-1   -3.030913115097107E-2    1.756004183349843E-1   -3.636478182866480E-2    1.746371729096713E-1   -4.014122783367832E-2    8.254311882161653E-1   -2.464910015309026E-2
 3.535046709783159E7     8.256269166115104E-1   -3.084951638656549E-2    1.754732521829687E-1   -3.629040889614032E-2    1.744998332815809E-1   -4.007095755212820E-2    8.255190144869304E-1   -2.520894032564855E-2
 3.562018630628331E7     8.256853648399779E-1   -3.144947737034362E-2    1.753360574800305E-1   -3.622012010371362E-2    1.743605608751111E-1   -3.999047950717753E-2    8.255946298999699E-1   -2.575269676537495E-2
 3.589196343524875E7     8.257199070654693E-1   -3.200325564566116E-2    1.751947049433032E-1   -3.612638649836251E-2    1.742231415161050E-1   -3.989349445056106E-2    8.256608448391357E-1   -2.629261875181028E-2
 3.616581418637872E7     8.258053504252476E-1   -3.255103897853524E-2    1.750749769257447E-1   -3.601891793968930E-2    1.741086786975776E-1   -3.978975584925032E-2    8.257590514520053E-1   -2.681561040235581E-2
 3.644175438112541E7     8.259152883391013E-1   -3.311814586944310E-2    1.749848616123217E-1   -3.593466902019517E-2    1.740131267391986E-1   -3.969363241433812E-2    8.258594213017029E-1   -2.737205459964190E-2
 3.671979996165685E7     8.257872764689356E-1   -3.250065244525007E-2    1.750143467915512E-1   -3.594812229621416E-2    1.741083349827764E-1   -3.809838879792532E-2    8.259465583011939E-1   -2.790416193887883E-2
 3.699996699177712E7     8.258687664800507E-1   -3.309209540987310E-2    1.749107219645754E-1   -3.587928910107074E-2    1.740050526331962E-1   -3.802638676749480E-2    8.260473700593145E-1   -2.847249822586041E-2
 3.728227165785540E7     8.259619069600438E-1   -3.370101994230842E-2    1.748065536788084E-1   -3.581355913616348E-2    1.738973740615739E-1   -3.796304305245984E-2    8.261448693803621E-1   -2.905471654354608E-2
 3.756673026976037E7     8.260414265556583E-1   -3.430175838481789E-2    1.746952056558664E-1   -3.575492589335174E-2    1.737853029609676E-1   -3.789185296264394E-2    8.262263851436665E-1   -2.962080552408833E-2
 3.785335926180276E7     8.264092077716977E-1   -3.369944631048871E-2    1.747518612022587E-1   -3.606680396758291E-2    1.744426985332066E-1   -3.666996835936393E-2    8.262484186534176E-1   -3.032985448440817E-2
 3.814217519368506E7     8.265006318510888E-1   -3.431755169668918E-2    1.746356468169055E-1   -3.599962886631592E-2    1.743345060001815E-1   -3.660691001098678E-2    8.263434519442782E-1   -3.089015577876755E-2
 3.843319475145779E7     8.265658786482991E-1   -3.493516456311323E-2    1.745255275732757E-1   -3.593940827501867E-2    1.742194228772218E-1   -3.654018426659998E-2    8.264198958483884E-1   -3.147336754952619E-2
 3.872643474848381E7     8.266498886883480E-1   -3.554473050070923E-2    1.744153761719591E-1   -3.587485833463181E-2    1.741125426910974E-1   -3.647384587716895E-2    8.265042210087327E-1   -3.207216903456556E-2
 3.902191212640966E7     8.267235896490198E-1   -3.618018277993446E-2    1.742983470152430E-1   -3.580781762891740E-2    1.739978146611132E-1   -3.641627319092147E-2    8.265878404624485E-1   -3.266430074360024E-2
 3.931964395614420E7     8.268096522009757E-1   -3.680578449201531E-2    1.741889314025275E-1   -3.575282877920053E-2    1.738818358068156E-1   -3.635231603818669E-2    8.266645362463366E-1   -3.324492047915036E-2
 3.961964743884522E7     8.267433332154159E-1   -3.770095149645224E-2    1.740350815572768E-1   -3.552437124228129E-2    1.735285687553673E-1   -3.650902990632344E-2    8.267745405336806E-1   -3.379977033893122E-2
 3.992193990691278E7     8.267934188349068E-1   -3.833264875632345E-2    1.739159560504351E-1   -3.546480184626494E-2    1.734141776527001E-1   -3.644499138322177E-2    8.268406291152826E-1   -3.438686200911480E-2
 4.022653882499073E7     8.266723444481586E-1   -3.988107843184383E-2    1.736861597466000E-1   -3.520848773132008E-2    1.727729812394787E-1   -3.733204933077547E-2    8.269311462247191E-1   -3.495295704495271E-2
 4.053346179097611E7     8.267268041506115E-1   -4.052649538142138E-2    1.735739195671791E-1   -3.514541237199680E-2    1.726641435651337E-1   -3.727929641919635E-2    8.270058748651576E-1   -3.557707707803564E-2
 4.084272653703488E7     8.268053589697953E-1   -4.116812695752638E-2    1.734618988020719E-1   -3.508505412101599E-2    1.725496926990058E-1   -3.722106595010762E-2    8.270691955220837E-1   -3.618082936247675E-2
 4.115435093062763E7     8.268789406348408E-1   -4.245711974397571E-2    1.732905827906921E-1   -3.498338745814773E-2    1.722561980692833E-1   -3.796662590106172E-2    8.271543682412965E-1   -3.679529400528245E-2
 4.146835297554084E7     8.269335056436531E-1   -4.312097504380653E-2    1.731729737918888E-1   -3.492268657326458E-2    1.721461182188764E-1   -3.790804132820928E-2    8.272242480571167E-1   -3.742086115087393E-2
 4.178475081292742E7     8.275082820990917E-1   -4.513030975515701E-2    1.729994288789881E-1   -3.485317030302550E-2    1.722868479100496E-1   -3.974405516810425E-2    8.273079482569857E-1   -3.808051930855807E-2
 4.210356272235513E7     8.275438435190779E-1   -4.578776302218112E-2    1.728822223836406E-1   -3.480074726075522E-2    1.721705621837275E-1   -3.968648036234751E-2    8.273579474375744E-1   -3.869395487476397E-2
 4.242480712286174E7     8.275923119805328E-1   -4.645924023320833E-2    1.727821184669865E-1   -3.473985924900554E-2    1.720645171524348E-1   -3.964543453660262E-2    8.274193689794407E-1   -3.932776631003609E-2
 4.274850257402029E7     8.276489283442540E-1   -4.711119243370424E-2    1.726751343917389E-1   -3.469334523465447E-2    1.719594184819731E-1   -3.958754877135108E-2    8.274879231323318E-1   -3.995050918722522E-2
 4.307466777701053E7     8.275148551628374E-1   -4.452729312664425E-2    1.728692364638314E-1   -3.502640560787931E-2    1.725548693322239E-1   -3.565681291635177E-2    8.274511430919512E-1   -4.063641760873362E-2
 4.340332157569963E7     8.277250194062069E-1   -4.845757589722611E-2    1.724654009114113E-1   -3.459282557841088E-2    1.717439170037958E-1   -3.947085658235764E-2    8.275958581068028E-1   -4.122612226116065E-2
 4.373448295773120E7     8.277467337101880E-1   -4.912191193845190E-2    1.723579706134638E-1   -3.453479676571689E-2    1.716375605958795E-1   -3.942112455942248E-2    8.276574609542207E-1   -4.186831118102164E-2
 4.406817105562137E7     8.272767313492284E-1   -4.840260314677095E-2    1.723153116867595E-1   -3.448715839230779E-2    1.712736444074097E-1   -3.748201208025287E-2    8.276862009738273E-1   -4.245435376351544E-2
 4.440440514786536E7     8.273148354686284E-1   -4.908464164633402E-2    1.722105597118942E-1   -3.443940731891162E-2    1.711695328711646E-1   -3.742364821123689E-2    8.277377528988875E-1   -4.311854925666315E-2
 4.474320466005030E7     8.273324824843790E-1   -4.977325036256490E-2    1.721041067108491E-1   -3.438583550243723E-2    1.710688951499544E-1   -3.737263042365573E-2    8.277810255737063E-1   -4.375990932165026E-2
 4.508458916597787E7     8.274469837375519E-1   -4.938394728793909E-2    1.721021950248778E-1   -3.443437639003904E-2    1.713322878741693E-1   -3.607008101052405E-2    8.278229172022109E-1   -4.443025456346185E-2
 4.542857838879555E7     8.274899066705499E-1   -5.006801220499043E-2    1.720044681144423E-1   -3.438867074292624E-2    1.712289598139583E-1   -3.601456459853243E-2    8.278601631766471E-1   -4.508090401911695E-2
 4.577519220213508E7     8.275312275406930E-1   -5.077450014734408E-2    1.719037720530695E-1   -3.434212943548708E-2    1.711273618144889E-1   -3.597300605701002E-2    8.279263536154865E-1   -4.574278628412627E-2
 4.612445063126191E7     8.275765629967089E-1   -5.145670312866762E-2    1.717992845868262E-1   -3.429208305628281E-2    1.710250233364058E-1   -3.593017921038995E-2    8.279632063641714E-1   -4.643676936186319E-2
 4.647637385423118E7     8.275999475455740E-1   -5.214922865069506E-2    1.716956758609623E-1   -3.424851744597229E-2    1.709221917631694E-1   -3.587456833044853E-2    8.280125589578186E-1   -4.707634715717086E-2
 4.683098220305377E7     8.276163104404077E-1   -5.284482550292290E-2    1.715872994667550E-1   -3.419999229823283E-2    1.708168194655996E-1   -3.583011258046671E-2    8.280545899193366E-1   -4.776690287998685E-2
 4.718829616487134E7     8.276301439060539E-1   -5.354077062523863E-2    1.714859907983872E-1   -3.416222375509659E-2    1.707147735926380E-1   -3.578902781373255E-2    8.281000799369077E-1   -4.846546900352260E-2
 4.754833638313931E7     8.275365368776119E-1   -5.532797182142871E-2    1.712832977777241E-1   -3.401380885946369E-2    1.702356531449616E-1   -3.700126557303533E-2    8.281508092428547E-1   -4.912357557337040E-2
 4.791112365881994E7     8.275530036295240E-1   -5.605759753927628E-2    1.711716265241082E-1   -3.396965701028228E-2    1.701360568364718E-1   -3.695484528592478E-2    8.281802673305185E-1   -4.980024213295053E-2
 4.827667895158397E7     8.275640267065886E-1   -5.678618091700829E-2    1.710739785561912E-1   -3.392326844218269E-2    1.700368206305999E-1   -3.690965591039333E-2    8.281900250768029E-1   -5.048778235285746E-2
 4.864502338102144E7     8.275766050220600E-1   -5.748955163771254E-2    1.709723793411380E-1   -3.387971625050375E-2    1.699317095994783E-1   -3.687067466244934E-2    8.282267988028568E-1   -5.118219750795957E-2
 4.901617822786229E7     8.275824708281434E-1   -5.821623825770876E-2    1.708768510993663E-1   -3.382389857975780E-2    1.698317438789819E-1   -3.681949630479040E-2    8.282605164946067E-1   -5.184905606645297E-2
 4.939016493520518E7     8.276055707110208E-1   -5.896027956528044E-2    1.707793186079506E-1   -3.378841157540115E-2    1.697319037959611E-1   -3.677739002381946E-2    8.282966306903286E-1   -5.255573204479230E-2
 4.976700510975666E7     8.276044495176237E-1   -5.969216993212161E-2    1.706811341953811E-1   -3.374342601828165E-2    1.696335798431895E-1   -3.673807456899602E-2    8.283197499497015E-1   -5.326111889127485E-2
 5.014672052307993E7     8.276302168322009E-1   -6.044787989135560E-2    1.705783981351587E-1   -3.370257043079960E-2    1.695418176671268E-1   -3.669781908995246E-2    8.283501801921802E-1   -5.395729561485799E-2
 5.052933311285146E7     8.276340445652500E-1   -6.118372192385759E-2    1.704827408658906E-1   -3.366171099276061E-2    1.694394135590110E-1   -3.665778736952116E-2    8.283726998140113E-1   -5.468289364971991E-2
 5.091486498412994E7     8.276255790046743E-1   -6.192205046911123E-2    1.703885826026227E-1   -3.361294968541240E-2    1.693472359724009E-1   -3.662107493700082E-2    8.283955413745817E-1   -5.539513548462029E-2
 5.130333841063219E7     8.276372647395105E-1   -6.267254849258677E-2    1.702924217062508E-1   -3.357507591755086E-2    1.692635806161814E-1   -3.659079460154557E-2    8.284221179559750E-1   -5.612555573544389E-2
 5.169477583602042E7     8.276490279949540E-1   -6.344486163044381E-2    1.702011530584221E-1   -3.353858852912506E-2    1.691716933191285E-1   -3.655496295439495E-2    8.284553828214486E-1   -5.684232247721321E-2
 5.208919987519933E7     8.276627615696248E-1   -6.420623079553969E-2    1.701114087018668E-1   -3.350007539774036E-2    1.690830581673712E-1   -3.652060616284079E-2    8.284652822852647E-1   -5.756926732449032E-2
 5.248663331562151E7     8.276495560442566E-1   -6.498819135311432E-2    1.700177329702557E-1   -3.346016076497606E-2    1.689852052926592E-1   -3.648836402315548E-2    8.284818912259896E-1   -5.828244160167705E-2
 5.288709911860541E7     8.276492155664181E-1   -6.573235396336596E-2    1.699245710500294E-1   -3.342661599113003E-2    1.688881177688970E-1   -3.646155229187211E-2    8.285038498206593E-1   -5.901285838435116E-2
 5.329062042066076E7     8.276510138351177E-1   -6.651155359968956E-2    1.698291881663393E-1   -3.339696545068052E-2    1.688032320952599E-1   -3.643131797771375E-2    8.285252408371755E-1   -5.973444763298509E-2
 5.369722053482568E7     8.276223371481007E-1   -6.728451429302768E-2    1.697338928430388E-1   -3.336233857442928E-2    1.687104702219798E-1   -3.639295197203900E-2    8.285200366309416E-1   -6.048831917409492E-2
 5.410692295201402E7     8.276026282505731E-1   -6.806587715043766E-2    1.696387751879822E-1   -3.332554558256151E-2    1.686124244961136E-1   -3.636819605787068E-2    8.285373022039122E-1   -6.124465528452896E-2
 5.451975134237129E7     8.275906179496156E-1   -6.885764667641521E-2    1.695468667081148E-1   -3.329732357987059E-2    1.685195698315347E-1   -3.633333884928405E-2    8.285333410540336E-1   -6.199411373453102E-2
 5.493572955664375E7     8.275658753383072E-1   -6.966042722438440E-2    1.694509019425931E-1   -3.326382420675110E-2    1.684274872867045E-1   -3.631091593472675E-2    8.285565077573672E-1   -6.274575392408094E-2
 5.535488162755510E7     8.275607604517637E-1   -7.043927980328996E-2    1.693588535988280E-1   -3.323102151229868E-2    1.683393134086687E-1   -3.628677261378839E-2    8.285537999778795E-1   -6.352631665396863E-2
 5.577723177119546E7     8.275353473106456E-1   -7.124993114616500E-2    1.692684805637361E-1   -3.319551851309871E-2    1.682511248386722E-1   -3.626250681983129E-2    8.285493105828772E-1   -6.428532083713898E-2
 5.620280438842070E7     8.275068859554309E-1   -7.206173336002454E-2    1.691798029502208E-1   -3.316713016073836E-2    1.681606305005444E-1   -3.623652526697401E-2    8.285522550310624E-1   -6.506545651039546E-2
 5.663162406626155E7     8.274807181217447E-1   -7.286997510031692E-2    1.690889078576451E-1   -3.313553894811956E-2    1.680723618128402E-1   -3.621647638892448E-2    8.285567689014200E-1   -6.586506716457435E-2
 5.706371557934452E7     8.274674157165657E-1   -7.368200175372300E-2    1.690025223099871E-1   -3.311003110591158E-2    1.679842961814458E-1   -3.619458317975677E-2    8.285591612771389E-1   -6.663156306139470E-2
 5.749910389132310E7     8.274404626922670E-1   -7.453153396684274E-2    1.689114227405752E-1   -3.308646558480915E-2    1.678948448436439E-1   -3.617474533831143E-2    8.285466029651974E-1   -6.742256819891040E-2
 5.793781415631992E7     8.274178789145948E-1   -7.534737946238357E-2    1.688226572646628E-1   -3.305356259003207E-2    1.678061481971017E-1   -3.615375614135376E-2    8.285439893916177E-1   -6.820757493345030E-2
 5.837987172038046E7     8.281074940967343E-1   -7.427687793836125E-2    1.689193772692949E-1   -3.349140945561272E-2    1.686660699457933E-1   -3.415532661286121E-2    8.284602723200241E-1   -6.911701575593945E-2
 5.882530212293670E7     8.280786506608537E-1   -7.512000504955652E-2    1.688226179721181E-1   -3.347325834600728E-2    1.685850287800748E-1   -3.413425711506077E-2    8.284504089544735E-1   -6.992588626453176E-2
 5.927413109828297E7     8.280406005930908E-1   -7.593850624429418E-2    1.687331080967247E-1   -3.344857061114141E-2    1.684954422071012E-1   -3.411731749804169E-2    8.284334372367901E-1   -7.072055568846440E-2
 5.972638457706322E7     8.280152187257473E-1   -7.678019411268691E-2    1.686446166093384E-1   -3.343266625105178E-2    1.684087470944253E-1   -3.409351642390569E-2    8.284219228507331E-1   -7.152589880848786E-2
 6.018208868776779E7     8.279950111613261E-1   -7.761164327779724E-2    1.685542931479343E-1   -3.341146620878090E-2    1.683270237366796E-1   -3.407718254631812E-2    8.284103022616162E-1   -7.231901483232696E-2
 6.064126975824468E7     8.279563235385151E-1   -7.846057514004263E-2    1.684657872899012E-1   -3.339038540881187E-2    1.682407414280459E-1   -3.406766818432128E-2    8.283887893463564E-1   -7.315117278094117E-2
 6.110395431721926E7     8.279152407169373E-1   -7.934581859590016E-2    1.683848847291768E-1   -3.337531987593757E-2    1.681588183096388E-1   -3.405226656484985E-2    8.283597299049730E-1   -7.397246321578720E-2
 6.157016909582742E7     8.278770675257363E-1   -8.021980396760560E-2    1.682942560206054E-1   -3.336285431956589E-2    1.680712286959281E-1   -3.403875146890986E-2    8.283380201777759E-1   -7.480511198368633E-2
 6.203994102916045E7     8.278420188835036E-1   -8.106385381423657E-2    1.682062952213971E-1   -3.334926875695948E-2    1.679886863187746E-1   -3.402552197725234E-2    8.283194554295784E-1   -7.563485824523673E-2
 6.251329725781982E7     8.277951310077113E-1   -8.194187205095727E-2    1.681205558722305E-1   -3.333522899392705E-2    1.679012705238258E-1   -3.400930723404227E-2    8.282724360622830E-1   -7.647616487132954E-2
 6.299026512948693E7     8.277399292645847E-1   -8.281978297436710E-2    1.680284302427694E-1   -3.332157627399223E-2    1.678228030735915E-1   -3.399967494679994E-2    8.282697128097662E-1   -7.729600256477660E-2
 6.347087220050172E7     8.276844692413240E-1   -8.369288894753946E-2    1.679385218590782E-1   -3.331704924191198E-2    1.677403021445258E-1   -3.399651914801679E-2    8.282479903732932E-1   -7.815310266796791E-2
 6.395514623745525E7     8.276544531499703E-1   -8.459057359950868E-2    1.678576809871496E-1   -3.329956334319527E-2    1.676535938645825E-1   -3.398735456924613E-2    8.282085389692251E-1   -7.900675456711194E-2
 6.444311521879433E7     8.276209407356031E-1   -8.550254964853098E-2    1.677773628311604E-1   -3.328506442625299E-2    1.675686575238034E-1   -3.397703826337935E-2    8.281674420295710E-1   -7.988245309606529E-2
 6.493480733643661E7     8.275582512163233E-1   -8.638147991218055E-2    1.676844571852632E-1   -3.328010730025095E-2    1.674824118759651E-1   -3.396471357777059E-2    8.281128818747594E-1   -8.072936193557217E-2
 6.543025099740107E7     8.274913880919629E-1   -8.728798114804119E-2    1.675996320156416E-1   -3.327750605775023E-2    1.673981303646246E-1   -3.395968766173463E-2    8.280807437343962E-1   -8.161585301803054E-2
 6.592947482544785E7     8.268004866771205E-1   -9.172878310488679E-2    1.672504681702925E-1   -3.241009568078878E-2    1.665717151415517E-1   -3.763791665915363E-2    8.280938367656714E-1   -8.239228395291706E-2
 6.643250766273243E7     8.267684615701015E-1   -9.270075220927484E-2    1.671788900455178E-1   -3.239772375134518E-2    1.665055725259301E-1   -3.767691970981035E-2    8.280952119647190E-1   -8.326129134189149E-2
 6.693937857147253E7     8.267148091230676E-1   -9.362383290862879E-2    1.670944130280043E-1   -3.239611688391605E-2    1.664395045074318E-1   -3.767204072995159E-2    8.280819488286171E-1   -8.411064837614728E-2
 6.745011683562562E7     8.266498682199496E-1   -9.462546445582856E-2    1.670022552384096E-1   -3.237869927156142E-2    1.663518933061241E-1   -3.768569477824059E-2    8.280234456577436E-1   -8.500192050085742E-2
 6.796475196258274E7     8.266054394039156E-1   -9.550771475953851E-2    1.669183740581527E-1   -3.236200410656737E-2    1.662825336174406E-1   -3.765400037771557E-2    8.279896874333958E-1   -8.586891267433576E-2
 6.848331368487169E7     8.265498325993090E-1   -9.640488207588208E-2    1.668427558089444E-1   -3.233257602531139E-2    1.662255645466824E-1   -3.760206466860605E-2    8.279477044374034E-1   -8.668825484651763E-2
 6.900583196187538E7     8.262483857050847E-1   -9.566252479497082E-2    1.668804874896065E-1   -3.254726177301929E-2    1.659131790976191E-1   -3.575390079774114E-2    8.279062818193593E-1   -8.755371177352080E-2
 6.953233698156311E7     8.261927077132731E-1   -9.656904254087199E-2    1.668153343961970E-1   -3.251129753257642E-2    1.658293369924871E-1   -3.579116948834704E-2    8.278148317870174E-1   -8.858424353657350E-2
 7.006285916223384E7     8.260987144391280E-1   -9.755757850083537E-2    1.667581030631051E-1   -3.245487526156701E-2    1.657400243031273E-1   -3.585959141734775E-2    8.277539057795152E-1   -8.957190084276452E-2
 7.059742915427396E7     8.259908010625275E-1   -9.869003732832018E-2    1.666842960013757E-1   -3.245058666246440E-2    1.656609685057001E-1   -3.588866160928979E-2    8.277081156295548E-1   -9.043382084800267E-2
 7.113607784192866E7     8.259095289486610E-1   -9.964500423396404E-2    1.666009313555403E-1   -3.247202986324268E-2    1.656005006974190E-1   -3.587988089542785E-2    8.276700254015372E-1   -9.134696068776089E-2
 7.167883634508467E7     8.258587935224379E-1   -1.005789328520663E-1    1.665237223656129E-1   -3.249028060492139E-2    1.655464020221444E-1   -3.585942144255377E-2    8.276247076292884E-1   -9.226014231777140E-2
 7.222573602107021E7     8.258061931491723E-1   -1.015312691773462E-1    1.664542251592104E-1   -3.250461439160574E-2    1.654906170193653E-1   -3.582648879146327E-2    8.275639550722371E-1   -9.312355683469783E-2
 7.277680846646504E7     8.257145051980574E-1   -1.024583544269380E-1    1.663733743132705E-1   -3.251265832820490E-2    1.654218485163542E-1   -3.580074919188704E-2    8.274837789539295E-1   -9.404919607260197E-2
 7.333208551892644E7     8.256392092564115E-1   -1.034086728047646E-1    1.663065578673836E-1   -3.247429402609287E-2    1.653252559426391E-1   -3.584848878930040E-2    8.273500996805064E-1   -9.519157866584441E-2
 7.389159925902925E7     8.255396749645838E-1   -1.045065442421669E-1    1.662426409778810E-1   -3.242069470115599E-2    1.652256649372085E-1   -3.593944989735837E-2    8.272778634645060E-1   -9.620278986018113E-2
 7.445538201211768E7     8.254213383390434E-1   -1.056517087206672E-1    1.661676699161797E-1   -3.242056454054362E-2    1.651497884868750E-1   -3.595797170742124E-2    8.272068660006696E-1   -9.706158100163567E-2
 7.502346635017487E7     8.253307157624893E-1   -1.066529647770442E-1    1.660851130423467E-1   -3.246512475616628E-2    1.650998589318789E-1   -3.592145329456363E-2    8.271294652905450E-1   -9.796848413179000E-2
 7.559588509370317E7     8.252559395358460E-1   -1.075989282045147E-1    1.660145529005354E-1   -3.247844746671722E-2    1.650525158732873E-1   -3.589709120146894E-2    8.270735699214029E-1   -9.891173564105162E-2
 7.617267131362079E7     8.251723617845965E-1   -1.085799793558563E-1    1.659465984735544E-1   -3.250465310880604E-2    1.649943022515023E-1   -3.587264767688586E-2    8.270116589565863E-1   -9.985031786906909E-2
 7.675385833317320E7     8.250756333388919E-1   -1.095693288474114E-1    1.658738703728651E-1   -3.251016206308242E-2    1.649344076565984E-1   -3.585383218380702E-2    8.269111312242792E-1   -1.008311661396570E-1
 7.733947972985649E7     8.249904588552115E-1   -1.106159937806479E-1    1.658079167730491E-1   -3.247854964051033E-2    1.648519423425934E-1   -3.592896345675382E-2    8.268058511728255E-1   -1.019599235547808E-1
 7.792956933735959E7     8.248500840878895E-1   -1.117584955904029E-1    1.657427864589419E-1   -3.244845120227628E-2    1.647671093854922E-1   -3.602340763887558E-2    8.267204641217057E-1   -1.029904762553390E-1
 7.852416124751715E7     8.247200848278727E-1   -1.129064654383262E-1    1.656666364199008E-1   -3.246227518603675E-2    1.646946913876871E-1   -3.605483412009916E-2    8.266218948580675E-1   -1.039097237674519E-1
 7.912328981227988E7     8.245953955532188E-1   -1.138709311774049E-1    1.655904409577487E-1   -3.247923355733576E-2    1.646346890922616E-1   -3.603567272456008E-2    8.265242220103102E-1   -1.049173945177505E-1
 7.972698964569975E7     8.244881160166346E-1   -1.148766153914250E-1    1.655188095546071E-1   -3.249197013538598E-2    1.645681367960764E-1   -3.602953967918721E-2    8.264387652601235E-1   -1.059387549338632E-1
 8.033529562592810E7     8.244071914202029E-1   -1.159386410008928E-1    1.654518766303853E-1   -3.248941516406137E-2    1.645044069494897E-1   -3.605373912666084E-2    8.263211801962883E-1   -1.069561266727364E-1
 8.094824289723292E7     8.243070116638752E-1   -1.170304923634833E-1    1.653939463127483E-1   -3.249395363543778E-2    1.644429854368857E-1   -3.608184148647692E-2    8.262269701268430E-1   -1.079806002869475E-1
 8.156586687202743E7     8.241783696107696E-1   -1.181177656095683E-1    1.653299138215927E-1   -3.250170100068086E-2    1.643811148921729E-1   -3.610350506801983E-2    8.261252781719888E-1   -1.090075462626582E-1
 8.218820323291673E7     8.240213183448689E-1   -1.192226492574743E-1    1.652641254422293E-1   -3.252630831821681E-2    1.643224574201161E-1   -3.611473795908595E-2    8.260379827989986E-1   -1.100595178562835E-1
 8.281528793475981E7     8.238950913431435E-1   -1.202464951528931E-1    1.652126603157292E-1   -3.254398679842607E-2    1.642676667461166E-1   -3.611350049032305E-2    8.259277667183363E-1   -1.111097646653996E-1
 8.344715720674579E7     8.238140222411257E-1   -1.213404459546137E-1    1.651599581266912E-1   -3.256497153990681E-2    1.642236338952752E-1   -3.614229906360591E-2    8.258181269113188E-1   -1.121785999075036E-1
 8.408384755448765E7     8.237115345418448E-1   -1.224416881344831E-1    1.651077539070225E-1   -3.259319212812758E-2    1.641644798086352E-1   -3.616461362254508E-2    8.257075258419160E-1   -1.132375528167140E-1
 8.472539576213124E7     8.235976774103143E-1   -1.235612803493545E-1    1.650433840872045E-1   -3.261659104993987E-2    1.641034245986676E-1   -3.618865469699441E-2    8.255940795290858E-1   -1.143050384266329E-1
 8.537183889448020E7     8.234353194183579E-1   -1.246553738755678E-1    1.649769902784604E-1   -3.263322579711871E-2    1.640412804013484E-1   -3.619820303084756E-2    8.254693253966253E-1   -1.153562444356877E-1
 8.602321429913802E7     8.233033435304177E-1   -1.257721617564564E-1    1.649247982219727E-1   -3.264999594158688E-2    1.639949898383109E-1   -3.621980530434649E-2    8.253573900215623E-1   -1.164375895063394E-1
 8.667955960866481E7     8.231750478584912E-1   -1.268806265805200E-1    1.648742525953780E-1   -3.266939582086312E-2    1.639497715948947E-1   -3.624216489831809E-2    8.252622891294539E-1   -1.175264315013049E-1
 8.734091274275188E7     8.230523283864077E-1   -1.280150484581530E-1    1.648172776092040E-1   -3.269426942175502E-2    1.639000938497549E-1   -3.626630751568038E-2    8.251182154029476E-1   -1.186073575033880E-1
 8.800731191041334E7     8.229184772292218E-1   -1.291566492486665E-1    1.647655575948843E-1   -3.271607284242992E-2    1.638523307588565E-1   -3.629041350964675E-2    8.249841229640932E-1   -1.196977631788323E-1
 8.867879561219153E7     8.227513938016574E-1   -1.302614384295172E-1    1.647111191919483E-1   -3.273048405582736E-2    1.638088872842565E-1   -3.630872134278113E-2    8.248780618391489E-1   -1.207963417137126E-1
 8.935540264238395E7     8.226406432897794E-1   -1.314231486433775E-1    1.646834795304778E-1   -3.275680101742046E-2    1.637739665339551E-1   -3.633517350132477E-2    8.247635254231268E-1   -1.218993229642497E-1
 9.003717209128250E7     8.224830563447634E-1   -1.325585722273185E-1    1.646132669155972E-1   -3.277026123929211E-2    1.637054485518753E-1   -3.632856268398373E-2    8.245980767043875E-1   -1.230001919174272E-1
 9.072414334743266E7     8.223514205685319E-1   -1.337302043185281E-1    1.645856649092371E-1   -3.281258144196708E-2    1.636791477111000E-1   -3.637444771005079E-2    8.244939876008227E-1   -1.241391162656140E-1
 9.141635609990983E7     8.221804019654936E-1   -1.348990138296527E-1    1.645435172859916E-1   -3.285993888701643E-2    1.636458463766402E-1   -3.642202335305066E-2    8.243564572463886E-1   -1.252776832680789E-1
 9.211385034061028E7     8.220573383833899E-1   -1.360751214860982E-1    1.645111020412821E-1   -3.290489844074912E-2    1.636145942155209E-1   -3.647058836256686E-2    8.242183936494867E-1   -1.264315488774803E-1
 9.281666636656430E7     8.219369279127559E-1   -1.372601917745762E-1    1.644848313700292E-1   -3.296271355719136E-2    1.635864556026385E-1   -3.652588246901869E-2    8.240923497629622E-1   -1.275916759134299E-1
 9.352484478226222E7     8.217904784556761E-1   -1.384640420641095E-1    1.644426660797395E-1   -3.302785480929681E-2    1.635425949833865E-1   -3.657917642388400E-2    8.239368155588243E-1   -1.287479915807443E-1
 9.423842650200106E7     8.216555167784935E-1   -1.396974867800017E-1    1.643976136234946E-1   -3.309517000525735E-2    1.635003059824593E-1   -3.664397079729018E-2    8.238036999117780E-1   -1.299202213527223E-1
 9.495745275224906E7     8.214864520572770E-1   -1.409158314262542E-1    1.643437155256097E-1   -3.316736371823865E-2    1.634566378345334E-1   -3.671350212299532E-2    8.236546808172659E-1   -1.311053038160151E-1
 9.568196507402541E7     8.213169991262681E-1   -1.421593433172146E-1    1.642976483990423E-1   -3.324145581264120E-2    1.634020414321064E-1   -3.678184905220937E-2    8.234992795908223E-1   -1.322801584732302E-1
 9.641200532530291E7     8.211390896587720E-1   -1.434170924963323E-1    1.642483819149767E-1   -3.331302907122591E-2    1.633457785728435E-1   -3.684682807539419E-2    8.233348637147651E-1   -1.334906148776917E-1
 9.714761568342420E7     8.209733205290246E-1   -1.446700908532856E-1    1.641940491317885E-1   -3.338875019740778E-2    1.632873757379967E-1   -3.690614634928177E-2    8.231352601959918E-1   -1.346664860871365E-1
 9.788883864753923E7     8.207437302970462E-1   -1.459303126839714E-1    1.641343727386735E-1   -3.346021246684523E-2    1.632330609650820E-1   -3.696900480387074E-2    8.229689837370703E-1   -1.358662577533439E-1
 9.863571704106140E7     8.205424812030628E-1   -1.472033729552614E-1    1.640768118320857E-1   -3.353343577638801E-2    1.631730419839196E-1   -3.703303033289305E-2    8.227844325743014E-1   -1.370801625590684E-1
 9.938829401413949E7     8.203280734743007E-1   -1.484595535962749E-1    1.640157679529866E-1   -3.360580074322804E-2    1.631139512309503E-1   -3.709505861455969E-2    8.226119342021935E-1   -1.383025525963576E-1
 1.001466130461536E8     8.201176599652030E-1   -1.497472593155816E-1    1.639615183218104E-1   -3.368167656353391E-2    1.630609976963763E-1   -3.715798133172553E-2    8.224088103327664E-1   -1.395191171953292E-1
 1.009107179482240E8     8.198879837214018E-1   -1.510052907482319E-1    1.639006609132408E-1   -3.375804229360668E-2    1.630086177458746E-1   -3.722540027437378E-2    8.222336489575139E-1   -1.407358883038991E-1
 1.016806528657447E8     8.196500838854125E-1   -1.522646553151426E-1    1.638472169234370E-1   -3.384371927767196E-2    1.629492508638160E-1   -3.729997931724033E-2    8.220665745583954E-1   -1.419802665053251E-1
 1.024564622809335E8     8.194176367915144E-1   -1.535530136051295E-1    1.637820988854853E-1   -3.393694171204135E-2    1.628887035936014E-1   -3.738584488862305E-2    8.219245445161379E-1   -1.432296680645741E-1
 1.032381910153997E8     8.192371621728129E-1   -1.548219483285137E-1    1.637048999651053E-1   -3.402683313292750E-2    1.628080311249398E-1   -3.746436454584445E-2    8.217561188738434E-1   -1.444849077813657E-1
 1.040258842327368E8     8.190346682348776E-1   -1.561353277710011E-1    1.636195672248674E-1   -3.412159320550092E-2    1.627213168427386E-1   -3.754318549468769E-2    8.216168427030653E-1   -1.457483770258785E-1
 1.048195874411304E8     8.188403856627904E-1   -1.574597541100393E-1    1.635152786644309E-1   -3.420169146618633E-2    1.626253955844535E-1   -3.760658759409357E-2    8.214847575427010E-1   -1.470592327813720E-1
 1.056193464959857E8     8.186194724319135E-1   -1.587971166832910E-1    1.634110979503847E-1   -3.425861077164746E-2    1.625260111919003E-1   -3.765442578790774E-2    8.213535958480708E-1   -1.484340098849703E-1
 1.064252076025801E8     8.184111777328182E-1   -1.601765377413023E-1    1.633226002881855E-1   -3.428313617817490E-2    1.624373895348764E-1   -3.768057202399221E-2    8.211681865858580E-1   -1.498244796080574E-1
 1.072372173187304E8     8.181384388994506E-1   -1.615302844649739E-1    1.632676222238119E-1   -3.433719554630722E-2    1.623896100525867E-1   -3.771300119655654E-2    8.209194640705040E-1   -1.512086141361337E-1
 1.080554225574824E8     8.178596021763723E-1   -1.628939412917462E-1    1.631849170697340E-1   -3.439505589820480E-2    1.623176470894122E-1   -3.776242002268443E-2    8.207080067729131E-1   -1.525764091891114E-1
 1.088798705898232E8     8.176341552693925E-1   -1.642286648919645E-1    1.631202260548160E-1   -3.443725664589415E-2    1.622476741468469E-1   -3.781369847521086E-2    8.204877695942040E-1   -1.539908694105135E-1
 1.097106090474096E8     8.174040480940161E-1   -1.655951407012745E-1    1.630464695416223E-1   -3.449028738270412E-2    1.621752335966252E-1   -3.785260631611470E-2    8.202396706931797E-1   -1.553923951042913E-1
 1.105476859253232E8     8.172323561748305E-1   -1.670149843325752E-1    1.629768138875356E-1   -3.453134723769796E-2    1.620998976140563E-1   -3.789502639247323E-2    8.200192599742083E-1   -1.568096213462950E-1
 1.113911495848395E8     8.170492349395090E-1   -1.685189588659831E-1    1.629290445254244E-1   -3.454521078343344E-2    1.620348720423549E-1   -3.791957207948592E-2    8.197735019245551E-1   -1.582575930441071E-1
 1.122410487562254E8     8.167998942507105E-1   -1.700648539358463E-1    1.629217140304680E-1   -3.456777901475701E-2    1.619828791926899E-1   -3.794528834730605E-2    8.195177166805410E-1   -1.597036316740739E-1
 1.130974325415529E8     8.164953906102875E-1   -1.715882243471914E-1    1.629245264819286E-1   -3.461900143736564E-2    1.619524381157860E-1   -3.796661023886397E-2    8.192361911473303E-1   -1.611447806285923E-1
 1.139603504175348E8     8.161833628976888E-1   -1.731186985729080E-1    1.629226347989333E-1   -3.469233485461388E-2    1.619307860574382E-1   -3.800946077155204E-2    8.189581951707998E-1   -1.625784395596705E-1
 1.148298522383858E8     8.158491797081125E-1   -1.746350107206886E-1    1.629154271249275E-1   -3.477402974082943E-2    1.619021193803583E-1   -3.805747695990443E-2    8.186809254114085E-1   -1.640377617505490E-1
 1.157059882387014E8     8.155229415149176E-1   -1.761453339146376E-1    1.629031873443709E-1   -3.486189577883604E-2    1.618688742488037E-1   -3.810950163222233E-2    8.183544741291445E-1   -1.655069829425451E-1
 1.165888090363587E8     8.151738619918252E-1   -1.776675930593290E-1    1.628692006209285E-1   -3.496651454855132E-2    1.618301141224421E-1   -3.816863617060810E-2    8.180700971469088E-1   -1.669915164656272E-1
 1.174783656354443E8     8.148410637587716E-1   -1.791889526835798E-1    1.628171738586559E-1   -3.505547537110849E-2    1.617694854201086E-1   -3.822329150377479E-2    8.177684193086571E-1   -1.685030396816610E-1
 1.183747094291968E8     8.145195853834771E-1   -1.807422120974502E-1    1.627602211769271E-1   -3.511727004346300E-2    1.617220988505300E-1   -3.824271109924687E-2    8.174632310222845E-1   -1.700484089157548E-1
 1.192778922029803E8     8.141799901994008E-1   -1.823340629573470E-1    1.627415671705675E-1   -3.515633116932423E-2    1.617127203812853E-1   -3.826191332944194E-2    8.170907202172196E-1   -1.715823293990902E-1
 1.201879661372721E8     8.138032444897324E-1   -1.839396026601906E-1    1.627408501897340E-1   -3.524183395914009E-2    1.617112794645344E-1   -3.832322219529063E-2    8.167449557025074E-1   -1.730678199835924E-1
 1.211049838106809E8     8.134714263909052E-1   -1.855470196328397E-1    1.626997365508525E-1   -3.532940549859295E-2    1.616630038828401E-1   -3.838827932670178E-2    8.164429810392109E-1   -1.745795327119541E-1
 1.220289982029829E8     8.131402535472766E-1   -1.872249711241791E-1    1.626599424375645E-1   -3.536325419169734E-2    1.616296327081059E-1   -3.839241683051676E-2    8.161092689628507E-1   -1.761682970348922E-1
 1.229600626981811E8     8.127147466589547E-1   -1.889512067759184E-1    1.626713723615265E-1   -3.539639649878722E-2    1.616500507338569E-1   -3.840853903295913E-2    8.157224846853733E-1   -1.777546883477439E-1
 1.238982310875929E8     8.122335611037194E-1   -1.906490425189253E-1    1.627146059662016E-1   -3.546065970211534E-2    1.616968070337804E-1   -3.845607301063822E-2    8.153139319180672E-1   -1.793025303621596E-1
 1.248435575729559E8     8.117414350160815E-1   -1.923079954120311E-1    1.627428496153798E-1   -3.557613085516649E-2    1.617245046783898E-1   -3.855004773721678E-2    8.149047740416722E-1   -1.808253563863133E-1
 1.257960967695579E8     8.112677794852962E-1   -1.939687633720402E-1    1.626916831069193E-1   -3.566108825705288E-2    1.616756823045105E-1   -3.861058902383177E-2    8.145600459200034E-1   -1.823645677405547E-1
 1.267559037093956E8     8.107990290927908E-1   -1.957031427265853E-1    1.626758050671989E-1   -3.571118642468595E-2    1.616594418494260E-1   -3.864665083720717E-2    8.142454712470426E-1   -1.839976176669531E-1
 1.277230338443520E8     8.102651395044269E-1   -1.974537497532366E-1    1.627318196442273E-1   -3.575118931945110E-2    1.617149982616585E-1   -3.868018767679656E-2    8.138228201304254E-1   -1.856713668492174E-1
 1.286975430493991E8     8.097076915760143E-1   -1.991372122815412E-1    1.628118992559714E-1   -3.585836445608508E-2    1.617880047123815E-1   -3.878592714004884E-2    8.133586602112930E-1   -1.872771013807706E-1
 1.296794876258291E8     8.091715844803209E-1   -2.007840842396272E-1    1.628352954022045E-1   -3.599986470021923E-2    1.617980456062189E-1   -3.890863038854057E-2    8.129276691534901E-1   -1.888730264402919E-1
 1.306689243045034E8     8.086639133796250E-1   -2.024621097737864E-1    1.628471932373682E-1   -3.611269443122206E-2    1.617982412490487E-1   -3.899716889522026E-2    8.125147223535428E-1   -1.904948855369246E-1
 1.316659102491341E8     8.081506401445000E-1   -2.041567025618843E-1    1.628713789298385E-1   -3.622654531076152E-2    1.618176420287110E-1   -3.908808787808788E-2    8.120925160567654E-1   -1.921200772279053E-1
 1.326705030595824E8     8.076480897219425E-1   -2.058659052496671E-1    1.628957071564886E-1   -3.634360985566853E-2    1.618399054689987E-1   -3.918535865197104E-2    8.116550008165501E-1   -1.937471587620553E-1
 1.336827607751903E8     8.071350086191165E-1   -2.075851183134630E-1    1.629177084623771E-1   -3.646183932790528E-2    1.618627570232569E-1   -3.928895972811584E-2    8.112266716471008E-1   -1.953860260770501E-1
 1.347027418781318E8     8.066314173874864E-1   -2.093305952149327E-1    1.629317331257717E-1   -3.659317842562231E-2    1.618828926395545E-1   -3.939761528539035E-2    8.107984369520432E-1   -1.970456799649800E-1
 1.357305052967905E8     8.061241722985313E-1   -2.111088979017485E-1    1.629321626634790E-1   -3.673119640502639E-2    1.618895570125423E-1   -3.951330214564320E-2    8.103495436746337E-1   -1.987000102324266E-1
 1.367661104091667E8     8.055975169843446E-1   -2.129102691436455E-1    1.629127858557364E-1   -3.683844276510174E-2    1.618914143230145E-1   -3.961334720768076E-2    8.099035745274589E-1   -2.003592793287206E-1
 1.378096170463071E8     8.050373431991725E-1   -2.147508322471847E-1    1.629053088050691E-1   -3.693900035220801E-2    1.618984672930220E-1   -3.970895240343863E-2    8.094599133035357E-1   -2.020579497377645E-1
 1.388610854957592E8     8.044510087307346E-1   -2.165975595336906E-1    1.628996542400762E-1   -3.702373720830886E-2    1.619031103603513E-1   -3.979985817237980E-2    8.090303775782711E-1   -2.037708905641321E-1
 1.399205765050585E8     8.038360045801985E-1   -2.184304200202171E-1    1.629082189616572E-1   -3.708822819983435E-2    1.619204810158563E-1   -3.986695612635569E-2    8.085915606547850E-1   -2.055179195286962E-1
 1.409881512852336E8     8.032163772538766E-1   -2.202926292440318E-1    1.629515827426962E-1   -3.716074778950460E-2    1.619657612803508E-1   -3.994893428360408E-2    8.080796452633048E-1   -2.073115621811855E-1
 1.420638715143470E8     8.025706737487200E-1   -2.221349442419008E-1    1.629996505222203E-1   -3.724117905229916E-2    1.620278331431611E-1   -4.003696328233486E-2    8.075443789597425E-1   -2.090814790729067E-1
 1.431477993410541E8     8.019079756489473E-1   -2.239868293065113E-1    1.630713578758546E-1   -3.732596777525042E-2    1.620998731032023E-1   -4.013232719041283E-2    8.069931525270275E-1   -2.108474488000206E-1
 1.442399973881980E8     8.012321378155638E-1   -2.258254660208474E-1    1.631577730295337E-1   -3.744572854788837E-2    1.621857522950509E-1   -4.026090952488554E-2    8.063935844093275E-1   -2.126231641330156E-1
 1.453405287564251E8     8.005424284565609E-1   -2.276577376047586E-1    1.632322164786678E-1   -3.759246043196651E-2    1.622562971708360E-1   -4.041610277306165E-2    8.058068762946693E-1   -2.143392766420352E-1
 1.464494570278296E8     7.998815359415180E-1   -2.294972317969172E-1    1.632817593130115E-1   -3.774272859182480E-2    1.622995097142182E-1   -4.056958436371460E-2    8.052628361460671E-1   -2.160547950035876E-1
 1.475668462696298E8     7.991987302202372E-1   -2.313432022517304E-1    1.633238063551667E-1   -3.788473062111890E-2    1.623327028898036E-1   -4.070932436853069E-2    8.047096557351773E-1   -2.178007348190200E-1
 1.486927610378684E8     7.985014869201488E-1   -2.331977203424991E-1    1.633648538923617E-1   -3.803290655328644E-2    1.623626138958155E-1   -4.085937818487863E-2    8.041515290918454E-1   -2.195520670646025E-1
 1.498272663811400E8     7.978324863159247E-1   -2.350772829550666E-1    1.633965174628363E-1   -3.818264556583990E-2    1.623887553485142E-1   -4.099621457062619E-2    8.036038259119195E-1   -2.213385166171462E-1
 1.509704278443526E8     7.971482242737290E-1   -2.370025854959329E-1    1.634060538448183E-1   -3.832634353275429E-2    1.624036860516057E-1   -4.112114635509209E-2    8.030257187043033E-1   -2.231596313764871E-1
 1.521223114725131E8     7.964179681681600E-1   -2.389754127173054E-1    1.634250587787114E-1   -3.842709973120054E-2    1.624346434061313E-1   -4.120141431378795E-2    8.024610144531060E-1   -2.250175822711001E-1
 1.532829838145407E8     7.956289609953923E-1   -2.409274386444109E-1    1.634886125871104E-1   -3.852072431208845E-2    1.625015206246795E-1   -4.129295903434871E-2    8.018579505309135E-1   -2.268840202068373E-1
 1.544525119271165E8     7.948321097049387E-1   -2.428320193881511E-1    1.635966425198227E-1   -3.861811724612724E-2    1.626001823846715E-1   -4.141167473840852E-2    8.012486092102901E-1   -2.287495718099240E-1
 1.556309633785520E8     7.940540496562907E-1   -2.447719435939582E-1    1.637028986054096E-1   -3.874486772804876E-2    1.626973156515769E-1   -4.157780904760968E-2    8.006106356600659E-1   -2.306495725375683E-1
 1.568184062526983E8     7.932744705942961E-1   -2.466904495037717E-1    1.638164403183140E-1   -3.886572732891973E-2    1.627963121711871E-1   -4.175933104559135E-2    7.999569347838024E-1   -2.325202412906837E-1
 1.580149091528745E8     7.924862171142039E-1   -2.486243743237892E-1    1.639326303417500E-1   -3.898950846635935E-2    1.628928038756139E-1   -4.196639812458008E-2    7.992765101225775E-1   -2.343566856135669E-1
 1.592205412058353E8     7.917242167356118E-1   -2.505189953808291E-1    1.640473346257339E-1   -3.911157495637948E-2    1.629866804928702E-1   -4.220026067546330E-2    7.986147945639606E-1   -2.361733204258361E-1
 1.604353720657634E8     7.909654699483647E-1   -2.523694693024222E-1    1.641548169452760E-1   -3.924284083028970E-2    1.630776810263058E-1   -4.244382155595639E-2    7.979555090708275E-1   -2.380052048783801E-1
 1.616594719182909E8     7.902530763619815E-1   -2.542446960232580E-1    1.642578769090047E-1   -3.939302070310741E-2    1.631532157125551E-1   -4.268478709964438E-2    7.972604025590013E-1   -2.398421141512200E-1
 1.628929114845590E8     7.895237456369828E-1   -2.561325032055582E-1    1.643416393578353E-1   -3.955362999477723E-2    1.632189617084513E-1   -4.293238838621790E-2    7.965647309609521E-1   -2.417035726087009E-1
 1.641357620253014E8     7.888459236368920E-1   -2.578457187325189E-1    1.644168491040135E-1   -3.968871731057828E-2    1.632804489396047E-1   -4.311455338612402E-2    7.958779956527682E-1   -2.435911375293440E-1
 1.653880953449593E8     7.880693907646568E-1   -2.598517330396733E-1    1.644809166839757E-1   -3.988690419916149E-2    1.633489059719049E-1   -4.329768632887336E-2    7.951642563021510E-1   -2.455106309386929E-1
 1.666499837958347E8     7.872656636360853E-1   -2.618742169968931E-1    1.645436444968880E-1   -4.008516909051539E-2    1.634297239676169E-1   -4.348008139795333E-2    7.944572867951999E-1   -2.474654918598390E-1
 1.679215002822650E8     7.864286042892827E-1   -2.639515573243166E-1    1.646324734921530E-1   -4.030753473216508E-2    1.635272047370052E-1   -4.367626257854931E-2    7.937000199095788E-1   -2.493952568243288E-1
 1.692027182648404E8     7.856031921118605E-1   -2.660308265855542E-1    1.647162352234707E-1   -4.055147680888343E-2    1.636232831331968E-1   -4.390066308754881E-2    7.929388225663077E-1   -2.513493016783490E-1
 1.704937117646426E8     7.847415858220770E-1   -2.681355548171173E-1    1.647957677553755E-1   -4.079122721304077E-2    1.637054547347045E-1   -4.413938090778391E-2    7.921711944587509E-1   -2.533049173288373E-1
 1.717945553675260E8     7.839060274568209E-1   -2.702560368146103E-1    1.648628810079425E-1   -4.103487885341434E-2    1.637781174649884E-1   -4.438940251139693E-2    7.913969307738484E-1   -2.552818511267876E-1
 1.731053242284249E8     7.830058740683450E-1   -2.724092735035437E-1    1.649226997712186E-1   -4.126482238857882E-2    1.638417363040019E-1   -4.463196465717131E-2    7.905819759439363E-1   -2.572455556696641E-1
 1.744260940756933E8     7.821171596883911E-1   -2.745632264418891E-1    1.649919847752487E-1   -4.152011721513182E-2    1.639056211032163E-1   -4.489207815083293E-2    7.897715493587205E-1   -2.592233379844924E-1
 1.757569412154842E8     7.811407595155885E-1   -2.767543084717923E-1    1.650193227578859E-1   -4.175159613015164E-2    1.639276381359895E-1   -4.512888188604609E-2    7.889311252822518E-1   -2.612032305853996E-1
 1.770979425361561E8     7.800803554347914E-1   -2.788749144502220E-1    1.650718439045415E-1   -4.195973901014079E-2    1.639711464280939E-1   -4.534458934667921E-2    7.880913683942469E-1   -2.632139990315383E-1
 1.784491755127131E8     7.790169902296550E-1   -2.809482711269339E-1    1.651449399090193E-1   -4.217753894475180E-2    1.640300333172121E-1   -4.556589128968647E-2    7.872251507264475E-1   -2.652133466265484E-1
 1.798107182112848E8     7.779759783211930E-1   -2.829560993330592E-1    1.652184509289285E-1   -4.241635739385674E-2    1.640881250546587E-1   -4.579135558688466E-2    7.863283220754494E-1   -2.672064598486059E-1
 1.811826492936349E8     7.769320542486616E-1   -2.849858676089120E-1    1.652782988035051E-1   -4.265954645053913E-2    1.641461544711125E-1   -4.601460364545136E-2    7.853946884899085E-1   -2.692016163225580E-1
 1.825650480217040E8     7.759284340233141E-1   -2.870652611077902E-1    1.653227582412463E-1   -4.291858404916218E-2    1.641892208835649E-1   -4.627207128627179E-2    7.845158907686552E-1   -2.712650663545226E-1
 1.839579942621904E8     7.748820448268522E-1   -2.891536451729059E-1    1.653653253403531E-1   -4.316981685877218E-2    1.642304704913232E-1   -4.650456524586487E-2    7.835989782465473E-1   -2.732603842561043E-1
 1.853615684911660E8     7.738162357211175E-1   -2.912402527571570E-1    1.654050661456921E-1   -4.340386758837267E-2    1.642755246803218E-1   -4.672410445134602E-2    7.826778478676099E-1   -2.753027044608684E-1
 1.867758517987237E8     7.727671770747160E-1   -2.933139430567778E-1    1.654601266732340E-1   -4.364308251475854E-2    1.643293233498940E-1   -4.694602995724030E-2    7.817259839210592E-1   -2.774207815677687E-1
 1.882009258936609E8     7.716938398017200E-1   -2.953962125127000E-1    1.655198860413785E-1   -4.386756183342238E-2    1.644013339461316E-1   -4.716616263953701E-2    7.807495959503854E-1   -2.794882167638225E-1
 1.896368731082037E8     7.706093517956097E-1   -2.975090493045547E-1    1.655831411853297E-1   -4.412172156477641E-2    1.644622244876153E-1   -4.741198258881459E-2    7.797175929066027E-1   -2.815961094326881E-1
 1.910837764027621E8     7.694761340589883E-1   -2.996670346202635E-1    1.656433839644058E-1   -4.438280185779435E-2    1.645133562747027E-1   -4.765009491766960E-2    7.787063306772658E-1   -2.836869353344051E-1
 1.925417193707203E8     7.682524874547092E-1   -3.018506471429784E-1    1.656764106927159E-1   -4.464920546616078E-2    1.645535586293297E-1   -4.789670692833481E-2    7.776520478213795E-1   -2.858121481492363E-1
 1.940107862432706E8     7.669536548493097E-1   -3.039919929033087E-1    1.656648683124465E-1   -4.490072317705214E-2    1.645546925209377E-1   -4.812121583662034E-2    7.765215348552651E-1   -2.879471758357339E-1
 1.954910618942780E8     7.655825767495081E-1   -3.060716812617207E-1    1.656482091529164E-1   -4.506068536717468E-2    1.645576660119513E-1   -4.827139515765719E-2    7.753670830202001E-1   -2.899897004519917E-1
 1.969826318451810E8     7.642249700993582E-1   -3.080593709449485E-1    1.657258547913560E-1   -4.520839666401292E-2    1.646308006502350E-1   -4.840943146072280E-2    7.742583803552769E-1   -2.920508394389000E-1
 1.984855822699381E8     7.628921245148536E-1   -3.100057808515693E-1    1.657908169965766E-1   -4.538693355113353E-2    1.646931313525914E-1   -4.856241421204877E-2    7.730956865432608E-1   -2.941715752781828E-1
 2.000000000000000E8     7.615278260559261E-1   -3.119061156612268E-1    1.658459705692349E-1   -4.550344774325532E-2    1.647556194273866E-1   -4.865527453213223E-2    7.718577889307946E-1   -2.962274503517449E-1
