#  HZ   S   RI   R     50.00 
! Rohde & Schwarz Vector Network Analyzer 
! Rohde-Schwarz,ZNLE6-2Port,1323001256200024,1.71.1.10-23.02.1.238
! Created: UTC 4/11/2025, 7:32:24 AM
! freq[Hz]                re:S11                  im:S11                  re:S21                  im:S21                  re:S12                  im:S12                  re:S22                  im:S22
 1.000000000000000E5     5.689549795058186E-1    1.850528018156576E-1    4.341853654934772E-1   -1.857103141028622E-1    4.346535165543650E-1   -1.857860698430654E-1    5.685529517000599E-1    1.848327508874001E-1
 1.007629862646662E5     5.697205503442981E-1    1.846401999230221E-1    4.334099703888598E-1   -1.853250396534284E-1    4.338752972182366E-1   -1.854024321048227E-1    5.693288760910786E-1    1.844361908755490E-1
 1.015317940097331E5     5.704711316005685E-1    1.842614600021212E-1    4.326314954800241E-1   -1.849395439426494E-1    4.331091793637113E-1   -1.850239281131296E-1    5.700984356331139E-1    1.840498545705993E-1
 1.023064676522963E5     5.711962614753834E-1    1.838597067306718E-1    4.318626973495986E-1   -1.845562408896341E-1    4.323331522849691E-1   -1.846441919206280E-1    5.708719275274893E-1    1.836666752726850E-1
 1.030870519483485E5     5.719421744443504E-1    1.834681302224591E-1    4.310867880430950E-1   -1.841812722669806E-1    4.315730988835403E-1   -1.842627774957112E-1    5.716090602819036E-1    1.832903554718242E-1
 1.038735919953636E5     5.727005631629829E-1    1.830903810244848E-1    4.303217999918328E-1   -1.838066010625914E-1    4.308032977725211E-1   -1.838824024027780E-1    5.723725458737197E-1    1.829088334543367E-1
 1.046661332349037E5     5.734287785086899E-1    1.827002057289051E-1    4.295469115034806E-1   -1.834303197614656E-1    4.300397257275842E-1   -1.835122877706284E-1    5.731230695051035E-1    1.825578945741158E-1
 1.054647214552430E5     5.741882497484430E-1    1.823402964795283E-1    4.287836699488244E-1   -1.830617969867876E-1    4.292745649193214E-1   -1.831474385997336E-1    5.738573532009279E-1    1.821714577975953E-1
 1.062694027940149E5     5.749291902490488E-1    1.819645188481826E-1    4.280263771131552E-1   -1.827055051082284E-1    4.285143002071903E-1   -1.827701369683336E-1    5.746036027285139E-1    1.818069653059476E-1
 1.070802237408760E5     5.756801497651247E-1    1.815868265905935E-1    4.272661905147168E-1   -1.823343252588439E-1    4.277544501893220E-1   -1.824211705913910E-1    5.753370597134398E-1    1.814538307548771E-1
 1.078972311401927E5     5.764444062272726E-1    1.812271809252633E-1    4.265117470387629E-1   -1.819755528816838E-1    4.270063462400581E-1   -1.820621181573921E-1    5.760962285499724E-1    1.810876796271234E-1
 1.087204721937475E5     5.771806251652873E-1    1.808756310759715E-1    4.257646093413614E-1   -1.816242911184508E-1    4.262489644527374E-1   -1.817031024100357E-1    5.768425955149370E-1    1.807208247462972E-1
 1.095499944634658E5     5.779322337521949E-1    1.805251808708012E-1    4.250153794593611E-1   -1.812673261619367E-1    4.254912317849455E-1   -1.813457791529931E-1    5.775785494302188E-1    1.803903525983446E-1
 1.103858458741646E5     5.786534765588283E-1    1.801551976887796E-1    4.242499205522511E-1   -1.809140322336823E-1    4.247400555749458E-1   -1.809935699807452E-1    5.783252016308355E-1    1.800128847584545E-1
 1.112280747163201E5     5.793894165633868E-1    1.798026066507186E-1    4.234949059769121E-1   -1.805651789813550E-1    4.239876763896910E-1   -1.806526437055314E-1    5.790606076618197E-1    1.796701184804326E-1
 1.120767296488583E5     5.801019158998381E-1    1.794583557702934E-1    4.227387412107979E-1   -1.802080419326692E-1    4.232288544973375E-1   -1.803025612526430E-1    5.797952033893337E-1    1.793237373406319E-1
 1.129318597019661E5     5.808574538600498E-1    1.791022610469060E-1    4.219952418939303E-1   -1.798676498920564E-1    4.224752108997120E-1   -1.799573067439007E-1    5.805363538526754E-1    1.789699559801189E-1
 1.137935142799240E5     5.816128904522487E-1    1.787730376718824E-1    4.212544729702172E-1   -1.795222291859412E-1    4.217192137265977E-1   -1.796171459094138E-1    5.813001668286101E-1    1.786320450059530E-1
 1.146617431639607E5     5.823510667328466E-1    1.784296975161309E-1    4.205062454835503E-1   -1.792025980032709E-1    4.209588963642982E-1   -1.792776155329370E-1    5.820271146675413E-1    1.783005589544725E-1
 1.155365965151286E5     5.830966632271614E-1    1.780903229808960E-1    4.197615112544523E-1   -1.788604944589399E-1    4.202115192584032E-1   -1.789410198561321E-1    5.827693562854521E-1    1.779488997615097E-1
 1.164181248772018E5     5.838013085225203E-1    1.777447618888246E-1    4.190192245755540E-1   -1.785242115173383E-1    4.194631345364545E-1   -1.786108304596474E-1    5.835070191411117E-1    1.776186069835143E-1
 1.173063791795965E5     5.845589902433092E-1    1.774186494803633E-1    4.182655208693568E-1   -1.781903152865599E-1    4.187047945716583E-1   -1.782808872352686E-1    5.842389519091823E-1    1.773028775659039E-1
 1.182014107403141E5     5.852987135477554E-1    1.770917620884913E-1    4.175238573589088E-1   -1.778713301254428E-1    4.179546263627585E-1   -1.779437055958079E-1    5.849495064686671E-1    1.769681952535834E-1
 1.191032712689044E5     5.860547534137858E-1    1.767661757688104E-1    4.167726081505585E-1   -1.775414289828328E-1    4.172112756270220E-1   -1.776252243671639E-1    5.857010085450802E-1    1.766264812774210E-1
 1.200120128694542E5     5.867819799937062E-1    1.764295084956441E-1    4.160205183583363E-1   -1.772162791081638E-1    4.164645493605151E-1   -1.773015143750321E-1    5.864518210272720E-1    1.763171707856396E-1
 1.209276880435975E5     5.875155749307601E-1    1.761198173096646E-1    4.152788173211274E-1   -1.768864564402167E-1    4.157332154270305E-1   -1.769769873444527E-1    5.871821201360400E-1    1.759998805850508E-1
 1.218503496935483E5     5.882551898918834E-1    1.757892342397102E-1    4.145401273107885E-1   -1.765714811910794E-1    4.149850922984637E-1   -1.766622130465177E-1    5.879256406281606E-1    1.756793553321142E-1
 1.227800511251578E5     5.889948725575468E-1    1.754629526596748E-1    4.137993321322673E-1   -1.762655000979155E-1    4.142337078109680E-1   -1.763372948424699E-1    5.886462646030277E-1    1.753467380229367E-1
 1.237168460509929E5     5.897157647587441E-1    1.751608061751203E-1    4.130609002992334E-1   -1.759420223717299E-1    4.135036944185492E-1   -1.760318200739768E-1    5.894161954991031E-1    1.750424099323696E-1
 1.246607885934402E5     5.904375389448487E-1    1.748400360698092E-1    4.122984344415512E-1   -1.756286930190122E-1    4.127467284644409E-1   -1.757213105104551E-1    5.901363703908015E-1    1.747285763419717E-1
 1.256119332878327E5     5.911690639677120E-1    1.745330928736138E-1    4.115639010966148E-1   -1.753206666383538E-1    4.120154180094175E-1   -1.754103682263585E-1    5.908769981885099E-1    1.744198314372683E-1
 1.265703350856002E5     5.919042177979813E-1    1.742233287549110E-1    4.108251634246695E-1   -1.750145716792010E-1    4.112744266406012E-1   -1.751052141108359E-1    5.915925147611828E-1    1.741121012991170E-1
 1.275360493574453E5     5.926578432282822E-1    1.739191463645933E-1    4.100921570562561E-1   -1.747101012905437E-1    4.105288212673013E-1   -1.747958342018344E-1    5.923432292779923E-1    1.738036352011903E-1
 1.285091318965405E5     5.933878371112047E-1    1.736109535452780E-1    4.093551448049735E-1   -1.743997615946017E-1    4.097992416313692E-1   -1.744945490225130E-1    5.930774016702393E-1    1.734979380096721E-1
 1.294896389217529E5     5.940934326409526E-1    1.732987512852502E-1    4.086045525063650E-1   -1.740925921300021E-1    4.090490956571406E-1   -1.741960239418519E-1    5.938169785753403E-1    1.732015704776054E-1
 1.304776270808914E5     5.948356402480143E-1    1.730128606511638E-1    4.078779595974143E-1   -1.738039295973670E-1    4.083142407862281E-1   -1.738990649957696E-1    5.945638432006758E-1    1.729099709429316E-1
 1.314731534539810E5     5.955712936869118E-1    1.727129055833670E-1    4.071386499296883E-1   -1.735086156126158E-1    4.075668978685625E-1   -1.736029768280138E-1    5.952818647299295E-1    1.726083001395672E-1
 1.324762755565583E5     5.962873770804230E-1    1.724079056488955E-1    4.063958803361539E-1   -1.732135803302098E-1    4.068344596421460E-1   -1.733021847951143E-1    5.960274979613313E-1    1.723128208800402E-1
 1.334870513429962E5     5.970368476162407E-1    1.721208865097323E-1    4.056492738885641E-1   -1.729249841365101E-1    4.061042697938130E-1   -1.730148477914454E-1    5.967668751801579E-1    1.720078091004052E-1
 1.345055392098512E5     5.977722466443570E-1    1.718205525637890E-1    4.049054845393530E-1   -1.726321794695767E-1    4.053532448759024E-1   -1.727193333419993E-1    5.974760602036332E-1    1.717119647644431E-1
 1.355317979992373E5     5.985117159166942E-1    1.715402804683772E-1    4.041813409991280E-1   -1.723369763781923E-1    4.046097916361458E-1   -1.724307347843383E-1    5.982223469498622E-1    1.714335256006072E-1
 1.365658870022265E5     5.992304277654539E-1    1.712453322797421E-1    4.034323349601354E-1   -1.720483533301917E-1    4.038643163150982E-1   -1.721388724236386E-1    5.989471322082944E-1    1.711330682201407E-1
 1.376078659622731E5     5.999681532112539E-1    1.709560174595496E-1    4.027050579754992E-1   -1.717633884739406E-1    4.031195480621680E-1   -1.718595736324205E-1    5.996953586485204E-1    1.708484649390963E-1
 1.386577950786655E5     6.006982182496008E-1    1.706582085993623E-1    4.019709751048772E-1   -1.714808938340139E-1    4.023757370318916E-1   -1.715708112732342E-1    6.004050338567702E-1    1.705645832836978E-1
 1.397157350100044E5     6.014388389151132E-1    1.703720005974761E-1    4.012298994838623E-1   -1.711914341875776E-1    4.016416475363812E-1   -1.712947277761986E-1    6.011318328990130E-1    1.702842382308368E-1
 1.407817468777081E5     6.021496098742288E-1    1.700830663644860E-1    4.004862076161701E-1   -1.709147004040621E-1    4.009022716348824E-1   -1.710098033709502E-1    6.018799565553603E-1    1.700118421324021E-1
 1.418558922695422E5     6.028999684220477E-1    1.698074431138458E-1    3.997429627541376E-1   -1.706391228527940E-1    4.001463444437348E-1   -1.707300370301856E-1    6.026037608873045E-1    1.697248531426786E-1
 1.429382332431784E5     6.036294187940242E-1    1.695236839177877E-1    3.990041989369506E-1   -1.703526077993842E-1    3.994213904675681E-1   -1.704498890013477E-1    6.033490706110907E-1    1.694486356112358E-1
 1.440288323297804E5     6.043739398069358E-1    1.692481981572747E-1    3.982627936141595E-1   -1.700885419971935E-1    3.986895004373924E-1   -1.701726658405379E-1    6.040986629672801E-1    1.691803056055369E-1
 1.451277525376154E5     6.050753030994033E-1    1.689699461676978E-1    3.975310382976536E-1   -1.698136612588562E-1    3.979468489820520E-1   -1.699089146101893E-1    6.048159046576331E-1    1.689001337932276E-1
 1.462350573556962E5     6.058022410583236E-1    1.687014702148389E-1    3.967788090658197E-1   -1.695350964930618E-1    3.972248770408803E-1   -1.696304507987569E-1    6.055305403973895E-1    1.686196075632052E-1
 1.473508107574468E5     6.065394254055203E-1    1.684136937761913E-1    3.960455818141793E-1   -1.692646051147681E-1    3.964667386255122E-1   -1.693573988425064E-1    6.062474328476145E-1    1.683320328291081E-1
 1.484750772044004E5     6.072790251455933E-1    1.681396377715382E-1    3.953143343987682E-1   -1.689923250835615E-1    3.957302680425138E-1   -1.690923622916298E-1    6.069668075839629E-1    1.680616364044781E-1
 1.496079216499225E5     6.080067384133820E-1    1.678779012915587E-1    3.945738593886266E-1   -1.687208874521335E-1    3.949924408639682E-1   -1.688237701860799E-1    6.077267193809032E-1    1.677986025045551E-1
 1.507494095429637E5     6.087435813958485E-1    1.676171345832329E-1    3.938393410543508E-1   -1.684500209980088E-1    3.942454922356826E-1   -1.685508064572881E-1    6.084432218194191E-1    1.675366439044408E-1
 1.518996068318418E5     6.094577370868025E-1    1.673349549087078E-1    3.930943933209670E-1   -1.681895837426712E-1    3.935097577564928E-1   -1.682877156594003E-1    6.091958973278957E-1    1.672691896999773E-1
 1.530585799680507E5     6.101822433067385E-1    1.670478926785730E-1    3.923511134106444E-1   -1.679218954351597E-1    3.927779043207353E-1   -1.680233901604788E-1    6.099270970982571E-1    1.670044508356371E-1
 1.542263959101001E5     6.109099906073197E-1    1.667937168535925E-1    3.916127874845303E-1   -1.676611777860546E-1    3.920442787752613E-1   -1.677705135561663E-1    6.106620706350259E-1    1.667369801503377E-1
 1.554031221273835E5     6.116550369137648E-1    1.665240951845251E-1    3.908858198499225E-1   -1.674025305249874E-1    3.913063487884449E-1   -1.675042732224750E-1    6.114172129431802E-1    1.664690217160520E-1
 1.565888266040779E5     6.124028465070037E-1    1.662780766300277E-1    3.901528591830473E-1   -1.671446793324697E-1    3.905601429954483E-1   -1.672349721740947E-1    6.121216113101522E-1    1.662121057093315E-1
 1.577835778430689E5     6.131426259104323E-1    1.660195894159833E-1    3.894195180012517E-1   -1.668832233475097E-1    3.898213084456713E-1   -1.669750382874228E-1    6.128509964826722E-1    1.659500745437462E-1
 1.589874448699104E5     6.138632748368964E-1    1.657518982449867E-1    3.886814865214430E-1   -1.666240452823900E-1    3.890844829154474E-1   -1.667207241945413E-1    6.135934486649030E-1    1.656919182282607E-1
 1.602004972368116E5     6.146053516950841E-1    1.655053031366200E-1    3.879394244127945E-1   -1.663587830308349E-1    3.883634602935413E-1   -1.664639770208817E-1    6.143370867503193E-1    1.654391224092146E-1
 1.614228050266550E5     6.153293732580390E-1    1.652443922229504E-1    3.872010365104782E-1   -1.661067324521842E-1    3.876191954390235E-1   -1.662086118153693E-1    6.150732479677520E-1    1.651744720131397E-1
 1.626544388570473E5     6.160501272687758E-1    1.649851702579902E-1    3.864412494429689E-1   -1.658441967484167E-1    3.868769698692813E-1   -1.659567953937343E-1    6.158263826475061E-1    1.649024781318061E-1
 1.638954698843964E5     6.167755503748261E-1    1.647195817078475E-1    3.856979556009106E-1   -1.655847738123466E-1    3.861414926240197E-1   -1.657011441851314E-1    6.165372907280366E-1    1.646587201227420E-1
 1.651459698080244E5     6.175329560670992E-1    1.644642716215235E-1    3.849652634187379E-1   -1.653367811180234E-1    3.853866058760367E-1   -1.654469234941100E-1    6.172751613638232E-1    1.643970326166265E-1
 1.664060108743095E5     6.182712376100854E-1    1.642148825720192E-1    3.842215889500333E-1   -1.650865773646951E-1    3.846509383957412E-1   -1.651904278278281E-1    6.180017381753372E-1    1.641526525879733E-1
 1.676756658808590E5     6.189855719983595E-1    1.639560815697818E-1    3.834779069827500E-1   -1.648313023341265E-1    3.839033602684409E-1   -1.649432645183027E-1    6.187291529308024E-1    1.638904723639691E-1
 1.689550081807175E5     6.197219539137084E-1    1.637121025559884E-1    3.827455107566350E-1   -1.645854013572209E-1    3.831753211842610E-1   -1.646938891570297E-1    6.194741570166284E-1    1.636536035630692E-1
 1.702441116866020E5     6.204875944249560E-1    1.634566478935165E-1    3.820035330370273E-1   -1.643340460794604E-1    3.824301305563099E-1   -1.644409708003296E-1    6.202191395115543E-1    1.634055094136923E-1
 1.715430508751738E5     6.212163838961282E-1    1.632115731600838E-1    3.812648183136280E-1   -1.640840571055404E-1    3.817046050850256E-1   -1.641977529950487E-1    6.209513176428088E-1    1.631513129007809E-1
 1.728519007913403E5     6.219524052804598E-1    1.629421741278457E-1    3.805307442947572E-1   -1.638477193081876E-1    3.809634338529529E-1   -1.639475213490466E-1    6.216857941033678E-1    1.629034584983338E-1
 1.741707370525927E5     6.226924538377117E-1    1.626927347721851E-1    3.797872494351367E-1   -1.635857739540653E-1    3.802201801476837E-1   -1.637011665962811E-1    6.224152821603348E-1    1.626484097417974E-1
 1.754996358533718E5     6.234160693757277E-1    1.624492504087273E-1    3.790438139660032E-1   -1.633347486266550E-1    3.794794658311113E-1   -1.634534586532988E-1    6.231502453220460E-1    1.623918636554079E-1
 1.768386739694722E5     6.241624720868423E-1    1.621974427658946E-1    3.783095491347387E-1   -1.630935925971797E-1    3.787272539849745E-1   -1.632084727319057E-1    6.238842303116181E-1    1.621430500401460E-1
 1.781879287624771E5     6.248954585676800E-1    1.619495032586381E-1    3.775586989242521E-1   -1.628495812225866E-1    3.779996405003635E-1   -1.629569944565150E-1    6.246349844154861E-1    1.618984734254979E-1
 1.795474781842276E5     6.256106036663828E-1    1.617142288722108E-1    3.768070018565067E-1   -1.625954439568937E-1    3.772429761994613E-1   -1.627119401671169E-1    6.253696805518003E-1    1.616504813415245E-1
 1.809174007813277E5     6.263593429998677E-1    1.614515877104064E-1    3.760779954430505E-1   -1.623516557883068E-1    3.765036732109857E-1   -1.624686028236512E-1    6.261098934052239E-1    1.614118890178058E-1
 1.822977756996804E5     6.270948807377316E-1    1.612090084380156E-1    3.753463403224241E-1   -1.621081011373547E-1    3.757733690555792E-1   -1.622171604762882E-1    6.268339938352399E-1    1.611554979164536E-1
 1.836886826890609E5     6.278467612392922E-1    1.609683371762348E-1    3.745877363210902E-1   -1.618644390449917E-1    3.750273167140271E-1   -1.619803332834414E-1    6.275616441702676E-1    1.609053071061582E-1
 1.850902021077247E5     6.285833848481132E-1    1.607240459083882E-1    3.738608691562018E-1   -1.616250129134527E-1    3.742861707089925E-1   -1.617359557771164E-1    6.282927417590912E-1    1.606676813324190E-1
 1.865024149270491E5     6.293100653103122E-1    1.604723416928607E-1    3.731239858162643E-1   -1.613815966911142E-1    3.735386076849196E-1   -1.614908132627450E-1    6.290621758481560E-1    1.604130633712626E-1
 1.879254027362132E5     6.300598263116061E-1    1.602263508194563E-1    3.723764678190027E-1   -1.611371063156227E-1    3.727929360293545E-1   -1.612459787338052E-1    6.297921818125787E-1    1.601770867825497E-1
 1.893592477469092E5     6.308150295160155E-1    1.599738401465870E-1    3.716542626586817E-1   -1.609226784214728E-1    3.720284663524926E-1   -1.609847941887228E-1    6.305249709142899E-1    1.599308617696598E-1
 1.908040327980933E5     6.315364679855964E-1    1.597454707004811E-1    3.709007875307822E-1   -1.606525920549832E-1    3.713203681691011E-1   -1.607650981035178E-1    6.312560417598256E-1    1.596966929036046E-1
 1.922598413607715E5     6.322750197383081E-1    1.594947770743652E-1    3.701580242610909E-1   -1.604023266490729E-1    3.705890815254591E-1   -1.605271071977608E-1    6.320127161738598E-1    1.594463736063589E-1
 1.937267575428232E5     6.330175412602846E-1    1.592466068700397E-1    3.694162989672500E-1   -1.601698722768124E-1    3.698253625423322E-1   -1.602723791255391E-1    6.327439180114685E-1    1.592071135413709E-1
 1.952048660938581E5     6.337714519981393E-1    1.590082252663918E-1    3.686763129813085E-1   -1.599305710073584E-1    3.690986406693665E-1   -1.600424815473886E-1    6.335034190420166E-1    1.589609864073999E-1
 1.966942524101142E5     6.345056184145560E-1    1.587673699886267E-1    3.679292117746601E-1   -1.596874317475193E-1    3.683485383729156E-1   -1.597949716443490E-1    6.342644347974533E-1    1.587330472558270E-1
 1.981950025393913E5     6.352523119887475E-1    1.585290585355774E-1    3.671934259520273E-1   -1.594477682580500E-1    3.675986588804123E-1   -1.595562263102393E-1    6.349840898267359E-1    1.584731485918495E-1
 1.997072031860212E5     6.359945660646669E-1    1.582884966428807E-1    3.664531222789804E-1   -1.592024639040531E-1    3.668589988631931E-1   -1.593195437482229E-1    6.357466626602021E-1    1.582394243209888E-1
 2.012309417158795E5     6.367356145048638E-1    1.580293749485345E-1    3.656929488745028E-1   -1.589592613372997E-1    3.661142230402925E-1   -1.590761616791798E-1    6.364661093142245E-1    1.579863874530794E-1
 2.027663061614301E5     6.374610472934586E-1    1.577934389124084E-1    3.649592990489376E-1   -1.587209985328878E-1    3.653808955480523E-1   -1.588389198247583E-1    6.372099990720786E-1    1.577431968082250E-1
 2.043133852268128E5     6.381856935749903E-1    1.575510839972147E-1    3.642101993647461E-1   -1.584768283896638E-1    3.646287534553234E-1   -1.585917391803748E-1    6.379519304746111E-1    1.575021118911298E-1
 2.058722682929675E5     6.389301660111764E-1    1.573160614372786E-1    3.634749723253555E-1   -1.582320460363479E-1    3.638709154718471E-1   -1.583438054840297E-1    6.386610119493988E-1    1.572486437959327E-1
 2.074430454227995E5     6.396724549043968E-1    1.570701313001417E-1    3.627370228514040E-1   -1.579923718177652E-1    3.631269760634259E-1   -1.581062253672342E-1    6.394054720412810E-1    1.570054098589337E-1
 2.090258073663807E5     6.403931414538861E-1    1.568265741787372E-1    3.619766963608106E-1   -1.577426652038842E-1    3.623924074851642E-1   -1.578714130731063E-1    6.401794051150893E-1    1.567664100682839E-1
 2.106206455661938E5     6.411385763283608E-1    1.565795913432725E-1    3.612470383322045E-1   -1.575107406030667E-1    3.616534353457714E-1   -1.576232191621713E-1    6.409180033415555E-1    1.565273684720939E-1
 2.122276521624151E5     6.418745415304836E-1    1.563280927550445E-1    3.605032880607800E-1   -1.572712958744844E-1    3.609034715466567E-1   -1.573756030211670E-1    6.416254835334890E-1    1.562661912379791E-1
 2.138469199982374E5     6.426260824277655E-1    1.560987437063288E-1    3.597527395443106E-1   -1.570308328082757E-1    3.601609361395536E-1   -1.571335086824325E-1    6.423506939165756E-1    1.560150295418165E-1
 2.154785426252357E5     6.433822338639962E-1    1.558547820148971E-1    3.590117624359336E-1   -1.567856437309023E-1    3.594139517243854E-1   -1.568862187314101E-1    6.430893361300691E-1    1.557718438268243E-1
 2.171226143087691E5     6.440998658869127E-1    1.555994259388367E-1    3.582631863988516E-1   -1.565399645426288E-1    3.586720684173233E-1   -1.566428657054433E-1    6.438392826131054E-1    1.555275858501841E-1
 2.187792300334291E5     6.448549100943385E-1    1.553493263466468E-1    3.575212268210446E-1   -1.562970378301101E-1    3.579320641663744E-1   -1.564062953832731E-1    6.445767169292327E-1    1.552746483792134E-1
 2.204484855085266E5     6.455771835391881E-1    1.551007533024781E-1    3.567798661745502E-1   -1.560531755483604E-1    3.571880101312827E-1   -1.561679491186511E-1    6.453121997670000E-1    1.550260783291590E-1
 2.221304771736209E5     6.463045538268319E-1    1.548503193924165E-1    3.560207970751458E-1   -1.558130234555905E-1    3.564571889822670E-1   -1.559115115037985E-1    6.460346996881166E-1    1.547689699092998E-1
 2.238253022040931E5     6.470533109838568E-1    1.546097810670587E-1    3.552861362016854E-1   -1.555620755862841E-1    3.557232076305402E-1   -1.556762064462069E-1    6.468261545552260E-1    1.545249906421580E-1
 2.255330585167579E5     6.477969711483523E-1    1.543646209385589E-1    3.545523289351616E-1   -1.553303218857261E-1    3.549649644611320E-1   -1.554323886563547E-1    6.475206316237557E-1    1.542694064222099E-1
 2.272538447755223E5     6.485560510211458E-1    1.541200426943751E-1    3.537985117664416E-1   -1.550767257057233E-1    3.542178515421838E-1   -1.551735777645080E-1    6.482616362532316E-1    1.540275526732942E-1
 2.289877603970853E5     6.492682301835904E-1    1.538612777157803E-1    3.530406403074056E-1   -1.548294534079582E-1    3.534729978783691E-1   -1.549344348411131E-1    6.490017981804851E-1    1.537760493976042E-1
 2.307349055566813E5     6.500172498378941E-1    1.536157489251155E-1    3.523096415676737E-1   -1.545812789159084E-1    3.527176657591222E-1   -1.546848633333730E-1    6.497221160245799E-1    1.535071569956338E-1
 2.324953811938693E5     6.507728450082700E-1    1.533670062675254E-1    3.515696566727430E-1   -1.543271503069765E-1    3.519923278115011E-1   -1.544323352208000E-1    6.504672833535171E-1    1.532703992251022E-1
 2.342692890183618E5     6.514830412330819E-1    1.531084592653736E-1    3.508041603888960E-1   -1.540822071864460E-1    3.512398010024302E-1   -1.541886253936878E-1    6.511933415297443E-1    1.530167492467010E-1
 2.360567315159030E5     6.522315602605110E-1    1.528450440005821E-1    3.500665408874806E-1   -1.538323675687963E-1    3.504947906815137E-1   -1.539294398891053E-1    6.519380005613966E-1    1.527540676317266E-1
 2.378578119541888E5     6.529633317125041E-1    1.525994464652562E-1    3.493263900060912E-1   -1.535806291547324E-1    3.497580539648563E-1   -1.536889565545574E-1    6.526522114900253E-1    1.525018250134343E-1
 2.396726343888348E5     6.536875818701845E-1    1.523408541478672E-1    3.485861978492302E-1   -1.533207574002505E-1    3.490168029393022E-1   -1.534327967962377E-1    6.533639908839922E-1    1.522472668473463E-1
 2.415013036693852E5     6.544265871756800E-1    1.520786919746555E-1    3.478332939096321E-1   -1.530716849385043E-1    3.482883601145524E-1   -1.531880035131517E-1    6.540994330849363E-1    1.519861543859672E-1
 2.433439254453724E5     6.551696808088078E-1    1.518314192269626E-1    3.470959241974411E-1   -1.528178822877798E-1    3.475385328584990E-1   -1.529312153882287E-1    6.548185911573979E-1    1.517343827594992E-1
 2.452006061724201E5     6.558836705918772E-1    1.515612064884844E-1    3.463718672417527E-1   -1.525598960354199E-1    3.467984981083115E-1   -1.526793940757806E-1    6.555892152331884E-1    1.514773043817942E-1
 2.470714531183934E5     6.566231673089702E-1    1.513073569926155E-1    3.456340119289122E-1   -1.522994066364363E-1    3.460414712705208E-1   -1.524232503584723E-1    6.563028121089021E-1    1.512246068493605E-1
 2.489565743695979E5     6.573637274813059E-1    1.510475338172139E-1    3.448770441111243E-1   -1.520464895247954E-1    3.452920723291155E-1   -1.521687066308671E-1    6.570478852856857E-1    1.509719149384845E-1
 2.508560788370214E5     6.580885402435857E-1    1.507717388696158E-1    3.441352552113545E-1   -1.517924459539942E-1    3.445567850351958E-1   -1.519130436525300E-1    6.577790035393349E-1    1.507318009368173E-1
 2.527700762626280E5     6.588058015602735E-1    1.505010463990958E-1    3.433940217007547E-1   -1.515263068330216E-1    3.438167207628299E-1   -1.516549516191205E-1    6.584953367139121E-1    1.504677769452149E-1
 2.546986772256976E5     6.595456331005566E-1    1.502459184714965E-1    3.426597656065135E-1   -1.512676776057343E-1    3.430758960090449E-1   -1.514000818832616E-1    6.592270105171925E-1    1.502059695901056E-1
 2.566419931492161E5     6.602771760916185E-1    1.499725858286263E-1    3.419239771907328E-1   -1.510023476166686E-1    3.423456489739438E-1   -1.511399523924674E-1    6.599404134179141E-1    1.499500647256255E-1
 2.586001363063102E5     6.610116319831645E-1    1.497080036415515E-1    3.411871114039164E-1   -1.507457236800996E-1    3.415985127062575E-1   -1.508795291698942E-1    6.606660552207297E-1    1.496914950584805E-1
 2.605732198267354E5     6.616948241062736E-1    1.494484979652835E-1    3.404647182591211E-1   -1.504811003998875E-1    3.408585193644417E-1   -1.506200564005339E-1    6.614019421562798E-1    1.494208395304179E-1
 2.625613577034118E5     6.624335523793025E-1    1.491768556730617E-1    3.397205942038062E-1   -1.502116324365788E-1    3.401322268493586E-1   -1.503608853165927E-1    6.621076016884416E-1    1.491686529897694E-1
 2.645646647990093E5     6.631478126256810E-1    1.488991541679320E-1    3.389825792433824E-1   -1.499498163392548E-1    3.394046260764911E-1   -1.500948748497966E-1    6.628403799708444E-1    1.489148747071808E-1
 2.665832568525859E5     6.638698348690217E-1    1.486435278561335E-1    3.382594704067529E-1   -1.496850021061667E-1    3.386697893015424E-1   -1.498305214557236E-1    6.635773081926400E-1    1.486453818777394E-1
 2.686172504862709E5     6.645737575458029E-1    1.483693951112985E-1    3.375347993135498E-1   -1.494158820229024E-1    3.379210620551144E-1   -1.495601761641968E-1    6.642997532027118E-1    1.483927539681490E-1
 2.706667632120051E5     6.652968446892831E-1    1.480991492955962E-1    3.368071767196560E-1   -1.491449663997536E-1    3.371930523675186E-1   -1.492988082624484E-1    6.650308159774703E-1    1.481383889053439E-1
 2.727319134383292E5     6.660210498345026E-1    1.478222437201085E-1    3.360747203579928E-1   -1.488758074059640E-1    3.364647358802840E-1   -1.490275777790832E-1    6.657543360281943E-1    1.478720677198113E-1
 2.748128204772244E5     6.667362520869730E-1    1.475561273292106E-1    3.353535555502234E-1   -1.486029427828177E-1    3.357394231541228E-1   -1.487562210713224E-1    6.664720948362327E-1    1.476059842984423E-1
 2.769096045510074E5     6.674576833674978E-1    1.472995303001409E-1    3.346335777850045E-1   -1.483314727596070E-1    3.349954972674983E-1   -1.484853486273082E-1    6.671955392553461E-1    1.473312968637178E-1
 2.790223867992730E5     6.681744148547190E-1    1.470227974561213E-1    3.339163030020931E-1   -1.480607158600726E-1    3.342888221966470E-1   -1.482264284399669E-1    6.679112257233115E-1    1.470688811253018E-1
 2.811512892858952E5     6.688985927567206E-1    1.467513460481912E-1    3.331884469700894E-1   -1.477899017580965E-1    3.335494158523905E-1   -1.479445039354697E-1    6.686427844355300E-1    1.467945927168894E-1
 2.832964350060779E5     6.695955319129873E-1    1.464661752003520E-1    3.324536341242820E-1   -1.475105819871385E-1    3.328154746718738E-1   -1.476647729417125E-1    6.693249753697396E-1    1.465137422690583E-1
 2.854579478934632E5     6.702850485109548E-1    1.461975420954713E-1    3.317422400504486E-1   -1.472366472401622E-1    3.321069353761049E-1   -1.473949426039153E-1    6.700722517263784E-1    1.462533527847611E-1
 2.876359528272883E5     6.709712062905626E-1    1.459221266642375E-1    3.310242443546937E-1   -1.469607942334973E-1    3.313826899740560E-1   -1.471272181286666E-1    6.707823749108922E-1    1.459825774195038E-1
 2.898305756396023E5     6.716879231238569E-1    1.456489096927942E-1    3.303227152722123E-1   -1.466853846800208E-1    3.306760885959645E-1   -1.468550133291255E-1    6.715187917645572E-1    1.457115854374787E-1
 2.920419431225354E5     6.723802067844901E-1    1.453724808801668E-1    3.296117399399645E-1   -1.464088025910916E-1    3.299660566533669E-1   -1.465693751179871E-1    6.722409847892905E-1    1.454351852219486E-1
 2.942701830356239E5     6.730959989472566E-1    1.451087430482905E-1    3.289068909438146E-1   -1.461327670827216E-1    3.292464714929966E-1   -1.462972340472859E-1    6.729588092868913E-1    1.451683154911550E-1
 2.965154241131938E5     6.738075617923832E-1    1.448388158067593E-1    3.281963011126752E-1   -1.458555125493941E-1    3.285410686578771E-1   -1.460171490798605E-1    6.736911026280975E-1    1.449106229672150E-1
 2.987777960717941E5     6.745302510097588E-1    1.445730964454490E-1    3.274998378838187E-1   -1.455798577899591E-1    3.278158572847946E-1   -1.457375534084120E-1    6.743976983170293E-1    1.446114586665263E-1
 3.010574296176943E5     6.752391161389061E-1    1.442992740964660E-1    3.267944900729992E-1   -1.452978503123280E-1    3.271253824302711E-1   -1.454542048744140E-1    6.750938238395569E-1    1.443437331903617E-1
 3.033544564544337E5     6.758989838845730E-1    1.440224644006341E-1    3.260948991344513E-1   -1.450201981702827E-1    3.264200837039211E-1   -1.451812127374514E-1    6.757813942729325E-1    1.440570253541092E-1
 3.056690092904338E5     6.766209178248200E-1    1.437465274050120E-1    3.253912399568620E-1   -1.447409923686233E-1    3.257225868218194E-1   -1.449001694530277E-1    6.765019150642141E-1    1.437836541559026E-1
 3.080012218466610E5     6.773275927130072E-1    1.434855601574684E-1    3.247145858924373E-1   -1.444586870081803E-1    3.250221477660952E-1   -1.446191971863108E-1    6.771907287829740E-1    1.435069271226742E-1
 3.103512288643551E5     6.780347810554601E-1    1.431983619355016E-1    3.240080026698022E-1   -1.441780341910577E-1    3.243147736614721E-1   -1.443313338092435E-1    6.778920280416586E-1    1.432230264081220E-1
 3.127191661128128E5     6.787090769183660E-1    1.429214098380704E-1    3.232997144498874E-1   -1.438952057189536E-1    3.236209911348827E-1   -1.440501380354810E-1    6.785858392571656E-1    1.429421267923945E-1
 3.151051703972316E5     6.794284590576131E-1    1.426562656802310E-1    3.226271968889055E-1   -1.436149653620470E-1    3.229123869841954E-1   -1.437613917671472E-1    6.792535945876116E-1    1.426588557910393E-1
 3.175093795666154E5     6.801211715077721E-1    1.423599347761421E-1    3.219285406453889E-1   -1.433383865626232E-1    3.222190960127728E-1   -1.434869204324767E-1    6.799597966916301E-1    1.423664705716097E-1
 3.199319325217355E5     6.808044686269551E-1    1.420811013492592E-1    3.212473333092122E-1   -1.430567021683614E-1    3.215219128751789E-1   -1.431986720510109E-1    6.806459506254086E-1    1.420935388830903E-1
 3.223729692231574E5     6.814744701970408E-1    1.417978846942684E-1    3.205465038115974E-1   -1.427736983332381E-1    3.208228510212925E-1   -1.429120062828095E-1    6.813470160385694E-1    1.417947863310453E-1
 3.248326306993267E5     6.821584912028856E-1    1.415147831447016E-1    3.198679554209510E-1   -1.424934832060119E-1    3.201418052067788E-1   -1.426297409087041E-1    6.820317851125552E-1    1.415320017143729E-1
 3.273110590547157E5     6.828791253942518E-1    1.412458850982992E-1    3.191933709939713E-1   -1.422173759027450E-1    3.194690629050722E-1   -1.423515846806400E-1    6.827402085454435E-1    1.412406485056611E-1
 3.298083974780366E5     6.835870108715282E-1    1.409612909256712E-1    3.184964343425047E-1   -1.419271708387428E-1    3.187959428655380E-1   -1.420679002303178E-1    6.834311436954295E-1    1.409600133321174E-1
 3.323247902505097E5     6.842665946158080E-1    1.406829665513974E-1    3.178254077491519E-1   -1.416494342661601E-1    3.181162112673613E-1   -1.417857560199795E-1    6.841201753306857E-1    1.406765989817243E-1
 3.348603827542018E5     6.849317072688776E-1    1.403963031307110E-1    3.171504035801881E-1   -1.413717327732310E-1    3.174348791923800E-1   -1.415068325090511E-1    6.847991941920253E-1    1.403907590628672E-1
 3.374153214804250E5     6.856308220066826E-1    1.401086335442318E-1    3.164739064697966E-1   -1.410901232914255E-1    3.167445076358200E-1   -1.412171136837958E-1    6.854610994654595E-1    1.400966189310372E-1
 3.399897540381991E5     6.863183965796070E-1    1.398338290237278E-1    3.158120073698130E-1   -1.408158971976927E-1    3.160691082459762E-1   -1.409312910857902E-1    6.861313061259745E-1    1.398099259545201E-1
 3.425838291627830E5     6.870233346580370E-1    1.395547702828669E-1    3.151360693963929E-1   -1.405370876032694E-1    3.154014254023082E-1   -1.406468718315385E-1    6.868127599252015E-1    1.395147548506046E-1
 3.451976967242625E5     6.876864676892888E-1    1.392621622163831E-1    3.144570528321034E-1   -1.402463801005458E-1    3.147392849437424E-1   -1.403721122341450E-1    6.874991900696691E-1    1.392475966671825E-1
 3.478315077362126E5     6.883819491200017E-1    1.389810418019199E-1    3.137842095383154E-1   -1.399731685795843E-1    3.140647099674740E-1   -1.400833209576682E-1    6.881985541299679E-1    1.389567167131259E-1
 3.504854143644205E5     6.890207856417662E-1    1.386850616217732E-1    3.131152427871276E-1   -1.396893263058993E-1    3.133922450341756E-1   -1.397971794843133E-1    6.888590460104916E-1    1.386735805073712E-1
 3.531595699356794E5     6.897240013527096E-1    1.384152313185730E-1    3.124693632217840E-1   -1.394142281538074E-1    3.127225085177417E-1   -1.395157706971762E-1    6.895331471762680E-1    1.383934534822105E-1
 3.558541289466428E5     6.903762559219008E-1    1.381191248600900E-1    3.117958549438963E-1   -1.391354132788659E-1    3.120639571339653E-1   -1.392363042069031E-1    6.901828611351312E-1    1.381028720524830E-1
 3.585692470727532E5     6.910061961883476E-1    1.378289844280413E-1    3.111247390293670E-1   -1.388545491044302E-1    3.113961978812366E-1   -1.389508245672360E-1    6.908511232949064E-1    1.378221122157941E-1
 3.613050811772345E5     6.916831772386957E-1    1.375508410719693E-1    3.104642289775751E-1   -1.385737857863095E-1    3.107253920915524E-1   -1.386683969947893E-1    6.915217496079444E-1    1.375309894421076E-1
 3.640617893201578E5     6.923471262516517E-1    1.372606849665146E-1    3.098081399433675E-1   -1.382998891585521E-1    3.100751941926553E-1   -1.383890799181971E-1    6.921914400576601E-1    1.372430966182030E-1
 3.668395307675686E5     6.930292410524539E-1    1.369873844424434E-1    3.091450829903789E-1   -1.380229107937139E-1    3.094165330883266E-1   -1.381042000876304E-1    6.928372402939086E-1    1.369550241482996E-1
 3.696384660006910E5     6.936877989766423E-1    1.367027301668581E-1    3.084910294805286E-1   -1.377456161862173E-1    3.087573591691832E-1   -1.378284014048281E-1    6.934798133134625E-1    1.366601591487882E-1
 3.724587567251991E5     6.943634245426321E-1    1.364148445661266E-1    3.078261069589229E-1   -1.374682273343784E-1    3.081036775470287E-1   -1.375473185090487E-1    6.941478665940604E-1    1.363809210858208E-1
 3.753005658805580E5     6.950103200714569E-1    1.361275405632928E-1    3.071829424175938E-1   -1.371946584181757E-1    3.074519508078910E-1   -1.372658034320226E-1    6.948048885222663E-1    1.361040662373280E-1
 3.781640576494411E5     6.956443408786841E-1    1.358430161546455E-1    3.065411946524396E-1   -1.369222344989227E-1    3.067879221329886E-1   -1.369859661080194E-1    6.954335794697668E-1    1.358093788712682E-1
 3.810493974672107E5     6.963268125065811E-1    1.355641422491235E-1    3.058945433020007E-1   -1.366449591993835E-1    3.061503852841818E-1   -1.367115383497860E-1    6.961026958194537E-1    1.355402889537337E-1
 3.839567520314787E5     6.969592174942759E-1    1.352772423430281E-1    3.052323300043677E-1   -1.363661061286191E-1    3.055046871422556E-1   -1.364326285798103E-1    6.967364957072332E-1    1.352391412039637E-1
 3.868862893117373E5     6.975885402850189E-1    1.349958423654000E-1    3.045874451985385E-1   -1.360932660806580E-1    3.048547873121756E-1   -1.361556619698003E-1    6.974017584461998E-1    1.349560909738735E-1
 3.898381785590618E5     6.982313297579082E-1    1.347071777712757E-1    3.039379634792921E-1   -1.358235306387503E-1    3.042192124199073E-1   -1.358839165573522E-1    6.980571104903708E-1    1.346783817491782E-1
 3.928125903158922E5     6.988865924361035E-1    1.344230324827946E-1    3.032907892100129E-1   -1.355492640774625E-1    3.035576678271384E-1   -1.356030062076856E-1    6.986868599917051E-1    1.343818695093056E-1
 3.958096964258819E5     6.995412579483357E-1    1.341383022673393E-1    3.026281058626342E-1   -1.352723918123886E-1    3.029305512920450E-1   -1.353362806239178E-1    6.993295815232163E-1    1.340999425477435E-1
 3.988296700438284E5     7.001969067533487E-1    1.338549342191038E-1    3.019806914247866E-1   -1.349899416935019E-1    3.023045005603899E-1   -1.350681766929238E-1    6.999782686312588E-1    1.338136413352531E-1
 4.018726856456762E5     7.008638510314117E-1    1.335737948514936E-1    3.013540946747344E-1   -1.347233396929186E-1    3.016693601100090E-1   -1.347976559192872E-1    7.006482065244268E-1    1.335363610247702E-1
 4.049389190385970E5     7.014718650203455E-1    1.332915932630024E-1    3.007109891424058E-1   -1.344567779908397E-1    3.010260381741359E-1   -1.345183391393000E-1    7.012523548254826E-1    1.332443693265261E-1
 4.080285473711492E5     7.020986872537840E-1    1.330043571700952E-1    3.000614750682367E-1   -1.341740374369026E-1    3.003763192924828E-1   -1.342462962245713E-1    7.019084071339686E-1    1.329694445193766E-1
 4.111417491435081E5     7.027476525035666E-1    1.327179710082136E-1    2.994139321336048E-1   -1.339037411473236E-1    2.997212566860581E-1   -1.339627766434022E-1    7.025476814365831E-1    1.326993095013414E-1
 4.142787042177814E5     7.033857482472406E-1    1.324257678580381E-1    2.987850301845393E-1   -1.336340171488286E-1    2.990971785918002E-1   -1.336967839538598E-1    7.031918273021939E-1    1.324042611388826E-1
 4.174395938283992E5     7.040356672445196E-1    1.321532608023358E-1    2.981447920727542E-1   -1.333587672315656E-1    2.984637276203778E-1   -1.334260984836409E-1    7.038476240003643E-1    1.321243289520504E-1
 4.206246005925882E5     7.046723442428734E-1    1.318612282703116E-1    2.975094850669547E-1   -1.330892109950139E-1    2.978456111426619E-1   -1.331634083244385E-1    7.044904062973045E-1    1.318433612421907E-1
 4.238339085209167E5     7.053186432812412E-1    1.315867898613621E-1    2.968607852485082E-1   -1.328187717313927E-1    2.971947844464006E-1   -1.328864399475581E-1    7.051141431123631E-1    1.315635992993770E-1
 4.270677030279291E5     7.059585376016473E-1    1.313042553080438E-1    2.962354854215096E-1   -1.325472127298744E-1    2.965688912634483E-1   -1.326217696362089E-1    7.057350054969116E-1    1.312762239954408E-1
 4.303261709428567E5     7.066116296368582E-1    1.310241033563970E-1    2.956001029328217E-1   -1.322775414601928E-1    2.959349021722674E-1   -1.323491313637292E-1    7.063717276456205E-1    1.309872457991452E-1
 4.336095005204146E5     7.072438912981933E-1    1.307308917319328E-1    2.949780166422609E-1   -1.320029009135270E-1    2.953029252607476E-1   -1.320754853956410E-1    7.070063612773694E-1    1.307174732584141E-1
 4.369178814516730E5     7.078430516071945E-1    1.304417402373620E-1    2.943252131914046E-1   -1.317226394036963E-1    2.946781212131646E-1   -1.318071907655913E-1    7.076501624040072E-1    1.304289807933806E-1
 4.402515048750198E5     7.084914654052433E-1    1.301644674419990E-1    2.937012399182006E-1   -1.314532214453032E-1    2.940310486785232E-1   -1.315317737832105E-1    7.082738786801248E-1    1.301439278273287E-1
 4.436105633872023E5     7.091289469741008E-1    1.298824521012848E-1    2.930840664916851E-1   -1.311875890247115E-1    2.934206428521119E-1   -1.312670750543903E-1    7.089214325178528E-1    1.298636979486509E-1
 4.469952510544541E5     7.097342031303455E-1    1.295882186916116E-1    2.924466302438372E-1   -1.309149892584241E-1    2.927861691944412E-1   -1.309924538780222E-1    7.095459759956736E-1    1.295819275790647E-1
 4.504057634237097E5     7.103640586631201E-1    1.293010973221939E-1    2.918124148744519E-1   -1.306356838561244E-1    2.921517487813298E-1   -1.307200468405819E-1    7.101722168973774E-1    1.292982349553159E-1
 4.538422975338975E5     7.109888104946975E-1    1.290115401012639E-1    2.911741585724726E-1   -1.303548463743338E-1    2.915228366339924E-1   -1.304489444549740E-1    7.107991505651318E-1    1.290069238674130E-1
 4.573050519273265E5     7.116085955833777E-1    1.287273314730150E-1    2.905495908491580E-1   -1.300856014823570E-1    2.908986707751582E-1   -1.301733634175949E-1    7.114128692163011E-1    1.287330512402927E-1
 4.607942266611566E5     7.122565391917416E-1    1.284462046004617E-1    2.899351606544501E-1   -1.298119532444634E-1    2.902592428896536E-1   -1.298968171706743E-1    7.120049750566280E-1    1.284365789433056E-1
 4.643100233189550E5     7.128960069474828E-1    1.281632664058487E-1    2.893135426510203E-1   -1.295436616916743E-1    2.896309966130655E-1   -1.296158281249026E-1    7.126039366463370E-1    1.281481082920133E-1
 4.678526450223470E5     7.134818552239541E-1    1.278590318636631E-1    2.886833228894487E-1   -1.292606692206938E-1    2.890202674900568E-1   -1.293509894132564E-1    7.132307108607485E-1    1.278595526040634E-1
 4.714222964427450E5     7.140941493034603E-1    1.275640160700271E-1    2.880556200856565E-1   -1.289820247956838E-1    2.883993974947048E-1   -1.290755527786335E-1    7.138719937582243E-1    1.275697185087432E-1
 4.750191838131770E5     7.147162325159498E-1    1.272807961345346E-1    2.874296112536555E-1   -1.287048637069718E-1    2.877733021902345E-1   -1.287998448025774E-1    7.144684050658024E-1    1.272858572963791E-1
 4.786435149402010E5     7.153364601617840E-1    1.270001050343403E-1    2.868154553129577E-1   -1.284218270328918E-1    2.871557183137293E-1   -1.285296030735404E-1    7.150884150914892E-1    1.269887746962987E-1
 4.822954992159092E5     7.159365686221852E-1    1.266976414294162E-1    2.861890913856834E-1   -1.281425416581567E-1    2.865308576252871E-1   -1.282553210308893E-1    7.156805983326791E-1    1.267044744881444E-1
 4.859753476300298E5     7.165604632391988E-1    1.264032747060042E-1    2.855721758215998E-1   -1.278612237587246E-1    2.859291504557248E-1   -1.279784730655109E-1    7.163380698370156E-1    1.264073176857156E-1
 4.896832727821107E5     7.171900105939725E-1    1.261209574086926E-1    2.849645043710762E-1   -1.275876265077221E-1    2.852998040801255E-1   -1.276916824659252E-1    7.169309435481525E-1    1.261235559101631E-1
 4.934194888938060E5     7.178063464837400E-1    1.258227226033220E-1    2.843564989286000E-1   -1.273072875308756E-1    2.846970954318816E-1   -1.274188724265670E-1    7.175584453586481E-1    1.258303889477728E-1
 4.971842118212518E5     7.183654352283969E-1    1.255265300821378E-1    2.837471144201288E-1   -1.270302725186370E-1    2.840889515610787E-1   -1.271391030087034E-1    7.181688931877350E-1    1.255505850756162E-1
 5.009776590675358E5     7.189921942567995E-1    1.252272401734657E-1    2.831274067707424E-1   -1.267495695710571E-1    2.834614447052643E-1   -1.268561030991963E-1    7.187557891561163E-1    1.252426550717342E-1
 5.048000497952673E5     7.195945733248437E-1    1.249356292344067E-1    2.825214499944337E-1   -1.264571851545924E-1    2.828570748692787E-1   -1.265754528502349E-1    7.194024034445382E-1    1.249503193096563E-1
 5.086516048392332E5     7.202203583193564E-1    1.246482904577967E-1    2.819314221571564E-1   -1.261846730297061E-1    2.822487175249080E-1   -1.262919108186205E-1    7.199907664897404E-1    1.246599868527455E-1
 5.125325467191607E5     7.207810832784695E-1    1.243425910486565E-1    2.813252193429000E-1   -1.259002011939191E-1    2.816368298715197E-1   -1.260081807407929E-1    7.205650143800421E-1    1.243695988292722E-1
 5.164430996525706E5     7.213870511555116E-1    1.240485302638495E-1    2.807101696699323E-1   -1.256095959563688E-1    2.810383731454830E-1   -1.257312171691937E-1    7.211798258382557E-1    1.240807337790750E-1
 5.203834895677360E5     7.220187600070146E-1    1.237519837377372E-1    2.801138974047035E-1   -1.253277630159779E-1    2.804390457386206E-1   -1.254497359355275E-1    7.217552419779055E-1    1.237840058024022E-1
 5.243539441167285E5     7.226089134443839E-1    1.234549878941331E-1    2.795176992402511E-1   -1.250452262489241E-1    2.798328151353210E-1   -1.251649880929159E-1    7.223899308603131E-1    1.234774416492480E-1
 5.283546926885745E5     7.231837789948234E-1    1.231548737761297E-1    2.789123055873213E-1   -1.247639381179000E-1    2.792276542869861E-1   -1.248801222294553E-1    7.229596166823936E-1    1.231724909103851E-1
 5.323859664225065E5     7.237712048680655E-1    1.228523881628419E-1    2.783102825505419E-1   -1.244728172938644E-1    2.786257621523344E-1   -1.245924453884155E-1    7.235701290174519E-1    1.228799824659118E-1
 5.364479982213206E5     7.243761195928767E-1    1.225585050619894E-1    2.777168820017351E-1   -1.241838606134779E-1    2.780317404969262E-1   -1.243081451871723E-1    7.241483118736937E-1    1.225831835640244E-1
 5.405410227648258E5     7.249727858562559E-1    1.222547302809251E-1    2.771345996680911E-1   -1.239031282963329E-1    2.774566339063075E-1   -1.240276033644207E-1    7.247508147023863E-1    1.222873193812806E-1
 5.446652765234077E5     7.255307269517023E-1    1.219503421845956E-1    2.765395935713426E-1   -1.236062093077600E-1    2.768633314552310E-1   -1.237404177590892E-1    7.253592383915750E-1    1.219986556933468E-1
 5.488209977716873E5     7.261232872933405E-1    1.216519620534557E-1    2.759514468242339E-1   -1.233225578913966E-1    2.762704205114576E-1   -1.234567292236426E-1    7.259197835505878E-1    1.216953768016702E-1
 5.530084266022880E5     7.266994371841559E-1    1.213528924769432E-1    2.753723504790346E-1   -1.230330592488174E-1    2.757049087504658E-1   -1.231766906944607E-1    7.265219680228476E-1    1.214091245566312E-1
 5.572278049397101E5     7.273116253151745E-1    1.210482711780521E-1    2.748033397290595E-1   -1.227598038209604E-1    2.751182632000365E-1   -1.228922575356657E-1    7.271021419835711E-1    1.211036384553145E-1
 5.614793765543010E5     7.278712191335304E-1    1.207532310279613E-1    2.742202037509628E-1   -1.224742532273588E-1    2.745488326780836E-1   -1.226160074040720E-1    7.276649490992190E-1    1.207956651148380E-1
 5.657633870763436E5     7.284632808113239E-1    1.204466947108325E-1    2.736484023242499E-1   -1.221902741068471E-1    2.739619686769952E-1   -1.223293040230648E-1    7.282073447616326E-1    1.204981376217804E-1
 5.700800840102463E5     7.290252076477191E-1    1.201632506633322E-1    2.730545877830711E-1   -1.218933543890950E-1    2.733789650918692E-1   -1.220360556482296E-1    7.287699644578480E-1    1.202005794441245E-1
 5.744297167488408E5     7.296047078501043E-1    1.198638296940716E-1    2.724898870577280E-1   -1.216058399453281E-1    2.728080066515652E-1   -1.217548650403227E-1    7.293459464631439E-1    1.199033963892267E-1
 5.788125365877954E5     7.301615522380901E-1    1.195637058924168E-1    2.719209630841762E-1   -1.213273885108341E-1    2.722461993507881E-1   -1.214790816827044E-1    7.299104749894655E-1    1.196110786283877E-1
 5.832287967401261E5     7.307338752174636E-1    1.192563526838678E-1    2.713422231085389E-1   -1.210303806049470E-1    2.716752826494636E-1   -1.211881265965176E-1    7.304686344139565E-1    1.193266337742876E-1
 5.876787523508312E5     7.312921248375603E-1    1.189529690040401E-1    2.707719636176269E-1   -1.207496646975209E-1    2.710908388971215E-1   -1.208949434848239E-1    7.310215307899323E-1    1.190298241733472E-1
 5.921626605116295E5     7.318417088601613E-1    1.186507937406323E-1    2.702198742362464E-1   -1.204684169903197E-1    2.705349688037084E-1   -1.206233268774132E-1    7.315538497659911E-1    1.187094412784010E-1
 5.966807802758140E5     7.324089147482978E-1    1.183682525738033E-1    2.696747867599651E-1   -1.201930766429215E-1    2.699655595212125E-1   -1.203279567034303E-1    7.321338818753882E-1    1.184297235829074E-1
 6.012333726732214E5     7.329563339757892E-1    1.180702912221116E-1    2.691162491589020E-1   -1.199085496342260E-1    2.694120317537601E-1   -1.200563572273320E-1    7.326511257175126E-1    1.181371490025218E-1
 6.058207007253073E5     7.335003811845358E-1    1.177779131018141E-1    2.685307955701935E-1   -1.196104987801317E-1    2.688557316241820E-1   -1.197741970914011E-1    7.332223403923078E-1    1.178314297731961E-1
 6.104430294603459E5     7.340492571375525E-1    1.174816459676208E-1    2.679872668375066E-1   -1.193334415082490E-1    2.683117747817937E-1   -1.194993502445699E-1    7.337592777256188E-1    1.175526435685074E-1
 6.151006259287392E5     7.345875446258694E-1    1.172056468179327E-1    2.674361975048180E-1   -1.190504631149251E-1    2.677493757532897E-1   -1.192183966311706E-1    7.343149254513349E-1    1.172627687330202E-1
 6.197937592184512E5     7.351266079477102E-1    1.169171157539974E-1    2.668895452652366E-1   -1.187732559621676E-1    2.671931081330955E-1   -1.189399369022613E-1    7.348379019069099E-1    1.169714223105638E-1
 6.245227004705463E5     7.356508606406633E-1    1.166117373403289E-1    2.663492369697151E-1   -1.185006080146643E-1    2.666483378608376E-1   -1.186540044490549E-1    7.353924167001386E-1    1.166766038179253E-1
 6.292877228948588E5     7.361866364224017E-1    1.163257698482458E-1    2.658033122240973E-1   -1.182339108703834E-1    2.660866901700156E-1   -1.183811687158115E-1    7.359252714697473E-1    1.163921498159102E-1
 6.340891017857760E5     7.367335826353067E-1    1.160347935412716E-1    2.652700632164480E-1   -1.179643512493786E-1    2.655462797965581E-1   -1.181141472483813E-1    7.364533111365651E-1    1.161062022213942E-1
 6.389271145381465E5     7.372539511622818E-1    1.157424504156794E-1    2.647171873732565E-1   -1.176896616522236E-1    2.650044662310563E-1   -1.178407928921090E-1    7.370240694480902E-1    1.158086853148710E-1
 6.438020406633007E5     7.377659984307146E-1    1.154542492045334E-1    2.641762063670068E-1   -1.174167909784984E-1    2.644661470160744E-1   -1.175722772882497E-1    7.375644960171922E-1    1.155234505453478E-1
 6.487141618052023E5     7.383278982358380E-1    1.151776266260724E-1    2.636428821360570E-1   -1.171426811666871E-1    2.639170303814395E-1   -1.172950292283004E-1    7.380837053393970E-1    1.152394171981947E-1
 6.536637617567203E5     7.388421169272226E-1    1.148998477795517E-1    2.630932683769739E-1   -1.168693825017602E-1    2.633791355335380E-1   -1.170287731444506E-1    7.386478556372928E-1    1.149469740702459E-1
 6.586511264760230E5     7.393698035656309E-1    1.146300830208598E-1    2.625513498398783E-1   -1.165948413965034E-1    2.628335660450284E-1   -1.167469674599280E-1    7.391593055479471E-1    1.146784984373824E-1
 6.636765441031042E5     7.398956165898968E-1    1.143334675649326E-1    2.620235152607716E-1   -1.163278158775607E-1    2.623019708705139E-1   -1.164913275610561E-1    7.397285240181549E-1    1.143922041681083E-1
 6.687403049764220E5     7.404319628012084E-1    1.140452113393763E-1    2.614856848883705E-1   -1.160654666369174E-1    2.617696409616145E-1   -1.162271896235382E-1    7.402385596252768E-1    1.141117134806095E-1
 6.738427016496789E5     7.409513562199845E-1    1.137742122398020E-1    2.609485640326490E-1   -1.157925283196730E-1    2.612308332659816E-1   -1.159611263333152E-1    7.407350473207487E-1    1.138380994593741E-1
 6.789840289087215E5     7.415206252473040E-1    1.134835257906786E-1    2.604127921466811E-1   -1.155274440907971E-1    2.606991240511507E-1   -1.157058103371257E-1    7.412872366173895E-1    1.135689228714182E-1
 6.841645837885707E5     7.420440649683790E-1    1.132082168286772E-1    2.598849721305476E-1   -1.152718744134376E-1    2.601618576763371E-1   -1.154365571009497E-1    7.418179951094991E-1    1.132896410344929E-1
 6.893846655905881E5     7.426017614507590E-1    1.129202105523976E-1    2.593549028202267E-1   -1.150095313193021E-1    2.596340224140168E-1   -1.151839562010871E-1    7.423278871369638E-1    1.130230294476890E-1
 6.946445758997592E5     7.430916652889633E-1    1.126494708143219E-1    2.588278189445392E-1   -1.147585025821679E-1    2.590976511553435E-1   -1.149194102927351E-1    7.428607754912928E-1    1.127230162251810E-1
 6.999446186021230E5     7.436013748968192E-1    1.123662611781630E-1    2.582864728395924E-1   -1.144872461949935E-1    2.585679340166552E-1   -1.146615320753895E-1    7.434100963730808E-1    1.124487294822130E-1
 7.052850999023273E5     7.441417566688874E-1    1.120982591640669E-1    2.577650685786916E-1   -1.142388476241889E-1    2.580349269621979E-1   -1.143962015401393E-1    7.439331092865378E-1    1.121816230056740E-1
 7.106663283413178E5     7.446332351898447E-1    1.118292646457259E-1    2.572324246037226E-1   -1.139797422340191E-1    2.575110943045146E-1   -1.141345936769981E-1    7.444782420422122E-1    1.119165053441528E-1
 7.160886148141696E5     7.452051992986294E-1    1.115597414399200E-1    2.567029993090871E-1   -1.137228050050863E-1    2.569823058332061E-1   -1.138900885080315E-1    7.449852045519391E-1    1.116332005028847E-1
 7.215522725880400E5     7.457035304120078E-1    1.112763303609921E-1    2.561785512126871E-1   -1.134778653435833E-1    2.564532478970354E-1   -1.136300666330338E-1    7.454697871766863E-1    1.113761961047184E-1
 7.270576173202734E5     7.462130035232704E-1    1.110145291188567E-1    2.556372678487210E-1   -1.132072271431289E-1    2.559268460899404E-1   -1.133866165661004E-1    7.459968849848480E-1    1.110986675891992E-1
 7.326049670766364E5     7.467181229877001E-1    1.107307637029204E-1    2.551101964043422E-1   -1.129421470202190E-1    2.554036436584662E-1   -1.131374860137463E-1    7.465612466535115E-1    1.108150546080957E-1
 7.381946423496918E5     7.472539392128056E-1    1.104603847608670E-1    2.545887395642644E-1   -1.127053002280425E-1    2.548608116538224E-1   -1.128712547521713E-1    7.470439611084586E-1    1.105548779888663E-1
 7.438269660773217E5     7.477612240379006E-1    1.102039407223117E-1    2.540661090945989E-1   -1.124462585259892E-1    2.543319897313513E-1   -1.126167884750277E-1    7.475927175892100E-1    1.102877245793524E-1
 7.495022636613748E5     7.483048227436578E-1    1.099293071774306E-1    2.535450771137565E-1   -1.122001022967209E-1    2.538002350614389E-1   -1.123627607769464E-1    7.481039937753832E-1    1.100114381704098E-1
 7.552208629864733E5     7.487939994546542E-1    1.096621511105573E-1    2.530151742334895E-1   -1.119376160685778E-1    2.532753165226195E-1   -1.121063721849245E-1    7.485971648758218E-1    1.097474105258107E-1
 7.609830944389519E5     7.493053785061519E-1    1.093912850535820E-1    2.524877377557634E-1   -1.116745950260636E-1    2.527530280313296E-1   -1.118582303614716E-1    7.491222387145589E-1    1.094854251839641E-1
 7.667892909259528E5     7.498247812429703E-1    1.091173712550527E-1    2.519623366432411E-1   -1.114278230549042E-1    2.522348677781706E-1   -1.116162800008659E-1    7.496742698638480E-1    1.092069428677901E-1
 7.726397878946491E5     7.503677113767379E-1    1.088432896076167E-1    2.514370556498773E-1   -1.111650505588140E-1    2.517027245511118E-1   -1.113478422337115E-1    7.501590578760012E-1    1.089505868127241E-1
 7.785349233516312E5     7.509138168684079E-1    1.085646404412336E-1    2.509078487297355E-1   -1.109163317788683E-1    2.511716886134583E-1   -1.110815237678314E-1    7.506830261975220E-1    1.086944064310621E-1
 7.844750378824320E5     7.513808928932559E-1    1.083053107065298E-1    2.503870226077236E-1   -1.106546622488195E-1    2.506398963076515E-1   -1.108283865844527E-1    7.511878519012206E-1    1.084070740690688E-1
 7.904604746712097E5     7.519310538744474E-1    1.080239797398704E-1    2.498686605075552E-1   -1.104052531796470E-1    2.501154306737434E-1   -1.105829140639144E-1    7.517060473837107E-1    1.081200819986536E-1
 7.964915795205662E5     7.524545336850968E-1    1.077353778226404E-1    2.493502699559163E-1   -1.101474041033179E-1    2.496005970498771E-1   -1.103264194610713E-1    7.522442241434035E-1    1.078514427488493E-1
 8.025687008715309E5     7.529503657406769E-1    1.074490541395797E-1    2.488148918747530E-1   -1.098891471115900E-1    2.490797885508652E-1   -1.100672607945180E-1    7.527501154818534E-1    1.075799629399147E-1
 8.086921898236905E5     7.534958308768550E-1    1.071761678746244E-1    2.483094925882231E-1   -1.096379885062794E-1    2.485495293428329E-1   -1.098076728869423E-1    7.532608882781440E-1    1.073027600426077E-1
 8.148624001554718E5     7.539980159670681E-1    1.069105287916567E-1    2.477847198162790E-1   -1.093753038532435E-1    2.480257299276649E-1   -1.095440427270988E-1    7.537817666663268E-1    1.070223416335085E-1
 8.210796883445872E5     7.544995645094315E-1    1.066343534805453E-1    2.472585446529197E-1   -1.091026151035615E-1    2.475088634385053E-1   -1.092910171555724E-1    7.542649729138843E-1    1.067616345575775E-1
 8.273444135886204E5     7.549815298371585E-1    1.063476873493865E-1    2.467413597323896E-1   -1.088490376065275E-1    2.469838014651104E-1   -1.090272101336676E-1    7.547819297550665E-1    1.064731833264990E-1
 8.336569378257846E5     7.555034358829305E-1    1.060650605167025E-1    2.462346379287479E-1   -1.085986347066148E-1    2.464756840937714E-1   -1.087611926158606E-1    7.553137314810159E-1    1.062044126063641E-1
 8.400176257558319E5     7.560082221626362E-1    1.057690154185795E-1    2.457130731422931E-1   -1.083331190027899E-1    2.459632136180364E-1   -1.085073654893828E-1    7.558527270726570E-1    1.059056853012222E-1
 8.464268448611222E5     7.564946876202522E-1    1.055017904935275E-1    2.452078856514142E-1   -1.080686178716896E-1    2.454479377087998E-1   -1.082368746279855E-1    7.563224959921279E-1    1.056331564438050E-1
 8.528849654278599E5     7.570177914980443E-1    1.052127677629909E-1    2.446935745660787E-1   -1.077952934071680E-1    2.449353566113019E-1   -1.079808661296698E-1    7.568328002825275E-1    1.053394925506110E-1
 8.593923605674774E5     7.575258189037404E-1    1.049345269730466E-1    2.441887853953491E-1   -1.075269060139666E-1    2.444232843629053E-1   -1.077068709419251E-1    7.573105779410215E-1    1.050646251052682E-1
 8.659494062381978E5     7.580154332535258E-1    1.046523509338724E-1    2.436813617132257E-1   -1.072670796626478E-1    2.439134179122702E-1   -1.074490033066177E-1    7.578156761858224E-1    1.048001716190419E-1
 8.725564812667536E5     7.585049133180685E-1    1.043468718684963E-1    2.431744519540379E-1   -1.070014726028610E-1    2.434069601097180E-1   -1.071781110903943E-1    7.583043712334950E-1    1.045236869236058E-1
 8.792139673702718E5     7.589883220167111E-1    1.040789910906611E-1    2.426777071845274E-1   -1.067457703124285E-1    2.428997832638446E-1   -1.069212928918071E-1    7.587639075372556E-1    1.042552081753272E-1
 8.859222491783336E5     7.594940629191711E-1    1.037928196027127E-1    2.421775118111352E-1   -1.064711000359402E-1    2.423930938246490E-1   -1.066526036081673E-1    7.592655184066534E-1    1.039593869301732E-1
 8.926817142551860E5     7.599695557334084E-1    1.035108789316502E-1    2.416768726153559E-1   -1.062141266183734E-1    2.419034514499823E-1   -1.063853617238536E-1    7.597665555278881E-1    1.036764612866367E-1
 8.994927531221397E5     7.604463206050170E-1    1.032249583822393E-1    2.411704570026443E-1   -1.059354767217414E-1    2.414068266364130E-1   -1.061326315723477E-1    7.602606811596240E-1    1.033822720503316E-1
 9.063557592801275E5     7.609178106343765E-1    1.029347515479664E-1    2.406728219197807E-1   -1.056656927586953E-1    2.409068409378682E-1   -1.058663674358808E-1    7.607520390234130E-1    1.031117847203475E-1
 9.132711292324457E5     7.614094936036705E-1    1.026719257422373E-1    2.401963772576036E-1   -1.054062521612054E-1    2.404205412809118E-1   -1.055986091200745E-1    7.612316421381103E-1    1.028260440505760E-1
 9.202392625076511E5     7.618722491429712E-1    1.023751403693510E-1    2.397044770599574E-1   -1.051305536453460E-1    2.399249333309549E-1   -1.053374328574970E-1    7.617204443791366E-1    1.025572370708808E-1
 9.272605616826499E5     7.623489781012505E-1    1.020903205406285E-1    2.392159918104125E-1   -1.048724923686771E-1    2.394447706822920E-1   -1.050674456489382E-1    7.621850644716944E-1    1.022671021081651E-1
 9.343354324059531E5     7.628445764421509E-1    1.018189816872878E-1    2.387295952322885E-1   -1.046088559845023E-1    2.389492606591654E-1   -1.048050026468436E-1    7.626468997300990E-1    1.019718258891669E-1
 9.414642834211199E5     7.633078688807757E-1    1.015364031318415E-1    2.382484730271668E-1   -1.043301426396731E-1    2.384671831581277E-1   -1.045483699869271E-1    7.631165491912723E-1    1.016804842406301E-1
 9.486475265903610E5     7.637817990412675E-1    1.012602544161499E-1    2.377734641542021E-1   -1.040819439848107E-1    2.379834266545511E-1   -1.042742222461106E-1    7.635918914085609E-1    1.014261069222259E-1
 9.558855769183410E5     7.642533994480005E-1    1.009616095226734E-1    2.372897006955815E-1   -1.038186769490230E-1    2.374958896970231E-1   -1.040169799448048E-1    7.640544398071691E-1    1.011376990190222E-1
 9.631788525761530E5     7.647338996664199E-1    1.006682961789112E-1    2.368172877628852E-1   -1.035537769464540E-1    2.370260510834217E-1   -1.037621642171182E-1    7.645287075450135E-1    1.008691105328242E-1
 9.705277749254764E5     7.651724952440153E-1    1.003961970194382E-1    2.363348369491868E-1   -1.032952218642867E-1    2.365508589588803E-1   -1.034967146809129E-1    7.649951763385646E-1    1.005901683521170E-1
 9.779327685429282E5     7.656050019652186E-1    1.001474047081310E-1    2.358685553772166E-1   -1.030378642128741E-1    2.360748917154485E-1   -1.032260127398116E-1    7.654588859163136E-1    1.003264589935902E-1
 9.853942612445805E5     7.660928381866486E-1    9.985375598817983E-2    2.354074003456419E-1   -1.027790953045286E-1    2.356051715696529E-1   -1.029750954172554E-1    7.659554384753297E-1    1.000288306229953E-1
 9.929126841106854E5     7.665448168177935E-1    9.958878650933652E-2    2.349377379903783E-1   -1.025204799658801E-1    2.351378843829996E-1   -1.027200028694208E-1    7.664306011086282E-1    9.974429691564748E-2
 1.000488471510578E6     7.670083418663022E-1    9.932784481570173E-2    2.344705805619533E-1   -1.022672629762356E-1    2.346698361810622E-1   -1.024659664799452E-1    7.668721801635050E-1    9.946831615527139E-2
 1.008122061127771E6     7.674560779760671E-1    9.903164916220056E-2    2.340062981086440E-1   -1.020148206550372E-1    2.341966083423214E-1   -1.022014990674702E-1    7.673256202639437E-1    9.921013897968091E-2
 1.015813893985245E6     7.679008202906370E-1    9.876207202287338E-2    2.335393562833388E-1   -1.017592127078127E-1    2.337333384389870E-1   -1.019544527481152E-1    7.677632543809072E-1    9.895848943380826E-2
 1.023564414470923E6     7.683587648174734E-1    9.848224578619294E-2    2.330782667157843E-1   -1.015080299109985E-1    2.332678439107212E-1   -1.017014641050420E-1    7.682179966834183E-1    9.869616735093177E-2
 1.031374070363347E6     7.688136060219113E-1    9.820791733477532E-2    2.326135471528094E-1   -1.012743657284744E-1    2.328012433850611E-1   -1.014556654719537E-1    7.686339302659269E-1    9.841003325346880E-2
 1.039243312857548E6     7.692646437454783E-1    9.791803349998328E-2    2.321557692624891E-1   -1.010349101941507E-1    2.323381566411390E-1   -1.012166027099084E-1    7.691101719000271E-1    9.813058764813813E-2
 1.047172596591111E6     7.696917260225672E-1    9.765707321194275E-2    2.316945938879418E-1   -1.007868868296729E-1    2.318725439209481E-1   -1.009770183514359E-1    7.695966284613815E-1    9.784133432014290E-2
 1.055162379670449E6     7.701678622956681E-1    9.739394682360242E-2    2.312358416957279E-1   -1.005253263877700E-1    2.314227949212402E-1   -1.007296866841018E-1    7.700617210289118E-1    9.757737202460735E-2
 1.063213123697260E6     7.706150802423909E-1    9.716163530308647E-2    2.307760216881065E-1   -1.002895176899649E-1    2.309554072544919E-1   -1.004903919720376E-1    7.704939560763181E-1    9.733308283444937E-2
 1.071325293795198E6     7.710466314301293E-1    9.690055066929533E-2    2.303158002686329E-1   -1.000444073309727E-1    2.305005937239166E-1   -1.002461259334904E-1    7.709532465885757E-1    9.707002101846074E-2
 1.079499358636750E6     7.714849670649122E-1    9.664344829769972E-2    2.298589142450662E-1   -9.980276166516755E-2    2.300368877175546E-1   -1.000070875820749E-1    7.714039691702129E-1    9.680637925091114E-2
 1.087735790470306E6     7.719133958544098E-1    9.638990000118548E-2    2.293990245307964E-1   -9.955213724815835E-2    2.295729856677429E-1   -9.975407058158314E-2    7.718112141944121E-1    9.655407429956275E-2
 1.096035065147453E6     7.723460584975307E-1    9.613045858354080E-2    2.289377435982355E-1   -9.931097837038032E-2    2.291100121983307E-1   -9.951969848839030E-2    7.722828206970916E-1    9.626445197895551E-2
 1.104397662150453E6     7.727845992416581E-1    9.587213306490533E-2    2.284831029384438E-1   -9.906116967706713E-2    2.286453898482491E-1   -9.929098730658344E-2    7.727202326727369E-1    9.600296311795725E-2
 1.112824064619953E6     7.732376265860501E-1    9.560231857570572E-2    2.280264233060714E-1   -9.883123645752653E-2    2.281886834562954E-1   -9.904297512341428E-2    7.731874480624105E-1    9.575235764433342E-2
 1.121314759382903E6     7.736978057481604E-1    9.534745927602846E-2    2.275725630080215E-1   -9.859218231259015E-2    2.277387790819677E-1   -9.880227749627415E-2    7.736145405782472E-1    9.549955875361665E-2
 1.129870236980669E6     7.741366385393973E-1    9.508968618290588E-2    2.271091457966298E-1   -9.836000614373311E-2    2.272649092864582E-1   -9.856249057834476E-2    7.740660000983942E-1    9.524148177944258E-2
 1.138490991697383E6     7.745890883395755E-1    9.481944888578604E-2    2.266606398633617E-1   -9.812827660983214E-2    2.268055699182690E-1   -9.832212484731628E-2    7.745065039903342E-1    9.497177187971859E-2
 1.147177521588496E6     7.750271620743551E-1    9.458426602138108E-2    2.262005532127996E-1   -9.787725790726835E-2    2.263548281060834E-1   -9.807934359929237E-2    7.749522900561717E-1    9.470602301882960E-2
 1.155930328509552E6     7.754734413633204E-1    9.432993795485733E-2    2.257427690834689E-1   -9.763974057938088E-2    2.258925419451183E-1   -9.783961431825164E-2    7.754051715480144E-1    9.446658491286045E-2
 1.164749918145190E6     7.759301454102552E-1    9.403537350997157E-2    2.252824809148984E-1   -9.741281234571060E-2    2.254349912654642E-1   -9.760108506425254E-2    7.758409032874775E-1    9.422089011605098E-2
 1.173636800038349E6     7.763753187358922E-1    9.380741977513747E-2    2.248203652300032E-1   -9.717825564009046E-2    2.249746993237611E-1   -9.736182890156317E-2    7.762817717659239E-1    9.392599727589619E-2
 1.182591487619709E6     7.768247196649103E-1    9.355376579503424E-2    2.243678035774039E-1   -9.692821630236274E-2    2.245153989685955E-1   -9.711607646644786E-2    7.767364137776746E-1    9.368093105014325E-2
 1.191614498237359E6     7.772512928336222E-1    9.330280085767298E-2    2.239182447469109E-1   -9.667725714433170E-2    2.240586470652118E-1   -9.687721273712765E-2    7.772080024794883E-1    9.340831200489892E-2
 1.200706353186678E6     7.776862420165932E-1    9.304857522425301E-2    2.234722305579669E-1   -9.642940136479232E-2    2.235918910659289E-1   -9.664299086012823E-2    7.776376557189635E-1    9.312633097862534E-2
 1.209867577740467E6     7.781324551674980E-1    9.276373551843085E-2    2.230103793331502E-1   -9.619811265264869E-2    2.231465422637059E-1   -9.638510516611146E-2    7.780665122966322E-1    9.289722398711626E-2
 1.219098701179276E6     7.786021695151155E-1    9.251558709098054E-2    2.225547021663877E-1   -9.594896811216755E-2    2.226906268944169E-1   -9.614769797617138E-2    7.785252795029280E-1    9.264893687245428E-2
 1.228400256821998E6     7.790226730066198E-1    9.224223250564145E-2    2.221037060597034E-1   -9.571243888230234E-2    2.222332976422336E-1   -9.589819595945763E-2    7.789544306627438E-1    9.238117180688635E-2
 1.237772782056674E6     7.794656104300460E-1    9.195102079069356E-2    2.216462126370897E-1   -9.546263424480819E-2    2.217718754566706E-1   -9.566436529012406E-2    7.793851020396608E-1    9.208584750459044E-2
 1.247216818371540E6     7.799214923335270E-1    9.169406134127120E-2    2.211973550060987E-1   -9.522243918773179E-2    2.213279285317767E-1   -9.541740463018150E-2    7.798413646377359E-1    9.184043509952919E-2
 1.256732911386322E6     7.803832772460478E-1    9.144922510899094E-2    2.207588486251910E-1   -9.497092860966502E-2    2.208829834119246E-1   -9.516185326832850E-2    7.802904079524871E-1    9.157771170044887E-2
 1.266321610883739E6     7.808015525932516E-1    9.118822294020817E-2    2.203067469257863E-1   -9.472881433095699E-2    2.204375273879835E-1   -9.491454219387783E-2    7.807091778795793E-1    9.130829530221615E-2
 1.275983470841281E6     7.812378005755343E-1    9.091936021443045E-2    2.198585000030501E-1   -9.448320809167841E-2    2.199856477184059E-1   -9.466734144668129E-2    7.811848920193434E-1    9.104233575211004E-2
 1.285719049463211E6     7.816714656497333E-1    9.065744530665373E-2    2.194175768735253E-1   -9.423250234327395E-2    2.195332174835587E-1   -9.441556938241662E-2    7.815976579345095E-1    9.077928909677141E-2
 1.295528909212810E6     7.821079194066590E-1    9.037956667766966E-2    2.189766516166660E-1   -9.398490269156332E-2    2.190970337892308E-1   -9.416489872053378E-2    7.820075712048274E-1    9.051571997739109E-2
 1.305413616844883E6     7.825448025115976E-1    9.009691441865456E-2    2.185378512143076E-1   -9.373648269702008E-2    2.186659348704254E-1   -9.390447658100556E-2    7.824238776981522E-1    9.024638471970892E-2
 1.315373743438491E6     7.829555686511993E-1    8.981551788262492E-2    2.181060979284269E-1   -9.349030170785776E-2    2.182267598786159E-1   -9.365864699169206E-2    7.828894715493802E-1    8.997726724507603E-2
 1.325409864429950E6     7.833850440212441E-1    8.960638767563472E-2    2.176725912839982E-1   -9.323061115308959E-2    2.177799591867627E-1   -9.340902932870887E-2    7.832803984187157E-1    8.967632188940869E-2
 1.335522559646084E6     7.837803682177251E-1    8.930709529100003E-2    2.172344620964592E-1   -9.298417417662121E-2    2.173528284996283E-1   -9.315142949002893E-2    7.836984356779637E-1    8.941042331369950E-2
 1.345712413337699E6     7.841866907406098E-1    8.902466322648470E-2    2.168104810459694E-1   -9.273929731048884E-2    2.169235557996649E-1   -9.290358287443347E-2    7.840871456948889E-1    8.912758334874478E-2
 1.355980014213373E6     7.845851874592787E-1    8.876635874936939E-2    2.163791037152666E-1   -9.249177991688862E-2    2.164952239591685E-1   -9.264974944161593E-2    7.845042324701501E-1    8.885361936932205E-2
 1.366325955473440E6     7.850213405822096E-1    8.847849548567444E-2    2.159630541792873E-1   -9.223317996727153E-2    2.160653540420004E-1   -9.240235971059821E-2    7.849272144137974E-1    8.860073756457822E-2
 1.376750834844268E6     7.854197394106632E-1    8.822201878358417E-2    2.155354438695515E-1   -9.199064639320446E-2    2.156453864820168E-1   -9.215629544697709E-2    7.853500049764701E-1    8.832154263716646E-2
 1.387255254612807E6     7.858382850844634E-1    8.796121636441470E-2    2.151159353992400E-1   -9.174733596404122E-2    2.152352256134528E-1   -9.190043595549865E-2    7.857720191450986E-1    8.807635422623593E-2
 1.397839821661363E6     7.862394631446652E-1    8.767905422568534E-2    2.146938791998757E-1   -9.149751766516720E-2    2.148091853526073E-1   -9.165260169335716E-2    7.861718938898776E-1    8.780373310685768E-2
 1.408505147502673E6     7.866595953132756E-1    8.741252949264347E-2    2.142732307707243E-1   -9.125871258259302E-2    2.143834597087642E-1   -9.140618031995883E-2    7.865354674094867E-1    8.752817457390193E-2
 1.419251848315235E6     7.870344685719074E-1    8.714632346591741E-2    2.138617914658154E-1   -9.101298987385925E-2    2.139701086732295E-1   -9.116278553571691E-2    7.869832459899440E-1    8.727658596533920E-2
 1.430080544978898E6     7.874653104076136E-1    8.688800907156827E-2    2.134572759470389E-1   -9.076588513735373E-2    2.135636533870881E-1   -9.091717500460111E-2    7.873774877564367E-1    8.699479667044090E-2
 1.440991863110751E6     7.878490989026228E-1    8.662355529412448E-2    2.130420587336155E-1   -9.052657581565023E-2    2.131543045340783E-1   -9.068566295356956E-2    7.877739810544656E-1    8.672588731561025E-2
 1.451986433101243E6     7.882329657781952E-1    8.635641248360064E-2    2.126386493815733E-1   -9.028250782373096E-2    2.127414712452564E-1   -9.044142419565655E-2    7.881881422320129E-1    8.647628382435538E-2
 1.463064890150622E6     7.886059113141248E-1    8.608006669680293E-2    2.122173920260474E-1   -9.004854969096540E-2    2.123286646016890E-1   -9.019400615282755E-2    7.885599506444932E-1    8.622262018998267E-2
 1.474227874305625E6     7.889999337316976E-1    8.582727042822343E-2    2.118093812540647E-1   -8.981160994628426E-2    2.119366340933789E-1   -8.995221158803673E-2    7.889630739350020E-1    8.597313619951340E-2
 1.485476030496454E6     7.894079831524090E-1    8.557281741555132E-2    2.114040904598432E-1   -8.957919723087733E-2    2.115259673834598E-1   -8.971892867611687E-2    7.893701395580655E-1    8.571527226132838E-2
 1.496810008574050E6     7.898059132005161E-1    8.533256562175959E-2    2.109988144161757E-1   -8.934355741165810E-2    2.111165193501229E-1   -8.948622123349943E-2    7.897448512605926E-1    8.543991161232428E-2
 1.508230463347619E6     7.901997584507647E-1    8.505483189164045E-2    2.105933855717467E-1   -8.911720470042188E-2    2.107205860481294E-1   -8.924577114913140E-2    7.901563189600900E-1    8.521578510870334E-2
 1.519738054622472E6     7.906019872869273E-1    8.483579826695362E-2    2.101998210235082E-1   -8.887842358315509E-2    2.103146011564538E-1   -8.901981370723558E-2    7.905301159064129E-1    8.494940456633691E-2
 1.531333447238147E6     7.909887632591884E-1    8.459468721202398E-2    2.097963161299568E-1   -8.864440121516004E-2    2.099095902291418E-1   -8.878468415647998E-2    7.909403019135353E-1    8.470595714724834E-2
 1.543017311106810E6     7.913807704425013E-1    8.432047814368313E-2    2.094001391519547E-1   -8.841761889115361E-2    2.095055648359856E-1   -8.855182935739270E-2    7.913017151625649E-1    8.444908698447634E-2
 1.554790321251977E6     7.917653438551679E-1    8.406728251642435E-2    2.089907387784987E-1   -8.819464154116363E-2    2.091045841067503E-1   -8.832276715231174E-2    7.917167525786247E-1    8.420261227507368E-2
 1.566653157847488E6     7.921724008373954E-1    8.382163688049916E-2    2.085870131553201E-1   -8.797107017366089E-2    2.086924519911016E-1   -8.809533750906200E-2    7.920648357186957E-1    8.393779222031572E-2
 1.578606506256824E6     7.925755360856991E-1    8.357302430785325E-2    2.081811321388031E-1   -8.774222140944661E-2    2.082886676848676E-1   -8.785950668370776E-2    7.924496779808189E-1    8.368764914206675E-2
 1.590651057072690E6     7.929449093642207E-1    8.332677269702017E-2    2.077788791495245E-1   -8.751151147876818E-2    2.078914833516353E-1   -8.763432830972473E-2    7.928668465067115E-1    8.345498673573479E-2
 1.602787506156919E6     7.933426792714617E-1    8.308105609512122E-2    2.073747366672110E-1   -8.728648762839986E-2    2.074850810092151E-1   -8.739819310841483E-2    7.932609068308698E-1    8.321024897489934E-2
 1.615016554680682E6     7.937414417496569E-1    8.284668689146006E-2    2.069683506480341E-1   -8.705613649681526E-2    2.070962541796597E-1   -8.717190132611795E-2    7.936538098757829E-1    8.295785734030371E-2
 1.627338909164981E6     7.941529274893592E-1    8.259023430449652E-2    2.065770186417381E-1   -8.682821706453177E-2    2.066691866923943E-1   -8.694897019710500E-2    7.940293677720371E-1    8.270718300648840E-2
 1.639755281521474E6     7.945626327333525E-1    8.235977006215503E-2    2.061763664758207E-1   -8.660364178247205E-2    2.062679820033198E-1   -8.671843313599524E-2    7.944306974185837E-1    8.245949039190739E-2
 1.652266389093622E6     7.949334944500376E-1    8.210215116938542E-2    2.057744465725594E-1   -8.637898337869261E-2    2.058674812850817E-1   -8.649269710785497E-2    7.948202884273875E-1    8.221695728330902E-2
 1.664872954698102E6     7.953448632407906E-1    8.185724393090520E-2    2.053737994224444E-1   -8.614959787505135E-2    2.054620761436942E-1   -8.626149156991683E-2    7.952215963471446E-1    8.196879933258348E-2
 1.677575706666590E6     7.957228689472401E-1    8.159871911650179E-2    2.049659670140446E-1   -8.592292427371359E-2    2.050644011823515E-1   -8.602708218078475E-2    7.955966801682833E-1    8.170502504657673E-2
 1.690375378887833E6     7.961233309378343E-1    8.135451550212897E-2    2.045747734736498E-1   -8.569524442769393E-2    2.046704316403298E-1   -8.580222290869606E-2    7.960016653827117E-1    8.144836759022518E-2
 1.703272710850043E6     7.964879059831721E-1    8.108026181650170E-2    2.041659237169454E-1   -8.546465899818156E-2    2.042596027356653E-1   -8.557084077447913E-2    7.963986279857843E-1    8.119461986910279E-2
 1.716268447683636E6     7.968901882459266E-1    8.084529884164984E-2    2.037653573500434E-1   -8.523259660846795E-2    2.038596364338970E-1   -8.533381020105579E-2    7.967840715066314E-1    8.094434511364233E-2
 1.729363340204262E6     7.972433447732375E-1    8.057882386159716E-2    2.033631249759597E-1   -8.499873026074842E-2    2.034666312471069E-1   -8.510676019187920E-2    7.971604964717321E-1    8.067824595861195E-2
 1.742558144956193E6     7.976425134167112E-1    8.032861857267125E-2    2.029715057201635E-1   -8.476955148405169E-2    2.030687836893725E-1   -8.487284022196012E-2    7.975373215413398E-1    8.042075305477497E-2
 1.755853624256030E6     7.980139585369012E-1    8.005253520659493E-2    2.025790500757006E-1   -8.453603411203130E-2    2.026781082473940E-1   -8.463862346154986E-2    7.979048980764546E-1    8.015795171629307E-2
 1.769250546236744E6     7.984002868887221E-1    7.980554269291835E-2    2.021813838691614E-1   -8.430382524186503E-2    2.022920222773960E-1   -8.440219332276945E-2    7.983141559923145E-1    7.990431825810232E-2
 1.782749684892061E6     7.987727780655787E-1    7.953693892102237E-2    2.017813180088568E-1   -8.407293512326740E-2    2.019024038837181E-1   -8.416855006953168E-2    7.987068450868813E-1    7.964354232840586E-2
 1.796351820121167E6     7.991412060579861E-1    7.927642885143643E-2    2.013927056778790E-1   -8.383546721814950E-2    2.014973709305359E-1   -8.392872999863685E-2    7.990679003882148E-1    7.938322646505852E-2
 1.810057737773773E6     7.995170795011584E-1    7.901695366628694E-2    2.010071816310578E-1   -8.360205392756111E-2    2.011080789217367E-1   -8.368991822582225E-2    7.994257175676330E-1    7.911443591142933E-2
 1.823868229695514E6     7.999391396545830E-1    7.878362254917817E-2    2.006272347433905E-1   -8.336554407473123E-2    2.007270580106683E-1   -8.346043049604239E-2    7.997914751123869E-1    7.886857816651724E-2
 1.837784093773698E6     8.002792622488150E-1    7.851391252455181E-2    2.002471942650727E-1   -8.313328415822219E-2    2.003414763426081E-1   -8.322157950472600E-2    8.001588924336575E-1    7.860785613352334E-2
 1.851806133983411E6     8.006405546264512E-1    7.826407931299748E-2    1.998754020170557E-1   -8.289654464281559E-2    1.999629183411992E-1   -8.298815925294244E-2    8.005614348544258E-1    7.836055063711948E-2
 1.865935160433950E6     8.010113075453796E-1    7.800965041885026E-2    1.994968699411568E-1   -8.266488881914376E-2    1.995835073978058E-1   -8.275177791858548E-2    8.009093443299897E-1    7.809935126149455E-2
 1.880171989415638E6     8.013681161305805E-1    7.773834845833504E-2    1.991121274129057E-1   -8.242730725088854E-2    1.992082947024073E-1   -8.251740084329066E-2    8.013010680302339E-1    7.784108003390566E-2
 1.894517443446981E6     8.017196679490773E-1    7.749066500207354E-2    1.987392250156996E-1   -8.219758218938293E-2    1.988294907324988E-1   -8.227823692309635E-2    8.016438259833647E-1    7.759305749181376E-2
 1.908972351322182E6     8.020688122127352E-1    7.722757356617253E-2    1.983740783589913E-1   -8.196579584558841E-2    1.984520753747313E-1   -8.204440976119720E-2    8.020160815303075E-1    7.733031611714052E-2
 1.923537548159045E6     8.024308601672694E-1    7.697489301849919E-2    1.980108442149288E-1   -8.173305497897214E-2    1.980878483605849E-1   -8.181150632520963E-2    8.023444415128198E-1    7.706800243429252E-2
 1.938213875447196E6     8.028033713867855E-1    7.671756795478110E-2    1.976383126024429E-1   -8.150886484922222E-2    1.977078434090687E-1   -8.158319596550064E-2    8.027029836783575E-1    7.681336518498237E-2
 1.953002181096708E6     8.031424128803160E-1    7.645479731899046E-2    1.972718722219926E-1   -8.128507358908886E-2    1.973547335980344E-1   -8.135216746003779E-2    8.030810127120077E-1    7.655640650312304E-2
 1.967903319487111E6     8.035012569398889E-1    7.619763335583926E-2    1.969093415221428E-1   -8.105911847445278E-2    1.969902021849047E-1   -8.113203668715417E-2    8.034283447945920E-1    7.630643402433200E-2
 1.982918151516703E6     8.038588878782436E-1    7.595658751398703E-2    1.965392950166594E-1   -8.082715047201508E-2    1.966172193850059E-1   -8.089944495984580E-2    8.037869651214247E-1    7.605862680693193E-2
 1.998047544652348E6     8.042268913255047E-1    7.570430138617951E-2    1.961728140129254E-1   -8.060636124331821E-2    1.962463791344832E-1   -8.067361602923619E-2    8.041020283315928E-1    7.579708814919904E-2
 2.013292372979546E6     8.045381643698196E-1    7.544925354036901E-2    1.958074949024484E-1   -8.038167960023482E-2    1.958817181448537E-1   -8.044700596038913E-2    8.044758969341113E-1    7.555157592231306E-2
 2.028653517252947E6     8.049035143940331E-1    7.518551723978262E-2    1.954489383232788E-1   -8.016231674006387E-2    1.955257459748212E-1   -8.022445865195439E-2    8.048334935200498E-1    7.530765310130411E-2
 2.044131864947255E6     8.052506794370503E-1    7.495341698614230E-2    1.950808584935749E-1   -7.993974032043409E-2    1.951639903498997E-1   -8.000653134042451E-2    8.051792799797604E-1    7.504342198262694E-2
 2.059728310308467E6     8.055455804201805E-1    7.470620772647345E-2    1.947160144224581E-1   -7.971969249454122E-2    1.947987284199215E-1   -7.978359898426148E-2    8.055112706206656E-1    7.480724182401323E-2
 2.075443754405562E6     8.058999413170270E-1    7.446076445678639E-2    1.943563892036921E-1   -7.950798680251478E-2    1.944478137305772E-1   -7.956283027266840E-2    8.058642575518898E-1    7.457235224814440E-2
 2.091279105182548E6     8.062757192735995E-1    7.422269088066366E-2    1.940017356427471E-1   -7.928785684658368E-2    1.940809434447240E-1   -7.933937038886134E-2    8.061835021743299E-1    7.432758945315321E-2
 2.107235277510921E6     8.066091648754279E-1    7.397963086090302E-2    1.936465032282889E-1   -7.907196998549773E-2    1.937087057652014E-1   -7.911738995882497E-2    8.065082229776094E-1    7.406861467013523E-2
 2.123313193242529E6     8.069447180264727E-1    7.372946419490442E-2    1.932896399900296E-1   -7.886187100965499E-2    1.933457312314619E-1   -7.890177295691368E-2    8.068826696417207E-1    7.383574316568808E-2
 2.139513781262815E6     8.072848482184792E-1    7.349256099947832E-2    1.929339066567004E-1   -7.865023948498689E-2    1.929880203315552E-1   -7.868563047105868E-2    8.072358251463082E-1    7.359210199190805E-2
 2.155837977544490E6     8.076466142115030E-1    7.324767738427619E-2    1.925655746337954E-1   -7.843502864035920E-2    1.926181545241880E-1   -7.845825621987898E-2    8.075566576697194E-1    7.336540663674823E-2
 2.172286725201612E6     8.079874752989691E-1    7.302122153094330E-2    1.922020443805776E-1   -7.822148725011148E-2    1.922579623108087E-1   -7.824156588943604E-2    8.079010308524124E-1    7.311462438560540E-2
 2.188860974544063E6     8.083333545197999E-1    7.277837700930988E-2    1.918440887505808E-1   -7.800670250269981E-2    1.918947908524102E-1   -7.802066448191930E-2    8.082568318492976E-1    7.286902345995538E-2
 2.205561683132472E6     8.086709392794840E-1    7.254490960197914E-2    1.914841345912348E-1   -7.779887031262102E-2    1.915392586969192E-1   -7.780637167818037E-2    8.086177846928232E-1    7.262977257168089E-2
 2.222389815833514E6     8.090221363952382E-1    7.229469928144369E-2    1.911286011010301E-1   -7.758402798808503E-2    1.911811131426412E-1   -7.758009427772171E-2    8.089672998187575E-1    7.238009483713917E-2
 2.239346344875663E6     8.093685020843077E-1    7.205792194376361E-2    1.907565245396021E-1   -7.737169154475662E-2    1.908166070479190E-1   -7.735786601594175E-2    8.093155048787304E-1    7.214164802809082E-2
 2.256432249905369E6     8.097038365232658E-1    7.183023612046394E-2    1.904022793011371E-1   -7.715752113205461E-2    1.904519768312299E-1   -7.712677050959492E-2    8.096625280039883E-1    7.189798153724353E-2
 2.273648518043640E6     8.100437916375273E-1    7.159009365827351E-2    1.900329570306398E-1   -7.693533376460511E-2    1.900899252481275E-1   -7.689757947063612E-2    8.099939347138454E-1    7.164916742914228E-2
 2.290996143943099E6     8.103872249903243E-1    7.135244699034680E-2    1.896779597957921E-1   -7.672638913046510E-2    1.897301103368614E-1   -7.666609840139521E-2    8.102993694412118E-1    7.139866037668766E-2
 2.308476129845417E6     8.107387554342573E-1    7.111906174474343E-2    1.893224367353761E-1   -7.650981183038219E-2    1.893832698898364E-1   -7.644195549914576E-2    8.106595885298633E-1    7.115314060155878E-2
 2.326089485639235E6     8.110831797553084E-1    7.088480578268003E-2    1.889596533494849E-1   -7.629061396437908E-2    1.890362594503036E-1   -7.621272418647418E-2    8.110039995577810E-1    7.092021754287636E-2
 2.343837228918507E6     8.114314645876590E-1    7.065336944929446E-2    1.886031998852614E-1   -7.607713604755692E-2    1.886898787167292E-1   -7.598276200389451E-2    8.113403462453840E-1    7.067033158277618E-2
 2.361720385041283E6     8.117719263889136E-1    7.038297846695296E-2    1.882398758601358E-1   -7.586040867569582E-2    1.883495221534397E-1   -7.575860359571664E-2    8.116879698008314E-1    7.040734962952398E-2
 2.379739987188969E6     8.121142715449748E-1    7.015922432656679E-2    1.878892978109816E-1   -7.563137790984785E-2    1.880076325415850E-1   -7.553171326758157E-2    8.120025662521736E-1    7.015219869637057E-2
 2.397897076425990E6     8.124460995871187E-1    6.990352072989292E-2    1.875318118547853E-1   -7.541108897079581E-2    1.876654917328744E-1   -7.530679572308570E-2    8.123283325159318E-1    6.991821393180386E-2
 2.416192701759947E6     8.127685570333161E-1    6.965961749889205E-2    1.871837394240574E-1   -7.518482454151572E-2    1.873380026419867E-1   -7.508810844411834E-2    8.126929268685347E-1    6.967891419559140E-2
 2.434627920202243E6     8.131209550998341E-1    6.939942043232862E-2    1.868261307161209E-1   -7.495888497779737E-2    1.870084269231278E-1   -7.486679515628761E-2    8.130110696795995E-1    6.941864606900955E-2
 2.453203796829114E6     8.134728192725879E-1    6.914712203532418E-2    1.864850410112011E-1   -7.472761485780101E-2    1.866712137770791E-1   -7.464876063064105E-2    8.133426337108939E-1    6.916542737558075E-2
 2.471921404843189E6     8.138292158204131E-1    6.889102984161420E-2    1.861488998897906E-1   -7.450387173324449E-2    1.863346466232380E-1   -7.443510827438564E-2    8.136848927392208E-1    6.893690742805804E-2
 2.490781825635486E6     8.141395536595090E-1    6.863892659025535E-2    1.858079774321562E-1   -7.427256272906162E-2    1.860079833925899E-1   -7.421660739316575E-2    8.140131971237696E-1    6.871746775592030E-2
 2.509786148847881E6     8.149641626756037E-1    6.628501624645299E-2    1.866501640696205E-1   -7.312103487009100E-2    1.855007906720392E-1   -7.558940752695587E-2    8.150044405086764E-1    6.926300355601536E-2
 2.528935472436085E6     8.153075528248590E-1    6.619116895405748E-2    1.864151419940852E-1   -7.265776757430667E-2    1.851355566155315E-1   -7.538423886610462E-2    8.152855249250877E-1    6.899310565628818E-2
 2.548230902733043E6     8.156431199964179E-1    6.607792273329573E-2    1.860754114761763E-1   -7.244537285622955E-2    1.847963467887743E-1   -7.518753440844338E-2    8.156082747385134E-1    6.873315125320244E-2
 2.567673554512876E6     8.159733346959481E-1    6.576008543954082E-2    1.857749334483671E-1   -7.219643720976743E-2    1.844916747721288E-1   -7.492969869941780E-2    8.159149450706964E-1    6.852234255813171E-2
 2.587264551055275E6     8.162864862070319E-1    6.556250239326698E-2    1.854640028383956E-1   -7.196309368003004E-2    1.841964929038905E-1   -7.466752572253020E-2    8.161975267064886E-1    6.821605485382480E-2
 2.607005024210399E6     8.165940333870867E-1    6.530207545196531E-2    1.851359510547704E-1   -7.175508089961327E-2    1.839513664952647E-1   -7.435137474305896E-2    8.165398512194346E-1    6.804853869652890E-2
 2.626896114464281E6     8.169949374366623E-1    6.513808238628753E-2    1.848125996103939E-1   -7.155524904120596E-2    1.836349923752533E-1   -7.413252368695736E-2    8.168589431841677E-1    6.795814226593336E-2
 2.646938971004693E6     8.172481763825580E-1    6.466863394497852E-2    1.844851189195847E-1   -7.135073902273995E-2    1.833137302647813E-1   -7.393102752587499E-2    8.171480375478617E-1    6.756422399190534E-2
 2.667134751787555E6     8.175802477899843E-1    6.451540779747196E-2    1.841048141714754E-1   -7.120614744890935E-2    1.830169891678926E-1   -7.367475477808100E-2    8.174478000133200E-1    6.732045549329342E-2
 2.687484623603833E6     8.179055060830527E-1    6.426144427667564E-2    1.838246492782951E-1   -7.095653279915846E-2    1.826992691030171E-1   -7.347822005031028E-2    8.177787101235612E-1    6.712248884963780E-2
 2.707989762146940E6     8.182403429032948E-1    6.409851517654555E-2    1.834874844886985E-1   -7.077696499410839E-2    1.823980309451316E-1   -7.323949313509978E-2    8.180768140980433E-1    6.669044726658561E-2
 2.728651352080688E6     8.185422792857062E-1    6.389262393161510E-2    1.831948706870193E-1   -7.054218383120486E-2    1.821138185885022E-1   -7.299036561708146E-2    8.184287574833050E-1    6.657512920384155E-2
 2.749470587107692E6     8.188614912775110E-1    6.365616466388103E-2    1.828634920952318E-1   -7.032394154214811E-2    1.817978857924819E-1   -7.276075878330204E-2    8.187423665581011E-1    6.626589923279533E-2
 2.770448670038360E6     8.191806123143086E-1    6.347414219667537E-2    1.825183672256686E-1   -7.017010350394393E-2    1.814852844478436E-1   -7.254322482570924E-2    8.190618263965780E-1    6.617373602471660E-2
 2.791586812860380E6     8.195464713481807E-1    6.336672355922383E-2    1.822034080005687E-1   -6.995615285784543E-2    1.811987943704317E-1   -7.230833215076007E-2    8.193672990104841E-1    6.574056495094752E-2
 2.812886236808732E6     8.198242209620231E-1    6.307632631183262E-2    1.818996352535396E-1   -6.973091723288005E-2    1.808685640377299E-1   -7.210143732476967E-2    8.197040687289809E-1    6.564451520838878E-2
 2.834348172436268E6     8.201075727560093E-1    6.280154025412807E-2    1.815782412769144E-1   -6.951443148457752E-2    1.805863154257376E-1   -7.185536270536143E-2    8.200349795476877E-1    6.544876095609541E-2
 2.855973859684773E6     8.204460750753979E-1    6.254242689551229E-2    1.812413668344649E-1   -6.935335798125966E-2    1.802402573468736E-1   -7.167510726010862E-2    8.203168714840912E-1    6.511340624530355E-2
 2.877764547956619E6     8.207754561277030E-1    6.238998331136659E-2    1.809790042019503E-1   -6.907901338030560E-2    1.799364832888527E-1   -7.143174892781581E-2    8.206441949642287E-1    6.494098797591602E-2
 2.899721496186967E6     8.211096924505064E-1    6.238571857567130E-2    1.806415842235943E-1   -6.890255160742823E-2    1.796663457552026E-1   -7.120465028837475E-2    8.209662092246828E-1    6.478276305182100E-2
 2.921845972916440E6     8.214224649616629E-1    6.191138369926704E-2    1.803077283252600E-1   -6.872474517503598E-2    1.793422180280551E-1   -7.098249013465575E-2    8.212780168034659E-1    6.446623867287009E-2
 2.944139256364495E6     8.217493299312114E-1    6.178800673697096E-2    1.800113956006692E-1   -6.850364577401613E-2    1.790664485418726E-1   -7.073916528239764E-2    8.216394005234766E-1    6.438847564588408E-2
 2.966602634503201E6     8.220206079768644E-1    6.137083575624189E-2    1.796543517049387E-1   -6.833838655906042E-2    1.787399228834138E-1   -7.055461341992542E-2    8.219582304969588E-1    6.406881965108993E-2
 2.989237405131679E6     8.223804938126932E-1    6.126220177999354E-2    1.793619946031905E-1   -6.813019545816000E-2    1.784621447627137E-1   -7.029590411601748E-2    8.222795051266835E-1    6.396528046918225E-2
 3.012044875951098E6     8.225300779241367E-1    6.181934293711868E-2    1.790716606109622E-1   -6.840843337540968E-2    1.784628786059384E-1   -6.925790151733369E-2    8.227245233886966E-1    6.357486003121328E-2
 3.035026364640187E6     8.229047890267870E-1    6.169879105032591E-2    1.787967744643588E-1   -6.816997146170235E-2    1.781291634716965E-1   -6.908088088716124E-2    8.229950571309848E-1    6.322957188952204E-2
 3.058183198931389E6     8.231727834355330E-1    6.135210471020392E-2    1.784629684079493E-1   -6.800901963333669E-2    1.778150557170047E-1   -6.888055953253401E-2    8.232988651549568E-1    6.296616863162416E-2
 3.081516716687564E6     8.234363571351342E-1    6.114252782108067E-2    1.781589343894532E-1   -6.777334645377098E-2    1.775210046148621E-1   -6.866099437767598E-2    8.236293117181469E-1    6.280030361589752E-2
 3.105028265979277E6     8.237811166767284E-1    6.095746162432135E-2    1.778660426190467E-1   -6.755715473015574E-2    1.772176310593302E-1   -6.845821439229913E-2    8.238835924969116E-1    6.237590851127771E-2
 3.128719205162701E6     8.240377376391979E-1    6.063760485686887E-2    1.775379838691533E-1   -6.738156250251956E-2    1.769038327141948E-1   -6.826067624070789E-2    8.241995674676056E-1    6.218643415608534E-2
 3.152590902958065E6     8.243209861003532E-1    6.020553857080261E-2    1.772141347053557E-1   -6.721978627375384E-2    1.766255604247897E-1   -6.802903589743534E-2    8.244670813689186E-1    6.190529678926479E-2
 3.176644738528751E6     8.246311058558342E-1    5.990942291699584E-2    1.769386410256080E-1   -6.698858978233992E-2    1.763469393693899E-1   -6.779600799485527E-2    8.247934807616690E-1    6.162752058986601E-2
 3.200882101560967E6     8.249336733760105E-1    5.975067916102898E-2    1.766495966009693E-1   -6.676795113247735E-2    1.760374780033765E-1   -6.762335839485484E-2    8.250703890837972E-1    6.137670591496008E-2
 3.225304392344028E6     8.252324804558737E-1    5.955599464028885E-2    1.763467912233770E-1   -6.659120647914908E-2    1.757403086887610E-1   -6.742187889329378E-2    8.253268622923560E-1    6.102423455196849E-2
 3.249913021851289E6     8.255370372641201E-1    5.931823685652909E-2    1.760695312142115E-1   -6.635568185605711E-2    1.754567583787585E-1   -6.719843338598298E-2    8.257133820471916E-1    6.105910438680872E-2
 3.274709411821612E6     8.257878592718708E-1    5.891946035583212E-2    1.757396668467464E-1   -6.619363505839841E-2    1.751714288087149E-1   -6.698532125308543E-2    8.259354054190527E-1    6.063700498701136E-2
 3.299694994841541E6     8.261060877442935E-1    5.879651153615285E-2    1.754885320915840E-1   -6.596230359135523E-2    1.748606838273771E-1   -6.681762433172866E-2    8.262231750524754E-1    6.035322337465934E-2
 3.324871214428060E6     8.264226286554782E-1    5.827284833050736E-2    1.751924670159160E-1   -6.563327275423989E-2    1.744637568136596E-1   -6.676923999513701E-2    8.264765509918784E-1    6.025928519817070E-2
 3.350239525111979E6     8.266920816985792E-1    5.806811288006495E-2    1.749095502089245E-1   -6.542899003053222E-2    1.741906712019017E-1   -6.654457196440329E-2    8.267358267098273E-1    5.997956109248379E-2
 3.375801392522001E6     8.270092947798554E-1    5.800206989479060E-2    1.746109486714152E-1   -6.525165260077688E-2    1.738701635259680E-1   -6.637656086745024E-2    8.270410129026949E-1    5.971868146741256E-2
 3.401558293469354E6     8.272782606507757E-1    5.790639381694791E-2    1.743279928099681E-1   -6.515593142388428E-2    1.736644846964971E-1   -6.604594876944381E-2    8.273653409052463E-1    5.936081497470800E-2
 3.427511716033138E6     8.276264022079332E-1    5.769323815604609E-2    1.740354918175199E-1   -6.496000088980178E-2    1.733685674680746E-1   -6.585421251753848E-2    8.275831199269571E-1    5.888379094159012E-2
 3.453663159646295E6     8.278883778672806E-1    5.732298296168084E-2    1.737408729796751E-1   -6.479939188962416E-2    1.730941984534798E-1   -6.564781762159773E-2    8.278753700285312E-1    5.870548922601432E-2
 3.480014135182226E6     8.281594637004386E-1    5.715725433865759E-2    1.734596455277281E-1   -6.458213835185046E-2    1.727944039082875E-1   -6.544881659094128E-2    8.281628550056185E-1    5.852761743796431E-2
 3.506566165042107E6     8.284904611164591E-1    5.716460593013282E-2    1.731605216699147E-1   -6.450865825161842E-2    1.726426030304713E-1   -6.512097783784887E-2    8.285580453426246E-1    5.834647148424751E-2
 3.533320783242811E6     8.287457409222971E-1    5.679230548647782E-2    1.728532137806036E-1   -6.429477517683377E-2    1.723508702363987E-1   -6.491913236558416E-2    8.288664257003983E-1    5.833208519471481E-2
 3.560279535505542E6     8.290239199357994E-1    5.659879758400396E-2    1.726063017559584E-1   -6.406949712627454E-2    1.720626607981360E-1   -6.473740721978422E-2    8.290980747021007E-1    5.792329168331201E-2
 3.587443979345170E6     8.293492565386481E-1    5.627411531152969E-2    1.722891551488647E-1   -6.393009521544121E-2    1.717758456624352E-1   -6.452035630869379E-2    8.293621890211225E-1    5.764594394379928E-2
 3.614815684160168E6     8.296175780627877E-1    5.597769930607285E-2    1.719946666652645E-1   -6.373227876628632E-2    1.715295407710661E-1   -6.429996240695363E-2    8.296969810548044E-1    5.747783718438837E-2
 3.642396231323309E6     8.299562481731992E-1    5.575733115564430E-2    1.717313941447683E-1   -6.352573514982945E-2    1.711839363263511E-1   -6.417051869105744E-2    8.299277708719714E-1    5.704009290574928E-2
 3.670187214273024E6     8.302802870026572E-1    5.476853902542164E-2    1.714410144509768E-1   -6.267557442456810E-2    1.705049800145893E-1   -6.485577101900723E-2    8.299904311317267E-1    5.701802901261881E-2
 3.698190238605455E6     8.305410437445405E-1    5.451142850750900E-2    1.711499032303269E-1   -6.247808135352726E-2    1.701962157846894E-1   -6.468966475911039E-2    8.302886736202356E-1    5.666875994298187E-2
 3.726406922167240E6     8.308597078631984E-1    5.426305711350088E-2    1.709106042743866E-1   -6.225954993750989E-2    1.699429298736843E-1   -6.447942399518498E-2    8.306138081437118E-1    5.658159976983681E-2
 3.754838895148946E6     8.311035562338186E-1    5.402903182349714E-2    1.706027754807542E-1   -6.208575054317996E-2    1.696850994061844E-1   -6.426196612353992E-2    8.308706682954453E-1    5.618403559750931E-2
 3.783487800179276E6     8.312698801487061E-1    5.404944011353115E-2    1.703635797418271E-1   -6.201571815698979E-2    1.694599247540744E-1   -6.375652161500654E-2    8.311518564902638E-1    5.586489086880511E-2
 3.812355292419964E6     8.315606488806426E-1    5.383295558742641E-2    1.701043686875941E-1   -6.182045637994585E-2    1.691522749520353E-1   -6.360175958909396E-2    8.314526955210229E-1    5.560289595974428E-2
 3.841443039661395E6     8.318227505873949E-1    5.355093880815776E-2    1.698246055888602E-1   -6.161304612505261E-2    1.688704658320411E-1   -6.340994594189026E-2    8.317750198891966E-1    5.547178172262036E-2
 3.870752722418987E6     8.320575760659809E-1    5.343277347503091E-2    1.695392513461959E-1   -6.142013791040676E-2    1.686014753282710E-1   -6.319354212947495E-2    8.319968696240051E-1    5.527819990596597E-2
 3.900286034030236E6     8.323319024505190E-1    5.318816155568144E-2    1.692906130258242E-1   -6.121413660557867E-2    1.683155407478862E-1   -6.302687997867766E-2    8.323354202013701E-1    5.512591437719463E-2
 3.930044680752580E6     8.326168221384384E-1    5.291910089192233E-2    1.690123930938393E-1   -6.101998917868057E-2    1.680429627483563E-1   -6.282997051573393E-2    8.325997337065189E-1    5.482512335413836E-2
 3.960030381861967E6     8.328802160581366E-1    5.258139810895087E-2    1.687552098371690E-1   -6.081801296428995E-2    1.677743288208432E-1   -6.264368097534592E-2    8.328185510006654E-1    5.442257472757294E-2
 3.990244869752173E6     8.331738450975810E-1    5.235303912233844E-2    1.684514476128471E-1   -6.066035920141420E-2    1.674808620740832E-1   -6.246727093340603E-2    8.331436091939276E-1    5.435984914907720E-2
 4.020689890034929E6     8.334280030760820E-1    5.260380017235636E-2    1.682011078333652E-1   -6.079451780136702E-2    1.674576690854417E-1   -6.178365645285437E-2    8.335224380934954E-1    5.402578906623991E-2
 4.051367201640718E6     8.337165219657232E-1    5.246960371981559E-2    1.679068147112640E-1   -6.064334442491136E-2    1.671668359511177E-1   -6.162716730947602E-2    8.336296841326325E-1    5.347116536245314E-2
 4.082278576920427E6     8.340021790050789E-1    5.211457515170607E-2    1.676702692344793E-1   -6.043514766158960E-2    1.669000812442938E-1   -6.142929482055964E-2    8.339554610095462E-1    5.336535443290704E-2
 4.113425801747740E6     8.342688737178954E-1    5.197699966784471E-2    1.674037457468100E-1   -6.022159846319448E-2    1.666407529401300E-1   -6.124385814213627E-2    8.342867480563240E-1    5.329139394750450E-2
 4.144810675622302E6     8.344894601905964E-1    5.169931020651388E-2    1.671542987816040E-1   -6.001295896217348E-2    1.663752888733142E-1   -6.105528724615767E-2    8.345579993241660E-1    5.299674048765345E-2
 4.176435011773718E6     8.347642246736744E-1    5.151123277786059E-2    1.668853492531431E-1   -5.983680867660251E-2    1.661368345333400E-1   -6.082692943369402E-2    8.348438089268215E-1    5.288607738550475E-2
 4.208300637266261E6     8.350176401497708E-1    5.110962599288105E-2    1.665847331713269E-1   -5.967062809941629E-2    1.658461363254391E-1   -6.066430744176218E-2    8.350653508269492E-1    5.251533567569221E-2
 4.240409393104453E6     8.352590592553618E-1    5.095434974645720E-2    1.663484659451059E-1   -5.945529856067622E-2    1.656136993707896E-1   -6.044535264547408E-2    8.353916258904288E-1    5.246078166640359E-2
 4.272763134339464E6     8.355316532209569E-1    5.079733211939726E-2    1.661025193050814E-1   -5.926572727415159E-2    1.653537111260378E-1   -6.024796508150435E-2    8.356710911945729E-1    5.226719060094653E-2
 4.305363730176185E6     8.357995243939610E-1    5.051563460929007E-2    1.658018601642474E-1   -5.912702825981778E-2    1.650689772241118E-1   -6.008415134308684E-2    8.359029581196913E-1    5.202492434637047E-2
 4.338213064081349E6     8.360197927786569E-1    5.000202057701376E-2    1.655653743527865E-1   -5.877055992518788E-2    1.647375761978268E-1   -6.002226190195280E-2    8.362096391865417E-1    5.202941699807066E-2
 4.371313033892244E6     8.362883047345715E-1    4.969600304703490E-2    1.653063150671597E-1   -5.857362547372923E-2    1.644696733468266E-1   -5.984979976762105E-2    8.364726954067764E-1    5.173113038129529E-2
 4.404665551926396E6     8.365248729663384E-1    4.954376807340504E-2    1.650432166637174E-1   -5.838913395123029E-2    1.641883442527134E-1   -5.968480269137456E-2    8.367046161187556E-1    5.138551709290858E-2
 4.438272545092077E6     8.368453791183204E-1    4.934147348316915E-2    1.647795979047901E-1   -5.820910608745963E-2    1.639264666112990E-1   -5.950331959661362E-2    8.370073636724902E-1    5.132611408660773E-2
 4.472135954999580E6     8.370987575922918E-1    4.908606223278208E-2    1.645075601559517E-1   -5.802979351482682E-2    1.636969116246705E-1   -5.928392641917376E-2    8.372857021410024E-1    5.108625104537132E-2
 4.506257738073424E6     8.373393494934375E-1    4.889245460960288E-2    1.642612577594298E-1   -5.780690713652939E-2    1.634085105196305E-1   -5.913635773159633E-2    8.374630820852011E-1    5.055800730020570E-2
 4.540639865665382E6     8.376023811473557E-1    4.887651798855592E-2    1.639770255684203E-1   -5.780741736090181E-2    1.632508876047459E-1   -5.878761626926114E-2    8.377979120335988E-1    5.032593402217279E-2
 4.575284324168356E6     8.379358794325619E-1    4.862754785249776E-2    1.637448668622059E-1   -5.760844152931936E-2    1.630134618491401E-1   -5.860221005550635E-2    8.381296963613651E-1    5.028833158499255E-2
 4.610193115131186E6     8.381579881911266E-1    4.785164530869809E-2    1.634610885120724E-1   -5.705314575646930E-2    1.625164696441126E-1   -5.893432415640082E-2    8.382253782523554E-1    5.013775494000453E-2
 4.645368255374223E6     8.383876354606591E-1    4.760228290524547E-2    1.631900176331904E-1   -5.687414315305043E-2    1.622340027382675E-1   -5.878286157587857E-2    8.384244640140546E-1    4.964536766460627E-2
 4.680811777105891E6     8.386111439531823E-1    4.740935860999508E-2    1.629521246031267E-1   -5.665425501908728E-2    1.619820167188650E-1   -5.859297689140226E-2    8.387318954656603E-1    4.952927766502912E-2
 4.716525728040087E6     8.388736433853954E-1    4.709194396826184E-2    1.626897936062187E-1   -5.650114047967086E-2    1.617295473309170E-1   -5.841476336115723E-2    8.389398911629441E-1    4.926450128241094E-2
 4.752512171514469E6     8.391519537769936E-1    4.683963454015497E-2    1.624620027114194E-1   -5.627727074183569E-2    1.614721816285176E-1   -5.825976529400144E-2    8.392167689531109E-1    4.910074208305258E-2
 4.788773186609713E6     8.393649465189427E-1    4.658975250679802E-2    1.621935529382358E-1   -5.610738135273304E-2    1.612225446968007E-1   -5.807895708864211E-2    8.394804620788388E-1    4.887717435832871E-2
 4.825310868269563E6     8.397287937434385E-1    4.603826644626554E-2    1.618698695579078E-1   -5.580561119804114E-2    1.609325710310972E-1   -5.823970016737758E-2    8.396718046107728E-1    4.877640474081391E-2
 4.862127327421905E6     8.399928165625581E-1    4.581461518815477E-2    1.616313534985380E-1   -5.561086302057869E-2    1.606900422972440E-1   -5.805365297329777E-2    8.399764406084897E-1    4.862770462718294E-2
 4.899224691100715E6     8.401913590793181E-1    4.551544247567892E-2    1.613652367308607E-1   -5.545138839113537E-2    1.604474626547419E-1   -5.786724365616642E-2    8.402653489421339E-1    4.848958848279245E-2
 4.936605102568937E6     8.404274687150007E-1    4.527721902026523E-2    1.611416266039352E-1   -5.523320138160855E-2    1.602243898263733E-1   -5.764851871312246E-2    8.404981863208598E-1    4.833148265197022E-2
 4.974270721442348E6     8.406579523394679E-1    4.509109466083852E-2    1.608625615958665E-1   -5.507036048693169E-2    1.599794694808729E-1   -5.746329841269111E-2    8.406963670762739E-1    4.804481999863642E-2
 5.012223723814265E6     8.409330708817347E-1    4.483189740540183E-2    1.606300622415319E-1   -5.486991556625440E-2    1.597039095076160E-1   -5.734046972142996E-2    8.409084433271672E-1    4.762815134519707E-2
 5.050466302381308E6     8.411828513563711E-1    4.459956622159697E-2    1.604038854423604E-1   -5.463639671806823E-2    1.594560297005857E-1   -5.718629227731100E-2    8.412091146641282E-1    4.737719822105682E-2
 5.089000666570071E6     8.413953940949414E-1    4.433069112069006E-2    1.601635433999468E-1   -5.445646060067188E-2    1.592078269246953E-1   -5.701572130141004E-2    8.414017852192801E-1    4.706761231084293E-2
 5.127829042664761E6     8.416255998026929E-1    4.411296792981869E-2    1.599315774129967E-1   -5.427092576251186E-2    1.589796107625230E-1   -5.682355521209034E-2    8.416908379711249E-1    4.688642794717238E-2
 5.166953673935857E6     8.418725636762504E-1    4.386457749106959E-2    1.596738387511730E-1   -5.409676841624989E-2    1.587274061281372E-1   -5.666894513624122E-2    8.419238649969439E-1    4.667779851217318E-2
 5.206376820769652E6     8.421381297093634E-1    4.364570500411941E-2    1.594282064377062E-1   -5.390220205682220E-2    1.584839745755205E-1   -5.649774287801435E-2    8.421300284804965E-1    4.622591776433702E-2
 5.246100760798878E6     8.423429476099793E-1    4.338526561639057E-2    1.591615177024081E-1   -5.376883387240379E-2    1.582200669273638E-1   -5.638258748734561E-2    8.423518250643734E-1    4.590045451355938E-2
 5.286127789034322E6     8.426233829511739E-1    4.314127859424927E-2    1.589318413233021E-1   -5.356225031347396E-2    1.579816287542891E-1   -5.619473389781086E-2    8.425934450738215E-1    4.593268082960800E-2
 5.326460217997355E6     8.428465817213913E-1    4.402624226229231E-2    1.587868796419712E-1   -5.411793062762227E-2    1.582158208388859E-1   -5.492118308496791E-2    8.431372004330223E-1    4.549128086179813E-2
 5.367100377853584E6     8.430726431287584E-1    4.378561161463577E-2    1.585092357137336E-1   -5.397450671204337E-2    1.579793030868764E-1   -5.475911472439068E-2    8.433651528157344E-1    4.506553179349259E-2
 5.408050616547454E6     8.433343722658011E-1    4.353889629188931E-2    1.582872177253118E-1   -5.378136596438522E-2    1.577244035640813E-1   -5.461976874309118E-2    8.435700878770328E-1    4.490397223796676E-2
 5.449313299937895E6     8.435463123844591E-1    4.329143640595460E-2    1.580515912933963E-1   -5.358402633154870E-2    1.575056227201916E-1   -5.440650079593086E-2    8.438153345407281E-1    4.484075950701789E-2
 5.490890811935049E6     8.437210464703117E-1    4.192654247862650E-2    1.577109588080137E-1   -5.266273405310234E-2    1.568236134428425E-1   -5.530049175306005E-2    8.437966656395673E-1    4.475760925792185E-2
 5.532785554637930E6     8.439478965831821E-1    4.169999637769536E-2    1.574763424093785E-1   -5.249572918337824E-2    1.565905625976471E-1   -5.511174872953122E-2    8.440234635028888E-1    4.463501389727059E-2
 5.574999948473252E6     8.441871044409204E-1    4.252616215608876E-2    1.573472967609022E-1   -5.302244433876127E-2    1.567913298405954E-1   -5.389859576719832E-2    8.445003687374281E-1    4.396595726802680E-2
 5.617536432335250E6     8.444292834979326E-1    4.233333307185717E-2    1.571084488981130E-1   -5.285127018051991E-2    1.565696606105347E-1   -5.370265393224213E-2    8.447142037301205E-1    4.383625611700305E-2
 5.660397463726575E6     8.446607143071511E-1    4.206707364650450E-2    1.568628950512443E-1   -5.268922839330417E-2    1.563459648328119E-1   -5.356861502873425E-2    8.449536677479745E-1    4.341833594773179E-2
 5.703585518900323E6     8.449634383749932E-1    4.070095045581681E-2    1.565314037097432E-1   -5.179613309432501E-2    1.556771865883070E-1   -5.444327310836052E-2    8.449269758193313E-1    4.348233180866380E-2
 5.747103093003022E6     8.451907040313842E-1    4.044766044919821E-2    1.562826355792658E-1   -5.163176079710133E-2    1.554452782744777E-1   -5.428782797598878E-2    8.451830228405909E-1    4.313126428114000E-2
 5.790952700218840E6     8.453846187044171E-1    4.019484410870502E-2    1.560357040411328E-1   -5.147103051080358E-2    1.552060237049519E-1   -5.414496633802839E-2    8.453666150566210E-1    4.270407188338065E-2
 5.835136873914825E6     8.456113158093712E-1    4.110741552548397E-2    1.559236875687195E-1   -5.201080299679534E-2    1.554135503330208E-1   -5.292954433689924E-2    8.458635049495877E-1    4.228238930605586E-2
 5.879658166787256E6     8.458542812512890E-1    4.088544547193201E-2    1.556927496325967E-1   -5.181350183908893E-2    1.551936689539749E-1   -5.272687339156569E-2    8.460459346170004E-1    4.204746805615673E-2
 5.924519151009166E6     8.460170532706845E-1    4.062805970344940E-2    1.554663014956923E-1   -5.162262237049589E-2    1.549853662781032E-1   -5.254439164992031E-2    8.463125387393965E-1    4.190707648783740E-2
 5.969722418378883E6     8.462514489296936E-1    4.035484087873742E-2    1.552488560006321E-1   -5.144641787506952E-2    1.547526506562760E-1   -5.235834803780661E-2    8.465466129777330E-1    4.179946253963512E-2
 6.015270580469812E6     8.465228401510243E-1    4.012192797051267E-2    1.549986706257497E-1   -5.129505485300032E-2    1.545106554929994E-1   -5.223224347997683E-2    8.467086606886173E-1    4.140754378873491E-2
 6.061166268781302E6     8.467526498856917E-1    3.989447819159333E-2    1.547523533787708E-1   -5.115156969783283E-2    1.542926739776144E-1   -5.205911267204042E-2    8.469792300432054E-1    4.102902426499144E-2
 6.107412134890671E6     8.469026210277715E-1    3.952317461951762E-2    1.545358418986675E-1   -5.087445140998970E-2    1.539955599260334E-1   -5.195013910076315E-2    8.471349928279671E-1    4.090017102886060E-2
 6.154010850606443E6     8.471414998753711E-1    3.929675096361082E-2    1.543075007957498E-1   -5.068956184872104E-2    1.537682186417766E-1   -5.175738294012509E-2    8.473534063886332E-1    4.075543119223002E-2
 6.200965108122637E6     8.474149751292454E-1    3.902959465163587E-2    1.540805290805214E-1   -5.055521735255217E-2    1.535497378341618E-1   -5.159260230024199E-2    8.475567927793020E-1    4.048610706044836E-2
 6.248277620174343E6     8.475718255161795E-1    3.877560520717170E-2    1.538577393685677E-1   -5.035401340913062E-2    1.533343578940342E-1   -5.140859708763363E-2    8.477938871366044E-1    4.001026664694179E-2
 6.295951120194497E6     8.478192041587078E-1    3.855377137494471E-2    1.536226977790024E-1   -5.019774911285575E-2    1.531048437537769E-1   -5.125533181249928E-2    8.479823801128396E-1    3.975785189768272E-2
 6.343988362471664E6     8.480246840031530E-1    3.841598658892886E-2    1.533842283889225E-1   -5.013732979700227E-2    1.529785980386614E-1   -5.099763927455856E-2    8.482036769676073E-1    3.950246023684176E-2
 6.392392122309345E6     8.482562610164917E-1    3.815038266552772E-2    1.531671846886061E-1   -4.996964769295600E-2    1.527643603045479E-1   -5.082533742606805E-2    8.484198495535950E-1    3.924782425612759E-2
 6.441165196186168E6     8.484504958794137E-1    3.790162199892140E-2    1.529416637098436E-1   -4.980087344078882E-2    1.525330355614562E-1   -5.066951473116283E-2    8.486146809096768E-1    3.899278791341777E-2
 6.490310401917514E6     8.486495724875476E-1    3.766043897836509E-2    1.527112713469810E-1   -4.964430321186755E-2    1.523271565353536E-1   -5.048792651153812E-2    8.488590453168111E-1    3.887190689771036E-2
 6.539830578818345E6     8.489033379963195E-1    3.738831008920887E-2    1.524809434363860E-1   -4.950633059912238E-2    1.521175519348462E-1   -5.032292206244723E-2    8.490725909807705E-1    3.856853614068728E-2
 6.589728587867169E6     8.490813575596834E-1    3.715123819698068E-2    1.522605496744155E-1   -4.931718957907025E-2    1.518986074384464E-1   -5.015521963107546E-2    8.492805948610765E-1    3.842036173122770E-2
 6.640007311871376E6     8.493630835891705E-1    3.690485218949442E-2    1.520544474354014E-1   -4.915083689356058E-2    1.516808385461188E-1   -4.998495137324175E-2    8.495176625171161E-1    3.809865593357428E-2
 6.690669655633785E6     8.495553942097567E-1    3.667085100234338E-2    1.518167624101043E-1   -4.899494136527626E-2    1.514738167900502E-1   -4.981526752032132E-2    8.497269548336905E-1    3.792115789209574E-2
 6.741718546120445E6     8.497387714249359E-1    3.641265213209764E-2    1.516086929841554E-1   -4.881432452766010E-2    1.512525718725637E-1   -4.966567147797471E-2    8.499274117294733E-1    3.758974134487265E-2
 6.793156932629797E6     8.499582756417013E-1    3.613306655797793E-2    1.513954615652710E-1   -4.866192274802303E-2    1.510406527152344E-1   -4.950066481242526E-2    8.501323999040147E-1    3.729533100630665E-2
 6.844987786962981E6     8.501538719039637E-1    3.590069621998733E-2    1.511645895522173E-1   -4.849545189659985E-2    1.508272326920867E-1   -4.935234705396127E-2    8.503359258982605E-1    3.706702116717604E-2
 6.897214103595586E6     8.502276149307060E-1    3.535692048678275E-2    1.509411663324692E-1   -4.815203553436555E-2    1.504313604601725E-1   -4.935900090539810E-2    8.504834814738774E-1    3.689863105004448E-2
 6.949838899850640E6     8.504417307177201E-1    3.511309738615040E-2    1.507353102149316E-1   -4.798215579279813E-2    1.502158880087104E-1   -4.919597886341549E-2    8.507197582968121E-1    3.653453887516774E-2
 7.002865216072913E6     8.507009426842563E-1    3.418913478920590E-2    1.504597707678835E-1   -4.753294800565815E-2    1.497596795335359E-1   -4.957939386566035E-2    8.508378404613107E-1    3.630964955935397E-2
 7.056296115804635E6     8.509347910657399E-1    3.392105038373570E-2    1.502555643253599E-1   -4.737284670767437E-2    1.495619977696438E-1   -4.942622446502180E-2    8.510382190665822E-1    3.602143069951257E-2
 7.110134685962399E6     8.511577593713017E-1    3.364847155066080E-2    1.500346855704135E-1   -4.721770137945000E-2    1.493373946470041E-1   -4.925808812051044E-2    8.511945095065523E-1    3.570684759023086E-2
 7.164384037015557E6     8.513915882166191E-1    3.339863599655916E-2    1.498256267154680E-1   -4.705931222052571E-2    1.491272905868124E-1   -4.909363083563589E-2    8.514357199331404E-1    3.548429804384578E-2
 7.219047303165923E6     8.515763341486949E-1    3.311316213324984E-2    1.496114296809443E-1   -4.690519121961804E-2    1.489270483048699E-1   -4.892413696233724E-2    8.516618735605538E-1    3.518406771904403E-2
 7.274127642528819E6     8.518207914085837E-1    3.286739364006779E-2    1.494012779639860E-1   -4.674082967818331E-2    1.487156576460807E-1   -4.876695575511411E-2    8.518837169673890E-1    3.494319785158036E-2
 7.329628237315600E6     8.521188018102992E-1    3.226685062713700E-2    1.491414091540397E-1   -4.644269653506704E-2    1.484653423118041E-1   -4.896497004143614E-2    8.520913327622075E-1    3.465035569578901E-2
 7.385552294017412E6     8.522881295614255E-1    3.203155327717807E-2    1.489281289242008E-1   -4.627919481314331E-2    1.482543741068562E-1   -4.880454584326929E-2    8.522902721631698E-1    3.436467345481751E-2
 7.441903043590503E6     8.524166631087858E-1    3.293726855629607E-2    1.488371987412755E-1   -4.668477840367890E-2    1.484338757111597E-1   -4.759223806003925E-2    8.525893863102721E-1    3.410352397980381E-2
 7.498683741642874E6     8.526206586739705E-1    3.268197855942883E-2    1.486404990174962E-1   -4.652571120169222E-2    1.482353459067625E-1   -4.743045534512143E-2    8.528088159912979E-1    3.381714583131477E-2
 7.555897668622349E6     8.528225489224287E-1    3.157892016278863E-2    1.483703110732360E-1   -4.595212626966470E-2    1.476884950126608E-1   -4.796143006004255E-2    8.529198519857003E-1    3.356487756823485E-2
 7.613548130006171E6     8.530215590586697E-1    3.129527954872637E-2    1.481661087319743E-1   -4.578141520199738E-2    1.474822133005063E-1   -4.780120468484186E-2    8.531513779393083E-1    3.330784207450763E-2
 7.671638456491867E6     8.536064136441496E-1    3.024481476667039E-2    1.477968476532205E-1   -4.531775015620906E-2    1.473199683876106E-1   -4.857410495549871E-2    8.533042780954423E-1    3.299577460939462E-2
 7.730172004189732E6     8.538000648587080E-1    2.996813736760077E-2    1.476007418546143E-1   -4.516579862129120E-2    1.471213706224526E-1   -4.842221811453742E-2    8.534523375956663E-1    3.269504260178326E-2
 7.789152154816771E6     8.540899038313710E-1    2.971269066444413E-2    1.473998916697035E-1   -4.500208520322622E-2    1.469280151863163E-1   -4.826581625299758E-2    8.536715079229504E-1    3.244520843318807E-2
 7.848582315891974E6     8.538499970618506E-1    3.023467728233135E-2    1.473533702020747E-1   -4.514863469005240E-2    1.466736448508340E-1   -4.716512040200355E-2    8.539446721542691E-1    3.223067350524406E-2
 7.908465920933248E6     8.540541222827982E-1    2.994405984129291E-2    1.471510111825583E-1   -4.499973898027994E-2    1.464684689906633E-1   -4.700579727447360E-2    8.541732763456258E-1    3.194705161428938E-2
 7.968806429655775E6     8.542751283269119E-1    2.968515196654242E-2    1.469523423252738E-1   -4.483879223214000E-2    1.462753464118672E-1   -4.684726871906280E-2    8.543478158127013E-1    3.168829205369420E-2
 8.029607328171868E6     8.544373025053228E-1    2.944644579548125E-2    1.467537239976920E-1   -4.467842966353479E-2    1.460705330306609E-1   -4.668766562127451E-2    8.545253917272652E-1    3.141414798502925E-2
 8.090872129192449E6     8.546231607220421E-1    2.918485488772029E-2    1.465484416380127E-1   -4.452415777274651E-2    1.458731753955265E-1   -4.653550830530776E-2    8.547039369430696E-1    3.114727968745693E-2
 8.152604372229892E6     8.547819178826715E-1    2.891359887021376E-2    1.463506392475009E-1   -4.437138119382261E-2    1.456833255436141E-1   -4.637969421840887E-2    8.548991671203581E-1    3.085272251453618E-2
 8.214807623802581E6     8.550181498184929E-1    2.863733934257219E-2    1.461586017142189E-1   -4.420513459733339E-2    1.454857895837884E-1   -4.622776093839627E-2    8.551273990627465E-1    3.059649168780648E-2
 8.277485477640945E6     8.551955385772657E-1    2.838741526995255E-2    1.459583074787625E-1   -4.405141929663713E-2    1.452933281324560E-1   -4.607687732348540E-2    8.553013657633806E-1    3.034220123927518E-2
 8.340641554895067E6     8.553791779488055E-1    2.809856673100980E-2    1.457668572984988E-1   -4.389859887345429E-2    1.450999999625200E-1   -4.591659688419635E-2    8.555265732468254E-1    3.005662128894904E-2
 8.404279504343957E6     8.556297643534798E-1    2.781759882751850E-2    1.455773046860455E-1   -4.374284681664948E-2    1.449041055676632E-1   -4.575775536758905E-2    8.557150275875861E-1    2.981000358489022E-2
 8.468403002606256E6     8.557763389969931E-1    2.754813943927422E-2    1.453806344482569E-1   -4.358637122827328E-2    1.447143498977916E-1   -4.560833596092261E-2    8.559432131535363E-1    2.951739377405549E-2
 8.533015754352720E6     8.559109388641541E-1    2.767850180907848E-2    1.452354331502230E-1   -4.360945132817686E-2    1.446502584625300E-1   -4.505915673471429E-2    8.561793597698775E-1    2.923269019087058E-2
 8.598121492520234E6     8.560591400104324E-1    2.741708150708869E-2    1.450377637603227E-1   -4.345563852100798E-2    1.444600405731319E-1   -4.490812440201832E-2    8.563610675527088E-1    2.900268251971513E-2
 8.663723978527457E6     8.568326008298501E-1    2.586750213946426E-2    1.446481953113603E-1   -4.282695803808817E-2    1.442031930088179E-1   -4.614020629818894E-2    8.564851242462865E-1    2.871900207144877E-2
 8.729827002492212E6     8.569913671084612E-1    2.560902726283814E-2    1.444394928611976E-1   -4.267872951603192E-2    1.440005893322282E-1   -4.598976019462971E-2    8.566678318835678E-1    2.844317276041393E-2
 8.796434383450346E6     8.571620846714971E-1    2.530947236729830E-2    1.442564484893588E-1   -4.252612376106047E-2    1.438191636626456E-1   -4.584730417026674E-2    8.569033087854504E-1    2.816432071352538E-2
 8.863549969576446E6     8.570646283649599E-1    2.552236920187883E-2    1.441827879375977E-1   -4.253560336803657E-2    1.435355109594095E-1   -4.508755053311019E-2    8.570806303413394E-1    2.790687903926067E-2
 8.931177638406139E6     8.572603622837165E-1    2.524125835066779E-2    1.439872995602826E-1   -4.238229780410102E-2    1.433487825870088E-1   -4.494386651972052E-2    8.572865966557357E-1    2.765597192067910E-2
 8.999321297060097E6     8.574350968475365E-1    2.497247498885782E-2    1.437935479942356E-1   -4.222437522302302E-2    1.431579392462111E-1   -4.478866118255301E-2    8.574264922053872E-1    2.736348097802362E-2
 9.067984882469844E6     8.576233614151134E-1    2.469551865205038E-2    1.436221506128837E-1   -4.207716294755057E-2    1.429677948430410E-1   -4.463896172518089E-2    8.576001645883581E-1    2.710672248245442E-2
 9.137172361605095E6     8.578269485420653E-1    2.439594580868184E-2    1.434328026881902E-1   -4.192752336925126E-2    1.427740976879262E-1   -4.449098658232135E-2    8.577966790323118E-1    2.681461400081924E-2
 9.206887731702998E6     8.578681145237410E-1    2.518764685124428E-2    1.433713930766820E-1   -4.220187908320680E-2    1.428811293927202E-1   -4.332099695336470E-2    8.580948936057856E-1    2.652622149755264E-2
 9.277135020499127E6     8.580368667034698E-1    2.488633626883725E-2    1.431860302169475E-1   -4.206485071002260E-2    1.427020130714640E-1   -4.317575379817375E-2    8.583328541676334E-1    2.623975246353743E-2
 9.347918286460072E6     8.582592320135048E-1    2.461563462336397E-2    1.430089034247684E-1   -4.190682161196552E-2    1.425164991746444E-1   -4.302551725553370E-2    8.585176950554460E-1    2.597148706717690E-2
 9.419241619017981E6     8.584170789583200E-1    2.435143641885474E-2    1.428206763765749E-1   -4.175902571635648E-2    1.423415494979701E-1   -4.287179609970049E-2    8.587247708635136E-1    2.568796738388128E-2
 9.491109138806809E6     8.585785638027911E-1    2.405970561345562E-2    1.426374669246057E-1   -4.160030658272210E-2    1.421513805353609E-1   -4.272006960478058E-2    8.588495702116127E-1    2.543329370594958E-2
 9.563524997900363E6     8.587555235220310E-1    2.374988016172744E-2    1.424509184531809E-1   -4.145274679910598E-2    1.419703663089077E-1   -4.256506917542186E-2    8.589958836110445E-1    2.514150067609195E-2
 9.636493380052259E6     8.589306432244578E-1    2.350606452279625E-2    1.422710824569457E-1   -4.129963896135679E-2    1.417926465102630E-1   -4.241857420908474E-2    8.591992033697261E-1    2.486693071694991E-2
 9.710018500937525E6     8.591391231014188E-1    2.321723477481825E-2    1.420901226513011E-1   -4.115202438643491E-2    1.416074353679583E-1   -4.227186342611695E-2    8.594025023787268E-1    2.457371401215683E-2
 9.784104608396223E6     8.593561241212860E-1    2.221082410348699E-2    1.418347067891096E-1   -4.070109982970921E-2    1.411768777212348E-1   -4.276970350869191E-2    8.595359903818589E-1    2.435127751824157E-2
 9.858755982678859E6     8.595670011995356E-1    2.194557195065677E-2    1.416555901222114E-1   -4.054459331696438E-2    1.409926863826140E-1   -4.262636520440681E-2    8.596528902959991E-1    2.405963188569269E-2
 9.933976936693633E6     8.597440444520865E-1    2.162978903432848E-2    1.414787356938113E-1   -4.039638059306606E-2    1.408171858485910E-1   -4.247999612002625E-2    8.598508714617799E-1    2.379573424527839E-2
 1.000977181625571E7     8.599455713829058E-1    2.132414238871883E-2    1.413019750093762E-1   -4.025105099386479E-2    1.406415380568245E-1   -4.233533549316396E-2    8.600380230764966E-1    2.351065708176642E-2
 1.008614500033817E7     8.600988502360477E-1    2.108045186393762E-2    1.411173385035111E-1   -4.009798131329947E-2    1.404612876278893E-1   -4.219500601927443E-2    8.601813938888504E-1    2.323018810683460E-2
 1.016310090132507E7     8.602451823595405E-1    2.078134609468393E-2    1.409396446592449E-1   -3.995634593189509E-2    1.402901679753325E-1   -4.204266886242105E-2    8.603410160391475E-1    2.296540496392613E-2
 1.024064396526634E7     8.603488960508532E-1    2.120428348225641E-2    1.408434886152304E-1   -4.010167683861866E-2    1.403606415420671E-1   -4.123927333277588E-2    8.605452895644286E-1    2.265016790414145E-2
 1.031877867213467E7     8.605599614915380E-1    2.093072334829331E-2    1.406674360420463E-1   -3.995152808243374E-2    1.401872038665046E-1   -4.109558459415730E-2    8.607295016218799E-1    2.235586087325393E-2
 1.039750953608436E7     8.607231728856661E-1    2.063817280308700E-2    1.404904237903193E-1   -3.980546042695372E-2    1.400129868320036E-1   -4.094755676759737E-2    8.609217372598489E-1    2.207825321128897E-2
 1.047684110571204E7     8.609241982679929E-1    2.035679083185927E-2    1.403222559199493E-1   -3.966014250562640E-2    1.398454622528601E-1   -4.079927133261316E-2    8.611097507255698E-1    2.180118533545988E-2
 1.055677796431950E7     8.610794246768324E-1    2.004473628060981E-2    1.401542211201416E-1   -3.951606268157216E-2    1.396710664355875E-1   -4.065683982092706E-2    8.612923721528934E-1    2.151319346552659E-2
 1.063732473017859E7     8.617619133242134E-1    1.816500697542272E-2    1.397256429370079E-1   -3.880489119461413E-2    1.393140478622704E-1   -4.222083804896920E-2    8.613812409797276E-1    2.123330299097122E-2
 1.071848605679777E7     8.619417169835673E-1    1.786302074678756E-2    1.395510434697493E-1   -3.866164698439314E-2    1.391467005344202E-1   -4.208897831792056E-2    8.615669064647572E-1    2.092633422512766E-2
 1.080026663319129E7     8.617943628954305E-1    1.809093188084000E-2    1.394933246992885E-1   -3.865849680439124E-2    1.388647933829681E-1   -4.130547983767217E-2    8.617832370539275E-1    2.065270878553783E-2
 1.088267118414987E7     8.620227514277102E-1    1.778191047998902E-2    1.393133577064891E-1   -3.850737175788072E-2    1.387004327306250E-1   -4.115959253510404E-2    8.619496370089730E-1    2.037719591683466E-2
 1.096570447051370E7     8.624761330199104E-1    1.696615687663692E-2    1.390357674181306E-1   -3.822955459699585E-2    1.386323238804185E-1   -4.166728141460615E-2    8.620651128308578E-1    2.007482650636903E-2
 1.104937128944762E7     8.626514725060345E-1    1.667161874972389E-2    1.388606648883423E-1   -3.808442172233176E-2    1.384699123458425E-1   -4.153100179363046E-2    8.622795779052554E-1    1.979336007022385E-2
 1.113367647471805E7     8.628357324403456E-1    1.638493113732021E-2    1.386931628184705E-1   -3.794177161321738E-2    1.382993373759665E-1   -4.139183389631629E-2    8.624156200375834E-1    1.950242182958635E-2
 1.121862489697252E7     8.626077394070160E-1    1.814072683697465E-2    1.388021276568240E-1   -3.863683012186254E-2    1.386202766089152E-1   -3.918999700651200E-2    8.627042433799418E-1    1.911964345706018E-2
 1.130422146402085E7     8.627893895556414E-1    1.789411199643956E-2    1.386359908652544E-1   -3.848799590044145E-2    1.384484586523986E-1   -3.905088085501546E-2    8.628399674331734E-1    1.881198100304037E-2
 1.139047112111875E7     8.629535695276184E-1    1.756560230923526E-2    1.384712711486520E-1   -3.834417556700857E-2    1.382900857704397E-1   -3.889406788068928E-2    8.630290270468315E-1    1.854216147764287E-2
 1.147737885125368E7     8.631152228828718E-1    1.727798497872843E-2    1.383114758499714E-1   -3.820510939308995E-2    1.381147214413148E-1   -3.875621128664181E-2    8.631964568282149E-1    1.823903101600463E-2
 1.156494967543242E7     8.632885720693743E-1    1.696997172609473E-2    1.381485313173915E-1   -3.806083584801761E-2    1.379465240076929E-1   -3.861111379377918E-2    8.633117775788028E-1    1.792728494032174E-2
 1.165318865297152E7     8.634181128570664E-1    1.651892048496011E-2    1.379816355197701E-1   -3.783002095932860E-2    1.377014817796400E-1   -3.852659569589940E-2    8.634828520193060E-1    1.767882045262732E-2
 1.174210088178934E7     8.640441997093798E-1    1.429854150958750E-2    1.375317174877395E-1   -3.694383767294620E-2    1.371441477111701E-1   -4.041379054399191E-2    8.635643044534596E-1    1.746082797040501E-2
 1.183169149870061E7     8.642031247362908E-1    1.394358660760795E-2    1.373640868727317E-1   -3.681460749242198E-2    1.369852696985773E-1   -4.028367717373502E-2    8.637345075837235E-1    1.716695157563792E-2
 1.192196567971337E7     8.643356688200647E-1    1.365564648620978E-2    1.371928732896666E-1   -3.666591919439248E-2    1.368213010846199E-1   -4.015117540984068E-2    8.639063148144430E-1    1.685035394102191E-2
 1.201292864032780E7     8.645684382767070E-1    1.333534409415916E-2    1.370323383335673E-1   -3.653158988950192E-2    1.366606995874218E-1   -4.001631913532034E-2    8.640793330090943E-1    1.655747108641296E-2
 1.210458563583766E7     8.647205905416046E-1    1.304822519940980E-2    1.368671990871190E-1   -3.639101582370452E-2    1.364979320879655E-1   -3.988374214817575E-2    8.642474583421520E-1    1.623807897303847E-2
 1.219694196163385E7     8.648744669193584E-1    1.273892580490855E-2    1.367096034514120E-1   -3.625160773319262E-2    1.363372948897046E-1   -3.974547523410073E-2    8.643763295829789E-1    1.592760051055989E-2
 1.229000295351040E7     8.644606168571827E-1    1.373328040940256E-2    1.367909819370501E-1   -3.651348825578473E-2    1.362196664417801E-1   -3.805469474266669E-2    8.645785531419731E-1    1.563618024970041E-2
 1.238377398797275E7     8.646503472525949E-1    1.343031539219895E-2    1.366338559922476E-1   -3.637502459709348E-2    1.360606359789634E-1   -3.792018621262205E-2    8.647690535105752E-1    1.533723399805086E-2
 1.247826048254829E7     8.647973824711828E-1    1.311130923691207E-2    1.364768495921813E-1   -3.622775082063903E-2    1.359029175270645E-1   -3.777581537219305E-2    8.649130925389150E-1    1.502942791647982E-2
 1.257346789609938E7     8.651852445461791E-1    1.366589753142757E-2    1.363738674142725E-1   -3.657393356252561E-2    1.362437690004957E-1   -3.702337456224527E-2    8.650979135275608E-1    1.459200076056061E-2
 1.266940172913885E7     8.653145037004001E-1    1.335183317771566E-2    1.362186335702128E-1   -3.643595590391695E-2    1.360864239531689E-1   -3.688002357697963E-2    8.652399137574146E-1    1.427195858550238E-2
 1.276606752414753E7     8.654533776272739E-1    1.303185540738479E-2    1.360588000765014E-1   -3.629055357506170E-2    1.359330868372436E-1   -3.673699021613491E-2    8.654501357855204E-1    1.397488342318023E-2
 1.286347086589479E7     8.656110635287910E-1    1.270610255490948E-2    1.358991436704839E-1   -3.615568735681922E-2    1.357793590823643E-1   -3.659767081942838E-2    8.655503263262455E-1    1.363240882024762E-2
 1.296161738176090E7     8.657569859743965E-1    1.239576989567929E-2    1.357446079626394E-1   -3.601650162374209E-2    1.356279937779706E-1   -3.645990188632880E-2    8.657191108700462E-1    1.333119795980736E-2
 1.306051274206230E7     8.659051658577865E-1    1.207682050032637E-2    1.355816951734701E-1   -3.587825604758584E-2    1.354730469287118E-1   -3.632287134860138E-2    8.659012185683462E-1    1.303748047028773E-2
 1.316016266037924E7     8.660679137983741E-1    1.176538605848066E-2    1.354348053797310E-1   -3.573320039084823E-2    1.353186637460449E-1   -3.618207040034963E-2    8.660569953723856E-1    1.271821505279599E-2
 1.326057289388563E7     8.661298664300243E-1    1.121909702543381E-2    1.352768092546748E-1   -3.543653588893286E-2    1.350137423059902E-1   -3.614337456609010E-2    8.662076076458712E-1    1.248482905631026E-2
 1.336174924368203E7     8.662755894482335E-1    1.091501402506040E-2    1.351342066743696E-1   -3.529929894282876E-2    1.348535045733406E-1   -3.600827795096606E-2    8.663202844347628E-1    1.214276773060094E-2
 1.346369755513046E7     8.665242886274832E-1    1.078748548515548E-2    1.349762906681984E-1   -3.532451095490347E-2    1.348612615790008E-1   -3.576447267811780E-2    8.664804461036072E-1    1.178796354938913E-2
 1.356642371819227E7     8.666571469055245E-1    1.044395681179258E-2    1.348245602479828E-1   -3.518379177657287E-2    1.347137293207729E-1   -3.562793019523871E-2    8.666318199928058E-1    1.149049716739406E-2
 1.366993366776852E7     8.668567275733746E-1    1.011834814412715E-2    1.346765834700178E-1   -3.505410433553612E-2    1.345606136035039E-1   -3.549427768880167E-2    8.668067668510238E-1    1.113438023755038E-2
 1.377423338404255E7     8.670136579647159E-1    9.814373360426228E-3    1.345257915935351E-1   -3.490995404949299E-2    1.344066202954728E-1   -3.535173536970585E-2    8.669319955138479E-1    1.081156200470211E-2
 1.387932889282586E7     8.670458737268921E-1    8.169509552053780E-3    1.342374517003878E-1   -3.416173294301628E-2    1.336200829686146E-1   -3.633154704403367E-2    8.670839805960465E-1    1.062836623782900E-2
 1.398522626590596E7     8.677114381070297E-1    6.938433921211220E-3    1.339015651995821E-1   -3.380410598546225E-2    1.335717933642117E-1   -3.732898920102752E-2    8.672230614517767E-1    1.030039741460353E-2
 1.409193162139728E7     8.678418119407662E-1    6.596719678403608E-3    1.337545448329267E-1   -3.366741932749656E-2    1.334200241438099E-1   -3.720556350356976E-2    8.673750708232665E-1    9.981251130087822E-3
 1.419945112409473E7     8.674845427880196E-1    7.121905092129644E-3    1.337928221580760E-1   -3.375524654563506E-2    1.331717314061165E-1   -3.593957851863248E-2    8.675554242430394E-1    9.690031652762826E-3
 1.430779098582953E7     8.676511228539814E-1    6.808287242240221E-3    1.336415581217635E-1   -3.361959261244436E-2    1.330250209699876E-1   -3.580971986411786E-2    8.677287269908682E-1    9.330733880410950E-3
 1.441695746582855E7     8.678317702076295E-1    6.477489540486274E-3    1.334952579000135E-1   -3.348678352218673E-2    1.328759533854913E-1   -3.567283232687018E-2    8.678634005743033E-1    9.017451797755982E-3
 1.452695687107559E7     8.680040010930894E-1    6.130408033031035E-3    1.333520226631197E-1   -3.335942458943956E-2    1.327298818644526E-1   -3.553935605987272E-2    8.680175746386377E-1    8.687402904775602E-3
 1.463779555667585E7     8.681446620040049E-1    5.845066353610540E-3    1.332060383255735E-1   -3.322590211259809E-2    1.325829645815869E-1   -3.540746019816769E-2    8.681531252763767E-1    8.354219916216227E-3
 1.474947992622320E7     8.682722692017171E-1    5.494283527912380E-3    1.330583075822255E-1   -3.308324180241257E-2    1.324443262757080E-1   -3.527653508900031E-2    8.682874680963693E-1    8.036595335688535E-3
 1.486201643216998E7     8.683359240136350E-1    5.856432361389883E-3    1.330204056001396E-1   -3.320130028839249E-2    1.325596945281194E-1   -3.439445210411223E-2    8.684805119548673E-1    7.693684937962891E-3
 1.497541157619987E7     8.685212044325870E-1    4.776357221031887E-3    1.327660078589048E-1   -3.282298709904397E-2    1.321522282744703E-1   -3.500956113731959E-2    8.685949504449830E-1    7.364844396673025E-3
 1.508967190960350E7     8.686826629298389E-1    4.421014200314597E-3    1.326228473719980E-1   -3.268836484323435E-2    1.320116094525498E-1   -3.488150942743708E-2    8.687521292682262E-1    7.027960989421487E-3
 1.520480403365694E7     8.688490566720017E-1    4.099061281023205E-3    1.324780376852863E-1   -3.255024611154082E-2    1.318683226384248E-1   -3.474910238916702E-2    8.689079956787100E-1    6.712249165022020E-3
 1.532081460000315E7     8.689419971492319E-1    3.743444901668138E-3    1.323319441698681E-1   -3.242836967732491E-2    1.317240666583379E-1   -3.462303374466363E-2    8.690170763959219E-1    6.341880899632805E-3
 1.543771031103615E7     8.691410934222099E-1    3.410609665702278E-3    1.321992678526561E-1   -3.228924650784182E-2    1.315853917627823E-1   -3.449100084251085E-2    8.691801120526590E-1    5.992595153270903E-3
 1.555549792028828E7     8.692788057907619E-1    3.052999108842788E-3    1.320563004465994E-1   -3.215865499195735E-2    1.314451671143683E-1   -3.436421797035961E-2    8.693400105480301E-1    5.673467052878334E-3
 1.567418423282054E7     8.693052535370119E-1    3.437536407028486E-3    1.320248372605325E-1   -3.226646453634771E-2    1.315642671405526E-1   -3.347401632118301E-2    8.694611462915544E-1    5.306067155477380E-3
 1.579377610561541E7     8.694647081843923E-1    3.079646362181491E-3    1.318804559859129E-1   -3.213884422324979E-2    1.314217840787751E-1   -3.333554889028092E-2    8.695892295313880E-1    4.968730812371477E-3
 1.591428044797338E7     8.696065298167339E-1    2.755824072371582E-3    1.317502375437911E-1   -3.200680141351946E-2    1.312819604531278E-1   -3.321110502454505E-2    8.697106508475565E-1    4.599117085255128E-3
 1.603570422191187E7     8.697461878954214E-1    2.388325909590212E-3    1.316041370585407E-1   -3.187521034226402E-2    1.311408488477235E-1   -3.307734451568412E-2    8.698521265161745E-1    4.260652942774581E-3
 1.615805444256752E7     8.698970314545965E-1    2.028360381641104E-3    1.314666478379249E-1   -3.174088753738288E-2    1.310052259957387E-1   -3.294506310272556E-2    8.699874907762689E-1    3.931413135564737E-3
 1.628133817860163E7     8.700008605881593E-1    1.684465152783883E-3    1.313298719610398E-1   -3.161015150385708E-2    1.308718636730175E-1   -3.281436854327944E-2    8.701480106837740E-1    3.577762258451460E-3
 1.640556255260818E7     8.701201149222908E-1    1.009887667276999E-3    1.311489477845629E-1   -3.137713811874458E-2    1.305987994364651E-1   -3.296181136471255E-2    8.702862644295418E-1    3.217233704293887E-3
 1.653073474152580E7     8.702960561071996E-1    6.503083743091814E-4    1.310226113139579E-1   -3.124873617713284E-2    1.304687270049389E-1   -3.282387697056424E-2    8.704241580007730E-1    2.863859986337807E-3
 1.665686197705204E7     8.704361132017290E-1    2.765269072940412E-4    1.308866559250182E-1   -3.111670451642926E-2    1.303368160490966E-1   -3.269541088474730E-2    8.705496892452242E-1    2.509964428374400E-3
 1.678395154606132E7     8.705772857484996E-1   -8.313646425649429E-5    1.307485768189654E-1   -3.098710466320824E-2    1.301957492317319E-1   -3.257023516043223E-2    8.706799006882127E-1    2.185055513551124E-3
 1.691201079102603E7     8.707993085812690E-1   -9.145343609706973E-4    1.305471830236177E-1   -3.072720580095847E-2    1.299351599440411E-1   -3.293572628482715E-2    8.708142281624942E-1    1.837964894906389E-3
 1.704104711044038E7     8.709035629129811E-1   -1.249547708916462E-3    1.304082482809487E-1   -3.059639399181886E-2    1.298006802950756E-1   -3.280799584760802E-2    8.709394498154051E-1    1.448951156009319E-3
 1.717106795924834E7     8.710336023954734E-1   -1.660461259194492E-3    1.302748119507500E-1   -3.047051174921397E-2    1.296748825055510E-1   -3.267967788315908E-2    8.710739673771555E-1    1.109053536874080E-3
 1.730208084927390E7     8.717067149678140E-1   -2.890473478404045E-3    1.299620191149237E-1   -3.015984449175792E-2    1.296719720763090E-1   -3.375088982392444E-2    8.711895758430646E-1    7.181533392510277E-4
 1.743409334965526E7     8.713037935106230E-1   -2.417829334019057E-3    1.300103625204016E-1   -3.021196493040220E-2    1.294066637693501E-1   -3.243705018518669E-2    8.713421249428630E-1    3.745101385988034E-4
 1.756711308728221E7     8.714325364048789E-1   -2.791659060221545E-3    1.298777641521374E-1   -3.008951955360295E-2    1.292743628226703E-1   -3.231235699573928E-2    8.714466814435549E-1   -1.729985843290462E-6
 1.770114774723655E7     8.715609750564726E-1   -3.165874803661095E-3    1.297513364034446E-1   -2.995994920812202E-2    1.291459193470748E-1   -3.217781406314266E-2    8.715979633147016E-1   -3.465212044065042E-4
 1.783620507323623E7     8.717846493488157E-1   -2.174296000988403E-3    1.297998442968728E-1   -3.038356784326294E-2    1.296596723633491E-1   -3.083488599800791E-2    8.716968655951899E-1   -8.304345362279854E-4
 1.797229286808272E7     8.717947571354252E-1   -2.777911007619364E-3    1.296546288774814E-1   -3.010296242172236E-2    1.293761657782667E-1   -3.082658059318974E-2    8.718655926452831E-1   -1.132755745270300E-3
 1.810941899411174E7     8.719908337163861E-1   -2.924128909052279E-3    1.295334021380872E-1   -3.012464346479535E-2    1.294029007592985E-1   -3.057671157585455E-2    8.719582089732726E-1   -1.570165561815976E-3
 1.824759137364766E7     8.721684624493147E-1   -3.300341516018970E-3    1.294114940394581E-1   -3.000252934058864E-2    1.292774243847472E-1   -3.044923974789666E-2    8.720958388437328E-1   -1.953737617459143E-3
 1.838681798946100E7     8.722977308544533E-1   -3.672033214467339E-3    1.292858399884705E-1   -2.986660698895614E-2    1.291462986059310E-1   -3.031515144104914E-2    8.722061038552643E-1   -2.289366035768249E-3
 1.852710688522972E7     8.724616682361294E-1   -5.823553163797125E-3    1.289077098479164E-1   -2.912316503826697E-2    1.283634578169405E-1   -3.189083304697465E-2    8.723575166545022E-1   -2.598705945692306E-3
 1.866846616600409E7     8.724445659917250E-1   -5.785473078187249E-3    1.288553292984618E-1   -2.907265971109879E-2    1.282488634598015E-1   -3.129240912105941E-2    8.724505374120189E-1   -2.969040149351381E-3
 1.881090399867451E7     8.726324186992116E-1   -4.931115751670510E-3    1.288986781527238E-1   -2.941495148136413E-2    1.286977139645574E-1   -2.998602052362230E-2    8.725709308898949E-1   -3.427246965053859E-3
 1.895442861244394E7     8.727179479402345E-1   -5.310887119599134E-3    1.287730789109380E-1   -2.928473796963167E-2    1.285764463063537E-1   -2.985500137873742E-2    8.726886157651556E-1   -3.787868283218164E-3
 1.909904829930285E7     8.728432138206683E-1   -5.711704337302370E-3    1.286502490236921E-1   -2.915775886761279E-2    1.284515389015204E-1   -2.972284408870808E-2    8.728096838031084E-1   -4.180609381577672E-3
 1.924477141450845E7     8.729724159350152E-1   -6.096337936743005E-3    1.285294341531309E-1   -2.903565072617907E-2    1.283310507208938E-1   -2.959585875094483E-2    8.729430210322900E-1   -4.590177023147909E-3
 1.939160637706759E7     8.730991724287017E-1   -6.480632281030806E-3    1.284077092280558E-1   -2.890954720876489E-2    1.282070504030466E-1   -2.946951165820691E-2    8.730581212865292E-1   -4.952766486740568E-3
 1.953956167022271E7     8.732052880110598E-1   -6.898579095985763E-3    1.282857381632831E-1   -2.878278207782818E-2    1.280876520290818E-1   -2.934835095218282E-2    8.731870098124200E-1   -5.352613368482539E-3
 1.968864584194249E7     8.732873318152909E-1   -7.443090585457232E-3    1.281488029947959E-1   -2.858128857031841E-2    1.278733157288599E-1   -2.929568317690431E-2    8.732810385240524E-1   -5.726343915016002E-3
 1.983886750541528E7     8.735455234017017E-1   -9.368474280568246E-3    1.277891648347269E-1   -2.800219136471303E-2    1.272538733061264E-1   -3.077227923386096E-2    8.733932468131683E-1   -6.063324167635713E-3
 1.999023533954688E7     8.736860634638440E-1   -9.756125255245256E-3    1.276691993719090E-1   -2.788369600766372E-2    1.271317501129099E-1   -3.065625954514549E-2    8.735243708283521E-1   -6.474030456879738E-3
 2.014275808946211E7     8.737907909357531E-1   -1.017271482655123E-2    1.275520707721884E-1   -2.775558902535986E-2    1.270121725064307E-1   -3.053509017995368E-2    8.736579319781632E-1   -6.871273311707797E-3
 2.029644456700960E7     8.739220075010278E-1   -1.059791989336098E-2    1.274313348355914E-1   -2.763716749637317E-2    1.268938485194791E-1   -3.041621744155222E-2    8.737706186286794E-1   -7.246125428905881E-3
 2.045130365127147E7     8.740250431707530E-1   -1.098267573760048E-2    1.273147443221946E-1   -2.751037934660424E-2    1.267786431345584E-1   -3.029053881400139E-2    8.738920955297582E-1   -7.664264263974376E-3
 2.060734428907584E7     8.741735493983224E-1   -1.139909286146120E-2    1.271960984224039E-1   -2.739473028423809E-2    1.266586339833155E-1   -3.016756454742849E-2    8.739683738825543E-1   -8.057687438908889E-3
 2.076457549551392E7     8.742847407914481E-1   -1.184196585015677E-2    1.270803593439062E-1   -2.727023689565062E-2    1.265410476891003E-1   -3.004541112723542E-2    8.740836327156912E-1   -8.468011204867476E-3
 2.092300635446098E7     8.743767983425889E-1   -1.223470964904368E-2    1.269585342691815E-1   -2.714591449351873E-2    1.264241138592605E-1   -2.992541299233533E-2    8.742099784215606E-1   -8.877604581058246E-3
 2.108264601910070E7     8.744881934534787E-1   -1.267256061603872E-2    1.268444769890860E-1   -2.702245029555352E-2    1.263105390161064E-1   -2.980690755970461E-2    8.743104608910517E-1   -9.288746753021491E-3
 2.124350371245464E7     8.745162257236990E-1   -1.134899333431787E-2    1.269913333291627E-1   -2.747250640340285E-2    1.268568450546741E-1   -2.792132803441822E-2    8.744022202241896E-1   -9.786606509760825E-3
 2.140558872791451E7     8.746281212104562E-1   -1.176350362505624E-2    1.268771544177912E-1   -2.735366610351572E-2    1.267449213635988E-1   -2.779449432474224E-2    8.745476590339870E-1   -1.018844048880870E-2
 2.156891042977939E7     8.745787557318548E-1   -1.309657721683496E-2    1.266453614721850E-1   -2.683837609700172E-2    1.261045849300657E-1   -2.842353884674127E-2    8.746286337435220E-1   -1.051799925136602E-2
 2.173347825379676E7     8.746799399560937E-1   -1.354547248060154E-2    1.265326440624014E-1   -2.671318220454350E-2    1.259954067400528E-1   -2.830022122023586E-2    8.747869061292509E-1   -1.091843354994560E-2
 2.189930170770744E7     8.747689358125155E-1   -1.396790099706418E-2    1.264142284139558E-1   -2.658996910683449E-2    1.258787965798130E-1   -2.818274782707778E-2    8.748872292203318E-1   -1.134246418153874E-2
 2.206639037179505E7     8.749008155388581E-1   -1.437562759736008E-2    1.263035585761888E-1   -2.646963376024945E-2    1.257659946843421E-1   -2.805936042848995E-2    8.749690335805252E-1   -1.175029210627762E-2
 2.223475389943947E7     8.751738465749248E-1   -1.390280357924067E-2    1.263201680121353E-1   -2.673502322542783E-2    1.261771149371745E-1   -2.718557537108071E-2    8.750802218049362E-1   -1.227418191789684E-2
 2.240440201767448E7     8.752725451269167E-1   -1.433974539598898E-2    1.262058918216304E-1   -2.661415009153220E-2    1.260678617225687E-1   -2.706023666191305E-2    8.751781418927922E-1   -1.271751736667091E-2
 2.257534452774993E7     8.753666818607729E-1   -1.477018876741822E-2    1.260986065285738E-1   -2.648933088569265E-2    1.259561486173739E-1   -2.693366055576943E-2    8.752615891618879E-1   -1.314750659661174E-2
 2.274759130569773E7     8.754885869232281E-1   -1.518546848796082E-2    1.259917562116009E-1   -2.636903842970249E-2    1.258419658094108E-1   -2.681490908115613E-2    8.753600511665951E-1   -1.355817547379252E-2
 2.292115230290256E7     8.755828760359117E-1   -1.567064873998054E-2    1.258800291322174E-1   -2.624496360821562E-2    1.257396070412067E-1   -2.669281880598149E-2    8.754779259848784E-1   -1.400508280595460E-2
 2.309603754667697E7     8.756697727932227E-1   -1.609827542464422E-2    1.257725342862152E-1   -2.612766517850412E-2    1.256314168684137E-1   -2.657249562044749E-2    8.755760410219805E-1   -1.442215437978755E-2
 2.327225714084021E7     8.757725605184902E-1   -1.656796244997544E-2    1.256656549018609E-1   -2.600561657226809E-2    1.255196630573810E-1   -2.645244632649659E-2    8.756786877808023E-1   -1.487458789886471E-2
 2.344982126630262E7     8.757193386789884E-1   -1.763744383213564E-2    1.254768622971031E-1   -2.559225318353631E-2    1.250242775057477E-1   -2.679204355811544E-2    8.758340034144856E-1   -1.517511476920628E-2
 2.362874018165328E7     8.758001174386747E-1   -1.809884161667784E-2    1.253657776384425E-1   -2.546646436270370E-2    1.249109815156917E-1   -2.667604064899208E-2    8.759252594776138E-1   -1.563214471684196E-2
 2.380902422375290E7     8.760188325980559E-1   -1.928320281260355E-2    1.251420860785375E-1   -2.517653786800713E-2    1.245593730891651E-1   -2.738693687171653E-2    8.760318890415737E-1   -1.606459741170887E-2
 2.399068380833123E7     8.761012479301550E-1   -1.975207926787723E-2    1.250331202213537E-1   -2.505876729761072E-2    1.244512458560167E-1   -2.727292496996428E-2    8.761209963681906E-1   -1.651904986396085E-2
 2.417372943058824E7     8.761281357991522E-1   -1.945232935284538E-2    1.250496787705379E-1   -2.510816491368880E-2    1.245910866834248E-1   -2.631692347110477E-2    8.762156838298014E-1   -1.696791075025869E-2
 2.435817166580120E7     8.761933006025096E-1   -1.991137742277632E-2    1.249408780068902E-1   -2.499324066819488E-2    1.244855685100260E-1   -2.619594871870315E-2    8.763128425794460E-1   -1.741067675856327E-2
 2.454402116993507E7     8.763771681532673E-1   -2.109972566165890E-2    1.247166443458596E-1   -2.470614868552298E-2    1.241340552238782E-1   -2.691611719056885E-2    8.763781916086724E-1   -1.785862838818984E-2
 2.473128868025839E7     8.764767774372304E-1   -2.157813063076076E-2    1.246139096504855E-1   -2.458456757272056E-2    1.240280760557357E-1   -2.679836501899395E-2    8.764817615629811E-1   -1.831142388504958E-2
 2.491998501596375E7     8.765510233771466E-1   -2.203884898048260E-2    1.245064306906004E-1   -2.446538246510964E-2    1.239200904249074E-1   -2.668420833669885E-2    8.765699668839267E-1   -1.876782565057465E-2
 2.511012107879237E7     8.767010880499306E-1   -2.116369237466955E-2    1.246060570787375E-1   -2.479608930463504E-2    1.244523179277313E-1   -2.524299700363934E-2    8.766060008207661E-1   -1.933362503196969E-2
 2.530170785366461E7     8.768043566481923E-1   -2.162153353077314E-2    1.245072786395165E-1   -2.467094666703490E-2    1.243523802642772E-1   -2.511854780530052E-2    8.767084082556608E-1   -1.979049096847722E-2
 2.549475640931404E7     8.769101797631287E-1   -2.206689163039351E-2    1.244046357939149E-1   -2.454655517380388E-2    1.242437592321047E-1   -2.499162105871520E-2    8.767667600261531E-1   -2.025592546619623E-2
 2.568927789892715E7     8.769998840013007E-1   -2.257524731664695E-2    1.243114177810872E-1   -2.443042613143833E-2    1.241476555574282E-1   -2.487161530320887E-2    8.768739783173178E-1   -2.071125116356024E-2
 2.588528356078789E7     8.770002187090252E-1   -2.323585910040539E-2    1.241833142371929E-1   -2.417302739352215E-2    1.238861949804844E-1   -2.488774933320486E-2    8.770003012143658E-1   -2.112948085224647E-2
 2.608278471892660E7     8.772055833628023E-1   -2.352147970631091E-2    1.241193445250275E-1   -2.419089042066168E-2    1.239591682507716E-1   -2.462234328450152E-2    8.770652596959642E-1   -2.163781469332005E-2
 2.628179278377446E7     8.772638905098068E-1   -2.401438857093772E-2    1.240233680755772E-1   -2.407399062496627E-2    1.238657261929332E-1   -2.450591803113537E-2    8.771520732284310E-1   -2.211409583886433E-2
 2.648231925282269E7     8.772007201830068E-1   -2.509138423573390E-2    1.238382510999959E-1   -2.367474980764219E-2    1.233809144223398E-1   -2.487026437034719E-2    8.772740283838243E-1   -2.247941446305146E-2
 2.668437571128672E7     8.772735658891324E-1   -2.561339536901300E-2    1.237435341879371E-1   -2.355877736222352E-2    1.232798479481606E-1   -2.475637097606297E-2    8.773558787008916E-1   -2.298211079256560E-2
 2.688797383277575E7     8.773627213997369E-1   -2.611489065899243E-2    1.236465163546953E-1   -2.344379096918958E-2    1.231823722875776E-1   -2.463635036095307E-2    8.774266813660663E-1   -2.345430901301716E-2
 2.709312537996687E7     8.774784870880291E-1   -2.624164800582634E-2    1.236083629413617E-1   -2.347198755206570E-2    1.233169952404642E-1   -2.418253519272275E-2    8.775096935083813E-1   -2.399065168754886E-2
 2.729984220528475E7     8.775944766138802E-1   -2.670223513714865E-2    1.235191730999446E-1   -2.335717295033208E-2    1.232252021866204E-1   -2.406560459290576E-2    8.775995712197554E-1   -2.449207037535706E-2
 2.750813625158667E7     8.776750996601993E-1   -2.719528455076829E-2    1.234227004995678E-1   -2.323773888668584E-2    1.231297199829004E-1   -2.394954790608132E-2    8.776721359936647E-1   -2.496684210619309E-2
 2.771801955285188E7     8.779087191428733E-1   -2.921108720672200E-2    1.230967093962181E-1   -2.279879138744074E-2    1.225685614713790E-1   -2.553537258522869E-2    8.777724021213998E-1   -2.542364112384890E-2
 2.792950423487763E7     8.777417048682733E-1   -2.889015366853740E-2    1.231306393885000E-1   -2.280331338540692E-2    1.225875203330641E-1   -2.437246596988349E-2    8.778540613885997E-1   -2.589837297755230E-2
 2.814260251597910E7     8.778493420457014E-1   -2.940444142549171E-2    1.230408279865864E-1   -2.268738017102290E-2    1.224928397228988E-1   -2.425593981684589E-2    8.779332162803855E-1   -2.642519257183958E-2
 2.835732670769557E7     8.779217875568244E-1   -2.993508612476095E-2    1.229496108462344E-1   -2.257659390432733E-2    1.224050900253686E-1   -2.414152598760268E-2    8.780201018823178E-1   -2.690755533435901E-2
 2.857368921550186E7     8.781254769539752E-1   -2.953382582350259E-2    1.229935012764801E-1   -2.280242663036358E-2    1.228329152591041E-1   -2.322828287012938E-2    8.780529470363688E-1   -2.750453839836641E-2
 2.879170253952448E7     8.782270752021875E-1   -3.006207271257123E-2    1.229085848429390E-1   -2.268298323782472E-2    1.227384223037444E-1   -2.312093470142526E-2    8.781195391632596E-1   -2.801936648502936E-2
 2.901137927526460E7     8.782998581870732E-1   -3.057471693452630E-2    1.228161628517424E-1   -2.257103668880819E-2    1.226514704907249E-1   -2.299998598383165E-2    8.782067209541934E-1   -2.849987065873712E-2
 2.923273211432508E7     8.783685241285873E-1   -3.113836348944132E-2    1.227244041103518E-1   -2.245621926514368E-2    1.225564124527102E-1   -2.288727289424634E-2    8.782582677199738E-1   -2.902017445802708E-2
 2.945577384514398E7     8.784316237016050E-1   -3.164993267929426E-2    1.226364376960347E-1   -2.234282768278703E-2    1.224699257143002E-1   -2.277134671381482E-2    8.783340216969593E-1   -2.952595035354246E-2
 2.968051735373363E7     8.785073341493189E-1   -3.218255597802384E-2    1.225467141890100E-1   -2.222584510344242E-2    1.223789058595027E-1   -2.266109452568999E-2    8.783970881125123E-1   -3.005067807501725E-2
 2.990697562442441E7     8.784484976782931E-1   -3.313815889496412E-2    1.224015961606935E-1   -2.192237781623401E-2    1.220185301771211E-1   -2.282979201178070E-2    8.785059838584021E-1   -3.048092752340443E-2
 3.013516174061584E7     8.785474248750912E-1   -3.346952185889339E-2    1.223423437486172E-1   -2.187589607486951E-2    1.220403598137624E-1   -2.257533803417387E-2    8.785727933523795E-1   -3.103831967923039E-2
 3.036508888553168E7     8.785641020326133E-1   -3.418395834119817E-2    1.222262075727626E-1   -2.169368458496285E-2    1.218417541129147E-1   -2.260674371164109E-2    8.786371700542525E-1   -3.155208731972983E-2
 3.059677034298190E7     8.786343547469090E-1   -3.472533135528810E-2    1.221397013318834E-1   -2.158791270609967E-2    1.217551068346267E-1   -2.249406494042056E-2    8.787080177961000E-1   -3.208799633377387E-2
 3.083021949813037E7     8.792379779183161E-1   -3.712860350351281E-2    1.217906288782106E-1   -2.123633717295378E-2    1.215215823362655E-1   -2.474781787281907E-2    8.787799759375851E-1   -3.262689059907853E-2
 3.106544983826748E7     8.793129131702128E-1   -3.768489728238372E-2    1.217098179677319E-1   -2.112554016528315E-2    1.214371680084182E-1   -2.464187862710504E-2    8.788488169176855E-1   -3.312172512355873E-2
 3.130247495359022E7     8.789645814142886E-1   -3.597545670382015E-2    1.219448887443801E-1   -2.143733562561724E-2    1.217649041656914E-1   -2.186604693888677E-2    8.788490922369996E-1   -3.377022002972834E-2
 3.154130853798668E7     8.790235502418149E-1   -3.656366713198239E-2    1.218585899353977E-1   -2.133028538333502E-2    1.216840516006225E-1   -2.175352925192823E-2    8.789073755553767E-1   -3.431280998030889E-2
 3.178196438982744E7     8.790963767041164E-1   -3.708594915247439E-2    1.217791571806030E-1   -2.121320432317541E-2    1.216026757911757E-1   -2.164323847333334E-2    8.789820449110110E-1   -3.484766263339414E-2
 3.202445641276293E7     8.790515912935559E-1   -3.789827071433932E-2    1.216585408921131E-1   -2.098228719629121E-2    1.213527204118893E-1   -2.168130253187923E-2    8.790677389060890E-1   -3.533833440059409E-2
 3.226879861652631E7     8.792058587271243E-1   -3.821942600631137E-2    1.216121445663283E-1   -2.098626460510979E-2    1.214332201456733E-1   -2.142305961407513E-2    8.791049812557244E-1   -3.595174078129566E-2
 3.251500511774320E7     8.792650719389008E-1   -4.054347476407932E-2    1.212799310213449E-1   -2.049978407384731E-2    1.207399677476791E-1   -2.319262003949123E-2    8.792306183451728E-1   -3.636379010752474E-2
 3.276309014074709E7     8.793058207011144E-1   -4.111178972283958E-2    1.211940519606055E-1   -2.038619522182238E-2    1.206531407496846E-1   -2.308149315666791E-2    8.792765802134517E-1   -3.693185988505478E-2
 3.301306801840112E7     8.793480707602322E-1   -4.170088870426979E-2    1.211118883797098E-1   -2.028757183608909E-2    1.205708249741856E-1   -2.297820666083052E-2    8.793358280152772E-1   -3.747746372928408E-2
 3.326495319292643E7     8.794154695451759E-1   -4.226737974786305E-2    1.210354357732190E-1   -2.017461657014969E-2    1.204882194790591E-1   -2.286942338616206E-2    8.793863079122789E-1   -3.806966987660916E-2
 3.351876021673609E7     8.794915444085912E-1   -4.114161959515284E-2    1.212024465488018E-1   -2.044231009161123E-2    1.210184040148421E-1   -2.087091079758705E-2    8.793728448147042E-1   -3.872006769193075E-2
 3.377450375327612E7     8.795234361545828E-1   -4.172999372727210E-2    1.211214150206151E-1   -2.033560859148690E-2    1.209356574662139E-1   -2.075700880340666E-2    8.794221217502949E-1   -3.931132779378527E-2
 3.403219857787284E7     8.794249821039681E-1   -4.269397660014012E-2    1.209698015017124E-1   -2.004244695096818E-2    1.205844376664035E-1   -2.094025662264659E-2    8.795139942415566E-1   -3.979330914810320E-2
 3.429185957858586E7     8.794644824348463E-1   -4.326984336071400E-2    1.208854532824394E-1   -1.993432733585014E-2    1.204968192166799E-1   -2.082957311801271E-2    8.795690438103579E-1   -4.038403251107437E-2
 3.455350175706909E7     8.794955495045722E-1   -4.386791072013518E-2    1.207993933256426E-1   -1.982278251054367E-2    1.204089551327037E-1   -2.071668739414523E-2    8.795961653799631E-1   -4.092892568714445E-2
 3.481714022943672E7     8.796485562343294E-1   -4.580013063038698E-2    1.205370980575701E-1   -1.952970213325063E-2    1.199884838821080E-1   -2.220952219080499E-2    8.796664377653979E-1   -4.151264152445852E-2
 3.508279022713681E7     8.796753612774268E-1   -4.643092661581245E-2    1.204518708584749E-1   -1.941513655495361E-2    1.198970242767824E-1   -2.209319938582326E-2    8.797005299214932E-1   -4.209542263110679E-2
 3.535046709783159E7     8.797259719407917E-1   -4.700473453573244E-2    1.203786542787546E-1   -1.930138127651672E-2    1.198088174787674E-1   -2.197116587734581E-2    8.797354176586528E-1   -4.267897455206429E-2
 3.562018630628331E7     8.797529969103017E-1   -4.759938172148541E-2    1.203038671178621E-1   -1.917800379471962E-2    1.197271178595137E-1   -2.184484190726991E-2    8.797672677977407E-1   -4.326145144228647E-2
 3.589196343524875E7     8.797784224778538E-1   -4.821382156263936E-2    1.202314272394975E-1   -1.906433221788802E-2    1.196637973746682E-1   -2.171359205431789E-2    8.798203726355902E-1   -4.380211194937964E-2
 3.616581418637872E7     8.798462839275145E-1   -4.881264503766548E-2    1.201698871479457E-1   -1.894521809342038E-2    1.196055487876625E-1   -2.159578271917376E-2    8.798801775381454E-1   -4.438917803592032E-2
 3.644175438112541E7     8.798892143637759E-1   -4.946149009519467E-2    1.201047773594629E-1   -1.884106393077300E-2    1.195528862652976E-1   -2.148247078988496E-2    8.799376447283673E-1   -4.499503331142956E-2
 3.671979996165685E7     8.797748287510785E-1   -4.923586931405653E-2    1.201361049791171E-1   -1.879628683055963E-2    1.195794225481718E-1   -2.029890708158922E-2    8.799863364423329E-1   -4.560003430658049E-2
 3.699996699177712E7     8.798052804048798E-1   -4.984921437185402E-2    1.200682715484157E-1   -1.869147755950556E-2    1.195139866005127E-1   -2.018854832774376E-2    8.800279142900790E-1   -4.622646424039207E-2
 3.728227165785540E7     8.798481274968638E-1   -5.051743610136036E-2    1.200028973682905E-1   -1.858410882554696E-2    1.194478511638656E-1   -2.008053876302076E-2    8.800674318749192E-1   -4.682106182634453E-2
 3.756673026976037E7     8.798759694444748E-1   -5.113460103690098E-2    1.199333086156155E-1   -1.848013652036906E-2    1.193773693274773E-1   -1.997443793489446E-2    8.801060437547980E-1   -4.744807352336294E-2
 3.785335926180276E7     8.801463344597243E-1   -5.087460838324351E-2    1.200039776005386E-1   -1.863745347983632E-2    1.198142863817738E-1   -1.903731161776406E-2    8.800736402243724E-1   -4.819049279681421E-2
 3.814217519368506E7     8.802048042725041E-1   -5.154866146331057E-2    1.199312764042306E-1   -1.853017411512997E-2    1.197464183413545E-1   -1.893420725982149E-2    8.801116840721342E-1   -4.881318040333511E-2
 3.843319475145779E7     8.802177812472567E-1   -5.218781456874089E-2    1.198657758309984E-1   -1.842313796916592E-2    1.196749684262784E-1   -1.882518075170346E-2    8.801414971528136E-1   -4.945207898701996E-2
 3.872643474848381E7     8.802566041142658E-1   -5.282371682518679E-2    1.198000061587211E-1   -1.831406907872854E-2    1.196125692397842E-1   -1.871641828298082E-2    8.801776473436712E-1   -5.006598795283441E-2
 3.902191212640966E7     8.802751768272480E-1   -5.349536695181543E-2    1.197289789526197E-1   -1.820419563096195E-2    1.195420989956820E-1   -1.861241401558057E-2    8.802117720860235E-1   -5.070892235698737E-2
 3.931964395614420E7     8.803158028226348E-1   -5.414584840008039E-2    1.196649449379099E-1   -1.809934804944571E-2    1.194739558486024E-1   -1.850335612924369E-2    8.802523664045084E-1   -5.132175085851276E-2
 3.961964743884522E7     8.802311797423032E-1   -5.503807125862931E-2    1.195565311226971E-1   -1.787772653398797E-2    1.192442602087975E-1   -1.855162324671522E-2    8.803087949739783E-1   -5.191433732701524E-2
 3.992193990691278E7     8.802493823959652E-1   -5.568879326266630E-2    1.194888472969655E-1   -1.776924336447178E-2    1.191776864519484E-1   -1.844503915006194E-2    8.803434256967578E-1   -5.257254865639342E-2
 4.022653882499073E7     8.801181287960768E-1   -5.703889971281333E-2    1.193261861346722E-1   -1.752285590966877E-2    1.187729458796918E-1   -1.901589108151611E-2    8.803962982545185E-1   -5.315382761691657E-2
 4.053346179097611E7     8.801367652186676E-1   -5.772229424825456E-2    1.192588710161603E-1   -1.741282990335574E-2    1.187111224343483E-1   -1.891560450907471E-2    8.804260526221928E-1   -5.382387675555253E-2
 4.084272653703488E7     8.801593162950276E-1   -5.840075552064726E-2    1.191912816569852E-1   -1.730766303042657E-2    1.186430917142734E-1   -1.880897866152200E-2    8.804423626685433E-1   -5.449050998520891E-2
 4.115435093062763E7     8.801758005331464E-1   -5.957691464114395E-2    1.190771486213943E-1   -1.716958671324846E-2    1.184790253516218E-1   -1.927186572117493E-2    8.804734088133594E-1   -5.512704036724409E-2
 4.146835297554084E7     8.801908127433232E-1   -6.028425669735278E-2    1.190101689007046E-1   -1.706352491983707E-2    1.184131024326689E-1   -1.916776632427401E-2    8.804905773846721E-1   -5.581615879567279E-2
 4.178475081292742E7     8.805571492121863E-1   -6.194595780617699E-2    1.188929771544572E-1   -1.694529343844406E-2    1.185999898463983E-1   -2.038224137554076E-2    8.805235631038761E-1   -5.646724657263400E-2
 4.210356272235513E7     8.805617477209715E-1   -6.264970097644343E-2    1.188269996990436E-1   -1.683995695526644E-2    1.185359091276412E-1   -2.027924410585787E-2    8.805325306271893E-1   -5.714478699056823E-2
 4.242480712286174E7     8.805587039733950E-1   -6.334963419273409E-2    1.187696755899192E-1   -1.673100270273095E-2    1.184786068708807E-1   -2.018242903305544E-2    8.805518725020112E-1   -5.783993262989449E-2
 4.274850257402029E7     8.805700923742462E-1   -6.405069748738076E-2    1.187087460818272E-1   -1.662757184970293E-2    1.184166782830242E-1   -2.007350860440089E-2    8.805718298384118E-1   -5.852981040991749E-2
 4.307466777701053E7     8.805143406795687E-1   -6.241178378358090E-2    1.188877425749833E-1   -1.679709038764581E-2    1.186982048417571E-1   -1.723033334496925E-2    8.804843332923440E-1   -5.931690086255911E-2
 4.340332157569963E7     8.805835025885483E-1   -6.548111531452155E-2    1.185905355435360E-1   -1.642111981070752E-2    1.182986505006660E-1   -1.985436353550908E-2    8.805920310581087E-1   -5.989405939308260E-2
 4.373448295773120E7     8.805605704255848E-1   -6.618807075817394E-2    1.185268756781888E-1   -1.630956322870307E-2    1.182384235596464E-1   -1.975194554120097E-2    8.806024324383713E-1   -6.057063725338627E-2
 4.406817105562137E7     8.802101522548446E-1   -6.591220912017040E-2    1.185141406582413E-1   -1.620789575458235E-2    1.179237066473953E-1   -1.832579629652399E-2    8.806030235693220E-1   -6.126258106175199E-2
 4.440440514786536E7     8.802194023620437E-1   -6.663613078155080E-2    1.184581165741979E-1   -1.610102437925582E-2    1.178651816276812E-1   -1.821885675886020E-2    8.806101255317049E-1   -6.196722613633972E-2
 4.474320466005030E7     8.802043809688833E-1   -6.738560927324082E-2    1.183973752891765E-1   -1.599430041944919E-2    1.178088756233760E-1   -1.810942448086687E-2    8.806094185783866E-1   -6.266565753635461E-2
 4.508458916597787E7     8.802730373067418E-1   -6.734247044188013E-2    1.184191650558121E-1   -1.596018908709776E-2    1.179585275243651E-1   -1.711328122352716E-2    8.806025697147325E-1   -6.341224422893281E-2
 4.542857838879555E7     8.802704707729265E-1   -6.808432653482366E-2    1.183657023408708E-1   -1.586031522367795E-2    1.179052879208509E-1   -1.700414922941118E-2    8.805987459920472E-1   -6.414167541453608E-2
 4.577519220213508E7     8.802687704146478E-1   -6.882141368685191E-2    1.183109359256420E-1   -1.575142158934344E-2    1.178471954649594E-1   -1.690458698112272E-2    8.806120287261896E-1   -6.485738663708900E-2
 4.612445063126191E7     8.802730255972443E-1   -6.958424957932456E-2    1.182531784476860E-1   -1.564703064625375E-2    1.177945748818365E-1   -1.680073248203940E-2    8.806053769407944E-1   -6.559736984499839E-2
 4.647637385423118E7     8.802544729350306E-1   -7.033055398572138E-2    1.181966235939105E-1   -1.554294924571441E-2    1.177384890200750E-1   -1.668963759885038E-2    8.806082580086051E-1   -6.630498124702677E-2
 4.683098220305377E7     8.802296491155270E-1   -7.109168432798371E-2    1.181381950592495E-1   -1.543451933526706E-2    1.176785781704412E-1   -1.658548333852623E-2    8.805993358691473E-1   -6.706580950099029E-2
 4.718829616487134E7     8.802124373789681E-1   -7.183147429315685E-2    1.180816912708926E-1   -1.533014324243850E-2    1.176251341995393E-1   -1.647744967146317E-2    8.806022003429730E-1   -6.780762563503588E-2
 4.754833638313931E7     8.800816595408767E-1   -7.339073486992222E-2    1.179527440643434E-1   -1.514969593809324E-2    1.173657995783527E-1   -1.726511132601868E-2    8.806083966942662E-1   -6.852004462203502E-2
 4.791112365881994E7     8.800472311772585E-1   -7.418025061809394E-2    1.178900482768022E-1   -1.504644298263544E-2    1.173150542659096E-1   -1.715931741710982E-2    8.805852090205211E-1   -6.926177739635754E-2
 4.827667895158397E7     8.800127748785234E-1   -7.495142634164742E-2    1.178430887403960E-1   -1.493329956625106E-2    1.172661975972529E-1   -1.705293060740979E-2    8.805696736086269E-1   -7.001411730229351E-2
 4.864502338102144E7     8.799985379180044E-1   -7.572762166659085E-2    1.177908282399256E-1   -1.482656391083832E-2    1.172141359488117E-1   -1.694882013821837E-2    8.805661773636546E-1   -7.076300534979273E-2
 4.901617822786229E7     8.799716815568185E-1   -7.651370069923888E-2    1.177418750047134E-1   -1.471318136604655E-2    1.171665839724350E-1   -1.683958012502193E-2    8.805575473591863E-1   -7.151168084930859E-2
 4.939016493520518E7     8.799441230130831E-1   -7.729778607393904E-2    1.176903857681429E-1   -1.461040098670589E-2    1.171160962722542E-1   -1.673410590614818E-2    8.805428048973056E-1   -7.229006098151849E-2
 4.976700510975666E7     8.799084869586601E-1   -7.812251640390100E-2    1.176444248374877E-1   -1.450829219828218E-2    1.170682198452156E-1   -1.662980901700049E-2    8.805200606012586E-1   -7.305711443836777E-2
 5.014672052307993E7     8.798961510577558E-1   -7.892315638592372E-2    1.175924384362697E-1   -1.439612855661913E-2    1.170219687046138E-1   -1.652138991383593E-2    8.804982099424298E-1   -7.382020278940579E-2
 5.052933311285146E7     8.798709602824145E-1   -7.971888096198508E-2    1.175415524504460E-1   -1.429187176749535E-2    1.169720272270856E-1   -1.641956064969280E-2    8.804856076737217E-1   -7.459645579013416E-2
 5.091486498412994E7     8.798136717197069E-1   -8.051911792515844E-2    1.174990253951398E-1   -1.417975337132206E-2    1.169275962358533E-1   -1.631536206254515E-2    8.804580574425677E-1   -7.537428930411123E-2
 5.130333841063219E7     8.797749365949864E-1   -8.135915092424748E-2    1.174527687581078E-1   -1.407143816971450E-2    1.168871145784039E-1   -1.621785067347413E-2    8.804284702701648E-1   -7.618775535247412E-2
 5.169477583602042E7     8.797344740398169E-1   -8.215684456121210E-2    1.174034126177061E-1   -1.396989928041163E-2    1.168482457983202E-1   -1.611184030800441E-2    8.804088007789580E-1   -7.697352692156174E-2
 5.208919987519933E7     8.797102854175440E-1   -8.299724227740693E-2    1.173620403131369E-1   -1.386261408104383E-2    1.168094542310166E-1   -1.600886510757555E-2    8.803886313377037E-1   -7.777511877397748E-2
 5.248663331562151E7     8.796490139234779E-1   -8.382598945545999E-2    1.173187488176611E-1   -1.375542205148494E-2    1.167595257796197E-1   -1.590823077375374E-2    8.803454710814960E-1   -7.856480095098273E-2
 5.288709911860541E7     8.796096975920794E-1   -8.468136317050320E-2    1.172733067288534E-1   -1.364933386125686E-2    1.167152080376589E-1   -1.580365741237968E-2    8.803178220961965E-1   -7.937801629892310E-2
 5.329062042066076E7     8.795555423602779E-1   -8.550890367155195E-2    1.172263798436926E-1   -1.354427375372932E-2    1.166762390746294E-1   -1.570489638653413E-2    8.802867310974979E-1   -8.017693579488619E-2
 5.369722053482568E7     8.794989256271785E-1   -8.636885961510819E-2    1.171847375768756E-1   -1.343988439805676E-2    1.166368114911372E-1   -1.559654474553031E-2    8.802466550326504E-1   -8.100673333948646E-2
 5.410692295201402E7     8.794471038667820E-1   -8.723638787066526E-2    1.171423264522334E-1   -1.333411085427217E-2    1.165883513714790E-1   -1.549294727411449E-2    8.802142116723825E-1   -8.181983038181755E-2
 5.451975134237129E7     8.793952535505895E-1   -8.807772149877675E-2    1.170954602768175E-1   -1.322809136599305E-2    1.165502103173399E-1   -1.538979965963917E-2    8.801662526919939E-1   -8.266508858087707E-2
 5.493572955664375E7     8.793371824650509E-1   -8.896460833239062E-2    1.170547973140454E-1   -1.312323498228607E-2    1.165120208747637E-1   -1.528915416299982E-2    8.801373026687119E-1   -8.350039387498159E-2
 5.535488162755510E7     8.792798184420066E-1   -8.980333769942583E-2    1.170140003567567E-1   -1.301391279196220E-2    1.164748242985474E-1   -1.518291077291222E-2    8.800987579502896E-1   -8.432495743914724E-2
 5.577723177119546E7     8.792106657858645E-1   -9.067707431156422E-2    1.169721343769353E-1   -1.290205328991850E-2    1.164373578180882E-1   -1.508677983542084E-2    8.800334160868843E-1   -8.518879816923813E-2
 5.620280438842070E7     8.791532425497049E-1   -9.157071952580083E-2    1.169363407782569E-1   -1.279535802480035E-2    1.163999973439581E-1   -1.498168671647259E-2    8.799797292323907E-1   -8.603654072945900E-2
 5.663162406626155E7     8.790794744613047E-1   -9.243348912542004E-2    1.168945076573473E-1   -1.268442286836189E-2    1.163656176541880E-1   -1.488124665896114E-2    8.799321222310101E-1   -8.692232463451274E-2
 5.706371557934452E7     8.790130321475856E-1   -9.335840569991645E-2    1.168600870223896E-1   -1.258237899024633E-2    1.163312499090948E-1   -1.477955792006954E-2    8.798942348140771E-1   -8.776737869937470E-2
 5.749910389132310E7     8.789356081082488E-1   -9.425736602153505E-2    1.168199991301378E-1   -1.248032882750354E-2    1.162964400209177E-1   -1.467826294116763E-2    8.798412416537722E-1   -8.864607135767666E-2
 5.793781415631992E7     8.788858543331599E-1   -9.515729160202460E-2    1.167838878979028E-1   -1.237113251201755E-2    1.162606078428557E-1   -1.457861588620732E-2    8.797755053938957E-1   -8.951824332406015E-2
 5.837987172038046E7     8.793812242560924E-1   -9.462727504683055E-2    1.169073010782446E-1   -1.257909762841372E-2    1.167711091899208E-1   -1.304468437504312E-2    8.796343426459341E-1   -9.052942428386478E-2
 5.882530212293670E7     8.792949414829093E-1   -9.558395111626238E-2    1.168664553517640E-1   -1.248216092196960E-2    1.167345031037872E-1   -1.293803446230185E-2    8.795621422162750E-1   -9.140320678545583E-2
 5.927413109828297E7     8.792052067536626E-1   -9.646867761931405E-2    1.168316566925371E-1   -1.237353356523043E-2    1.167047184260364E-1   -1.283774070407857E-2    8.794971807305765E-1   -9.230908480335985E-2
 5.972638457706322E7     8.791367594843288E-1   -9.738145862627616E-2    1.167969017331402E-1   -1.226852894814078E-2    1.166703043243399E-1   -1.273286953343884E-2    8.794436816091566E-1   -9.317903334277361E-2
 6.018208868776779E7     8.790792323125148E-1   -9.833033144488224E-2    1.167639424471837E-1   -1.216230934183124E-2    1.166415590990195E-1   -1.262520194400867E-2    8.793668853062478E-1   -9.406489915841966E-2
 6.064126975824468E7     8.789893859259714E-1   -9.925693098101281E-2    1.167309083727582E-1   -1.205971814810545E-2    1.166107379059872E-1   -1.253150138995938E-2    8.792997823131108E-1   -9.498765845344161E-2
 6.110395431721926E7     8.789141050638108E-1   -1.002206809830105E-1    1.167020195818272E-1   -1.195627350692845E-2    1.165832805934262E-1   -1.242812073900110E-2    8.792205125008542E-1   -9.591452273699334E-2
 6.157016909582742E7     8.788209481235738E-1   -1.011633484965423E-1    1.166665283361580E-1   -1.185255429562937E-2    1.165539524648617E-1   -1.232431739866605E-2    8.791518227200480E-1   -9.682853805640551E-2
 6.203994102916045E7     8.787340623697280E-1   -1.021143535141954E-1    1.166358815436362E-1   -1.175288329523162E-2    1.165234275204437E-1   -1.222135160838806E-2    8.790633074484608E-1   -9.776026137188999E-2
 6.251329725781982E7     8.786215224231340E-1   -1.030526988333953E-1    1.166037071141943E-1   -1.164412205832916E-2    1.164951100165281E-1   -1.211422618451584E-2    8.789780523168941E-1   -9.869120195459800E-2
 6.299026512948693E7     8.785226111930461E-1   -1.040259844528812E-1    1.165692974354159E-1   -1.154261727923864E-2    1.164712925477193E-1   -1.201508800515292E-2    8.789139648624339E-1   -9.962047005380836E-2
 6.347087220050172E7     8.784365551607575E-1   -1.049890413659252E-1    1.165417988495264E-1   -1.144617443632933E-2    1.164454428945587E-1   -1.191674668804325E-2    8.788311540194721E-1   -1.005685099264373E-1
 6.395514623745525E7     8.783462162799718E-1   -1.059664205761649E-1    1.165134705604166E-1   -1.133669636874715E-2    1.164170116601798E-1   -1.181639632506762E-2    8.787465639890821E-1   -1.015225743706097E-1
 6.444311521879433E7     8.782481682507954E-1   -1.069573669205493E-1    1.164876310974567E-1   -1.122851431857213E-2    1.163885000202907E-1   -1.171191602907517E-2    8.786525302654387E-1   -1.024732456869859E-1
 6.493480733643661E7     8.781325778248420E-1   -1.079523808050401E-1    1.164551146454617E-1   -1.112849883315975E-2    1.163621044015612E-1   -1.160661514459497E-2    8.785438341286134E-1   -1.034419675977561E-1
 6.543025099740107E7     8.780070877550125E-1   -1.089410866362785E-1    1.164267274528442E-1   -1.102829510055166E-2    1.163362955187318E-1   -1.150753251315016E-2    8.784601703648878E-1   -1.044194573603307E-1
 6.592947482544785E7     8.774426623016199E-1   -1.126228119687782E-1    1.161695351300636E-1   -1.032808750029371E-2    1.160548425687991E-1   -1.403200171270740E-2    8.784331636801900E-1   -1.052599962953188E-1
 6.643250766273243E7     8.773621295922682E-1   -1.136777798705205E-1    1.161488989764316E-1   -1.022048452284590E-2    1.160484989264924E-1   -1.395885924633538E-2    8.783696540595796E-1   -1.062296378075012E-1
 6.693937857147253E7     8.772579729802461E-1   -1.146887727079789E-1    1.161249639480976E-1   -1.012024024486188E-2    1.160362280228487E-1   -1.385836079123553E-2    8.782953985180257E-1   -1.071870323742625E-1
 6.745011683562562E7     8.771314820013101E-1   -1.157769886702924E-1    1.160927163801554E-1   -1.000460501511165E-2    1.160124329123257E-1   -1.377052722491830E-2    8.781673037441662E-1   -1.081814460444528E-1
 6.796475196258274E7     8.770415660007974E-1   -1.167550909069526E-1    1.160661368358679E-1   -9.890428345942509E-3    1.160024140880272E-1   -1.364947150522528E-2    8.780859264500999E-1   -1.091612162433851E-1
 6.848331368487169E7     8.769275110166785E-1   -1.177388686042624E-1    1.160447953095524E-1   -9.768305677735102E-3    1.159953566191207E-1   -1.351126184078418E-2    8.779817419368409E-1   -1.100861529737620E-1
 6.900583196187538E7     8.766137073443850E-1   -1.175117626432670E-1    1.161196350309043E-1   -9.816983938777587E-3    1.156752957896233E-1   -1.212251593920525E-2    8.778826858578921E-1   -1.110989018331391E-1
 6.953233698156311E7     8.764982746818855E-1   -1.185000694080666E-1    1.161079910615634E-1   -9.686780578698678E-3    1.156587226814605E-1   -1.204600160972081E-2    8.777252073109291E-1   -1.122597729513820E-1
 7.006285916223384E7     8.763766594814378E-1   -1.196124724161548E-1    1.161049492627036E-1   -9.538917984845765E-3    1.156372200166552E-1   -1.199225882464662E-2    8.775876582308407E-1   -1.133425817038697E-1
 7.059742915427396E7     8.761878848932154E-1   -1.208433473512936E-1    1.160865195331291E-1   -9.426226138787262E-3    1.156231616594531E-1   -1.190713550343563E-2    8.774848011159084E-1   -1.142811143657920E-1
 7.113607784192866E7     8.760452224283017E-1   -1.219236422004396E-1    1.160671256360989E-1   -9.341384900970844E-3    1.156212044048633E-1   -1.179184609537229E-2    8.773856668430849E-1   -1.153140861275023E-1
 7.167883634508467E7     8.759324965455324E-1   -1.229346370896327E-1    1.160516511151072E-1   -9.246313278275121E-3    1.156223560041189E-1   -1.167058054636109E-2    8.772840742678046E-1   -1.163346869863898E-1
 7.222573602107021E7     8.758337501801949E-1   -1.240134196267568E-1    1.160396144744834E-1   -9.149764022233470E-3    1.156199321766121E-1   -1.154110155400201E-2    8.771660220110284E-1   -1.173064050747033E-1
 7.277680846646504E7     8.756713853227649E-1   -1.250426374263511E-1    1.160188133073457E-1   -9.045342614384349E-3    1.156123801554723E-1   -1.140993914113732E-2    8.770359309336615E-1   -1.183435201356506E-1
 7.333208551892644E7     8.755404811068087E-1   -1.260930225460405E-1    1.160047692426543E-1   -8.910824318343349E-3    1.155882314171977E-1   -1.133501219276111E-2    8.768355449963833E-1   -1.196196879541817E-1
 7.389159925902925E7     8.753805668072264E-1   -1.273008857824586E-1    1.159926509731388E-1   -8.760269392580896E-3    1.155659437386231E-1   -1.128293730785922E-2    8.766725907578107E-1   -1.207671574170466E-1
 7.445538201211768E7     8.751636571621231E-1   -1.285364354588719E-1    1.159793029895925E-1   -8.639060650353587E-3    1.155531910784354E-1   -1.119241113467529E-2    8.765288646228808E-1   -1.217213651604934E-1
 7.502346635017487E7     8.750105428478423E-1   -1.296672116713950E-1    1.159646402719621E-1   -8.553441183934061E-3    1.155612797107451E-1   -1.105899661483441E-2    8.764136714641617E-1   -1.227647024270922E-1
 7.559588509370317E7     8.748842142262107E-1   -1.307201362252902E-1    1.159629951598830E-1   -8.450048770545561E-3    1.155685992129792E-1   -1.092582590669620E-2    8.762897924604098E-1   -1.238198262410379E-1
 7.617267131362079E7     8.747585238801444E-1   -1.318053064501602E-1    1.159622455416759E-1   -8.349942143514501E-3    1.155688420439481E-1   -1.078972901662737E-2    8.761418838226007E-1   -1.248461445069522E-1
 7.675385833317320E7     8.745890019062182E-1   -1.328710828741172E-1    1.159510732686277E-1   -8.238848135398096E-3    1.155677611483029E-1   -1.066388601676238E-2    8.759727818313653E-1   -1.259711568380757E-1
 7.733947972985649E7     8.744367268191716E-1   -1.340153961224113E-1    1.159473472665982E-1   -8.090755646262793E-3    1.155631802175109E-1   -1.059375300895687E-2    8.758081267990929E-1   -1.272343930587644E-1
 7.792956933735959E7     8.742286064624301E-1   -1.352660173073886E-1    1.159480112866030E-1   -7.946371720803827E-3    1.155600490835311E-1   -1.053814053156944E-2    8.756540619469940E-1   -1.283787049050202E-1
 7.852416124751715E7     8.740396654876621E-1   -1.365522138409973E-1    1.159469227599827E-1   -7.835209073258227E-3    1.155664720869945E-1   -1.043602326137875E-2    8.755197637386033E-1   -1.294438670496172E-1
 7.912328981227988E7     8.738619979432898E-1   -1.376612533114097E-1    1.159475096057486E-1   -7.729843725229467E-3    1.155758610818994E-1   -1.029975771412932E-2    8.753534764513368E-1   -1.305441942114790E-1
 7.972698964569975E7     8.736939997552781E-1   -1.387823203102831E-1    1.159478873204429E-1   -7.616828908956100E-3    1.155813165340926E-1   -1.017398072092970E-2    8.751735286832982E-1   -1.316944594820346E-1
 8.033529562592810E7     8.735336167119833E-1   -1.399392208024687E-1    1.159540119465695E-1   -7.494445346600787E-3    1.155963900244809E-1   -1.007251275104557E-2    8.750063336606896E-1   -1.328560305083883E-1
 8.094824289723292E7     8.733541675825075E-1   -1.411555309575002E-1    1.159666902846637E-1   -7.380064136427434E-3    1.156143819774632E-1   -9.973138056150610E-3    8.748322586288722E-1   -1.340263760015944E-1
 8.156586687202743E7     8.731546474701296E-1   -1.423669617815192E-1    1.159727047445310E-1   -7.266431754776139E-3    1.156279152338476E-1   -9.869301945384922E-3    8.746637470762819E-1   -1.352051651083444E-1
 8.218820323291673E7     8.729517478024110E-1   -1.436326542447650E-1    1.159814594492453E-1   -7.164558012653477E-3    1.156463518221959E-1   -9.757072223833017E-3    8.744965516596914E-1   -1.363833122931490E-1
 8.281528793475981E7     8.727631788493180E-1   -1.448007969372652E-1    1.159948827849162E-1   -7.057606548052930E-3    1.156637741274316E-1   -9.637112856991325E-3    8.743061309078883E-1   -1.375617141670292E-1
 8.344715720674579E7     8.725943459192356E-1   -1.460192748369908E-1    1.160039729111920E-1   -6.946854009895567E-3    1.156861989341512E-1   -9.534142510470143E-3    8.741256145899472E-1   -1.387677628440117E-1
 8.408384755448765E7     8.724078353160968E-1   -1.472472905839132E-1    1.160139655541738E-1   -6.831424031481298E-3    1.156956470134407E-1   -9.414829170336985E-3    8.739301236129446E-1   -1.399655035308231E-1
 8.472539576213124E7     8.722012228455183E-1   -1.484747594621479E-1    1.160242090163717E-1   -6.707741641184470E-3    1.157144989912264E-1   -9.296682265980414E-3    8.737387758928539E-1   -1.411453155278533E-1
 8.537183889448020E7     8.719658062825286E-1   -1.496826690817286E-1    1.160458225220665E-1   -6.580355140626366E-3    1.157449275764665E-1   -9.171184931816328E-3    8.735598882038883E-1   -1.423468423451493E-1
 8.602321429913802E7     8.717805595920112E-1   -1.509139609057731E-1    1.160783239650140E-1   -6.460473743881461E-3    1.157860733217808E-1   -9.060360563663938E-3    8.733807944678973E-1   -1.435769354606933E-1
 8.667955960866481E7     8.715770185505995E-1   -1.521692298803924E-1    1.161066296824171E-1   -6.347187389972966E-3    1.158207223147279E-1   -8.951795717725215E-3    8.731970195128349E-1   -1.448236572814291E-1
 8.734091274275188E7     8.713635553264188E-1   -1.534321312191565E-1    1.161313638377727E-1   -6.230037393354002E-3    1.158551189528145E-1   -8.837536265849714E-3    8.730126855025410E-1   -1.460605005853086E-1
 8.800731191041334E7     8.711761091403534E-1   -1.547183676852618E-1    1.161685122642543E-1   -6.111726807660131E-3    1.158928706027795E-1   -8.721814365878662E-3    8.727886516039389E-1   -1.472900127725525E-1
 8.867879561219153E7     8.709915701887508E-1   -1.559950193628563E-1    1.162085283723982E-1   -5.994523642902392E-3    1.159393504118455E-1   -8.608173787274988E-3    8.726043617701389E-1   -1.485528501551694E-1
 8.935540264238395E7     8.707901465163475E-1   -1.572980216103836E-1    1.162600117717047E-1   -5.888974966308224E-3    1.159882149338504E-1   -8.504097826479805E-3    8.723952046547819E-1   -1.498182190887382E-1
 9.003717209128250E7     8.705218469164080E-1   -1.585721383622291E-1    1.162744951480474E-1   -5.775397577597568E-3    1.160088533333942E-1   -8.377917080257926E-3    8.721665798702651E-1   -1.510841989537630E-1
 9.072414334743266E7     8.703066473703069E-1   -1.598833703090462E-1    1.163211894790197E-1   -5.678543950876867E-3    1.160585255485904E-1   -8.283561919266189E-3    8.719650579501991E-1   -1.523807318442376E-1
 9.141635609990983E7     8.700826262948900E-1   -1.612213905825463E-1    1.163582363377843E-1   -5.582441396222394E-3    1.161051795987307E-1   -8.189393226481694E-3    8.717607824717019E-1   -1.536830778170011E-1
 9.211385034061028E7     8.698671267658842E-1   -1.625449705488899E-1    1.163996037406029E-1   -5.480192510604656E-3    1.161483396839094E-1   -8.090703624769291E-3    8.715070040234298E-1   -1.549816622732142E-1
 9.281666636656430E7     8.696444046817117E-1   -1.638834607505301E-1    1.164467077154114E-1   -5.383079133194705E-3    1.161998205218329E-1   -7.991878803101770E-3    8.712914435463928E-1   -1.563037128159861E-1
 9.352484478226222E7     8.693933113063251E-1   -1.652629030484279E-1    1.164909974212791E-1   -5.292121060643787E-3    1.162425324258582E-1   -7.892609901060792E-3    8.710328681015791E-1   -1.576103772254068E-1
 9.423842650200106E7     8.691648291828320E-1   -1.666434102649904E-1    1.165339698708862E-1   -5.199061853179278E-3    1.162864800028119E-1   -7.799175499786175E-3    8.707644196495841E-1   -1.589345842281131E-1
 9.495745275224906E7     8.689036970858597E-1   -1.680126389692211E-1    1.165720468652606E-1   -5.111599060929128E-3    1.163347313280932E-1   -7.709622684067374E-3    8.705443180026773E-1   -1.602812850788501E-1
 9.568196507402541E7     8.686264025300607E-1   -1.694083660710111E-1    1.166169183910928E-1   -5.021254039872969E-3    1.163773577002062E-1   -7.617680738725614E-3    8.702874105007238E-1   -1.616239579409507E-1
 9.641200532530291E7     8.683496968416882E-1   -1.708131552234482E-1    1.166610412103027E-1   -4.928264514076146E-3    1.164171707457848E-1   -7.522755191324581E-3    8.700268479081700E-1   -1.630000548748468E-1
 9.714761568342420E7     8.680848962111560E-1   -1.722187558964529E-1    1.167035133591974E-1   -4.838024981305066E-3    1.164612288391719E-1   -7.426573546711604E-3    8.697477742647864E-1   -1.643479584164671E-1
 9.788883864753923E7     8.677444331404244E-1   -1.736259213275418E-1    1.167453793455938E-1   -4.747500688926915E-3    1.165053899210036E-1   -7.328568740543186E-3    8.694603123469898E-1   -1.657225707313069E-1
 9.863571704106140E7     8.674412849991805E-1   -1.750544405351159E-1    1.167888885462349E-1   -4.655358462504922E-3    1.165484740044947E-1   -7.231842602734897E-3    8.691864915714028E-1   -1.671131292212282E-1
 9.938829401413949E7     8.671409275155725E-1   -1.764653327739265E-1    1.168304727038563E-1   -4.560019804338487E-3    1.165927030777336E-1   -7.132869207196985E-3    8.688893932770270E-1   -1.685159847097679E-1
 1.001466130461536E8     8.668213218472037E-1   -1.779139449356211E-1    1.168826499820256E-1   -4.463743094726600E-3    1.166428041938367E-1   -7.028865221583821E-3    8.685926818541202E-1   -1.699170240840210E-1
 1.009107179482240E8     8.664676182207165E-1   -1.793382675295568E-1    1.169299280481014E-1   -4.373717404154204E-3    1.166987491639845E-1   -6.928892569080561E-3    8.683046030616789E-1   -1.713203314313010E-1
 1.016806528657447E8     8.661244661495101E-1   -1.807657278120258E-1    1.169820005669005E-1   -4.284721931409555E-3    1.167520875685811E-1   -6.837279064681650E-3    8.680377729180511E-1   -1.727487935269329E-1
 1.024564622809335E8     8.658032667047384E-1   -1.822234047353868E-1    1.170313196017493E-1   -4.198488043677050E-3    1.168007920582499E-1   -6.742456736070527E-3    8.677517579866719E-1   -1.741754410261708E-1
 1.032381910153997E8     8.654767804329305E-1   -1.836852573683083E-1    1.170801712707928E-1   -4.104336180919313E-3    1.168487901218724E-1   -6.642159574393106E-3    8.674542256659397E-1   -1.756312762324631E-1
 1.040258842327368E8     8.651363680357501E-1   -1.851534924836028E-1    1.171374908456949E-1   -4.018083083510196E-3    1.169039465970821E-1   -6.545961092359929E-3    8.671682992599983E-1   -1.770854381054037E-1
 1.048195874411304E8     8.648099530720209E-1   -1.866431610169472E-1    1.171848715937251E-1   -3.935119242195336E-3    1.169484743606189E-1   -6.445727067599005E-3    8.668228525436303E-1   -1.785721321432048E-1
 1.056193464959857E8     8.644633639570976E-1   -1.881160604070202E-1    1.172322435419440E-1   -3.846249816098879E-3    1.169971386949424E-1   -6.343646420997204E-3    8.665236204870790E-1   -1.800842802922595E-1
 1.064252076025801E8     8.641233588761181E-1   -1.896353394178248E-1    1.172807697058702E-1   -3.744065700877319E-3    1.170469940968253E-1   -6.237144774561896E-3    8.661857246691107E-1   -1.816030012820098E-1
 1.072372173187304E8     8.637309431568845E-1   -1.911367064366080E-1    1.173324920516788E-1   -3.657992134670773E-3    1.171083748647623E-1   -6.131995334148505E-3    8.658364039447753E-1   -1.831247716222629E-1
 1.080554225574824E8     8.633426541590851E-1   -1.926645937293918E-1    1.173810446359445E-1   -3.567069764816040E-3    1.171597135622690E-1   -6.025899936238271E-3    8.654944637204496E-1   -1.846425652516961E-1
 1.088798705898232E8     8.629956002030466E-1   -1.941659385305709E-1    1.174293074681128E-1   -3.465244373263180E-3    1.172124792470588E-1   -5.917537185869468E-3    8.651260321184479E-1   -1.861938142490711E-1
 1.097106090474096E8     8.626537634075421E-1   -1.957064129319481E-1    1.174859444174984E-1   -3.356706978070596E-3    1.172671166876052E-1   -5.792074063409014E-3    8.647233497843337E-1   -1.877423027781834E-1
 1.105476859253232E8     8.623131955803502E-1   -1.972967919486476E-1    1.175512619469113E-1   -3.257675063612447E-3    1.173382106888448E-1   -5.676726593706093E-3    8.643817153954646E-1   -1.892912519853366E-1
 1.113911495848395E8     8.619885167507878E-1   -1.989064229955464E-1    1.176255468522391E-1   -3.146577116190565E-3    1.174129996913192E-1   -5.558184284109995E-3    8.639939385959040E-1   -1.908817571838126E-1
 1.122410487562254E8     8.616348796117820E-1   -2.005741417234278E-1    1.177132312504653E-1   -3.035619217621159E-3    1.174977216154425E-1   -5.441539431531670E-3    8.636064864271947E-1   -1.924516911409604E-1
 1.130974325415529E8     8.612431994234069E-1   -2.022530894651338E-1    1.178064642754925E-1   -2.939794281757818E-3    1.175907598273226E-1   -5.332489190067726E-3    8.632037295141922E-1   -1.940285552569357E-1
 1.139603504175348E8     8.608263889983345E-1   -2.039250223634463E-1    1.178944838091671E-1   -2.860038457150182E-3    1.176818404125972E-1   -5.241377321996275E-3    8.628083607810418E-1   -1.955976183373925E-1
 1.148298522383858E8     8.603964008578905E-1   -2.056102447272697E-1    1.179720113930249E-1   -2.779446690433013E-3    1.177587859967141E-1   -5.146182238351586E-3    8.624236896227712E-1   -1.972028124200491E-1
 1.157059882387014E8     8.599639825054436E-1   -2.073070325379243E-1    1.180422286535864E-1   -2.688106516909687E-3    1.178311184200392E-1   -5.047128387052022E-3    8.619988628843320E-1   -1.988235813491308E-1
 1.165888090363587E8     8.595059767834907E-1   -2.090067559054416E-1    1.181049686417803E-1   -2.598112495787329E-3    1.178949999978717E-1   -4.942194631770088E-3    8.616072305647727E-1   -2.004661676998178E-1
 1.174783656354443E8     8.590586793369337E-1   -2.107364198272836E-1    1.181618349253480E-1   -2.494880340186519E-3    1.179529360301789E-1   -4.825410421482046E-3    8.611892466698431E-1   -2.021441955137096E-1
 1.183747094291968E8     8.585888525645369E-1   -2.124951924684050E-1    1.182287233085119E-1   -2.369169769192055E-3    1.180264178697987E-1   -4.684569974666585E-3    8.607788574212668E-1   -2.038476618994047E-1
 1.192778922029803E8     8.581247633301672E-1   -2.142723172080126E-1    1.183246035247094E-1   -2.233247735410370E-3    1.181262145659723E-1   -4.544735365624233E-3    8.603271084551944E-1   -2.055465200408216E-1
 1.201879661372721E8     8.576253380909105E-1   -2.160658136521172E-1    1.184357849919176E-1   -2.121068251577163E-3    1.182364874975450E-1   -4.420684679065557E-3    8.598682975508316E-1   -2.072320492975747E-1
 1.211049838106809E8     8.571266427037084E-1   -2.178764814174256E-1    1.185321226557457E-1   -2.013918992313517E-3    1.183363245670584E-1   -4.308383211045194E-3    8.594189449982519E-1   -2.089303126509095E-1
 1.220289982029829E8     8.566356792063331E-1   -2.197134341906506E-1    1.186353108259127E-1   -1.891105193144403E-3    1.184357812774412E-1   -4.180994001843465E-3    8.589617605936226E-1   -2.106759966323131E-1
 1.229600626981811E8     8.560814151482231E-1   -2.215627353285558E-1    1.187480565067420E-1   -1.767368050774949E-3    1.185538821521471E-1   -4.055422973026119E-3    8.584813635307051E-1   -2.124281856330617E-1
 1.238982310875929E8     8.555103560566948E-1   -2.234254706969497E-1    1.188744612116183E-1   -1.657340859340527E-3    1.186778435905011E-1   -3.935378096529846E-3    8.579846892520828E-1   -2.141834325297751E-1
 1.248435575729559E8     8.549284464944896E-1   -2.252751201646433E-1    1.189952601963917E-1   -1.562062898853653E-3    1.187968673875617E-1   -3.829610004723957E-3    8.574825331015802E-1   -2.159225892706683E-1
 1.257960967695579E8     8.543287978674076E-1   -2.271291108462126E-1    1.190796374930746E-1   -1.448965790886662E-3    1.188830475728797E-1   -3.703065034589318E-3    8.570059668886210E-1   -2.176588469466126E-1
 1.267559037093956E8     8.537396605138868E-1   -2.290270644628302E-1    1.191833499676566E-1   -1.321175936361094E-3    1.189906617186919E-1   -3.575298422704945E-3    8.565493244312543E-1   -2.194673423950006E-1
 1.277230338443520E8     8.531283020327272E-1   -2.309441173524766E-1    1.193184807566108E-1   -1.174546658858211E-3    1.191228574582274E-1   -3.432128184461682E-3    8.560473037545079E-1   -2.213278081464850E-1
 1.286975430493991E8     8.525016348627447E-1   -2.328476937801708E-1    1.194740231826480E-1   -1.053318869014829E-3    1.192757034201507E-1   -3.308681972184743E-3    8.554951488131133E-1   -2.231719613422550E-1
 1.296794876258291E8     8.518692749544179E-1   -2.347442470800545E-1    1.196172342882871E-1   -9.442069164275267E-4    1.194148921716064E-1   -3.196703791612673E-3    8.549448712789218E-1   -2.250105508676681E-1
 1.306689243045034E8     8.512375574309937E-1   -2.366489831827241E-1    1.197613522900495E-1   -8.237777982804029E-4    1.195541497851190E-1   -3.075922319332588E-3    8.543878662558285E-1   -2.268506954049289E-1
 1.316659102491341E8     8.506012764524680E-1   -2.385831810799017E-1    1.199150190080924E-1   -7.037300958887610E-4    1.197037233314961E-1   -2.955607005568739E-3    8.538225685426317E-1   -2.287059013768568E-1
 1.326705030595824E8     8.499605723853187E-1   -2.405248133370701E-1    1.200728103803125E-1   -5.886725721827565E-4    1.198563014028729E-1   -2.834440229428330E-3    8.532497747221314E-1   -2.305597802031467E-1
 1.336827607751903E8     8.493137434830471E-1   -2.424983685248902E-1    1.202374790950988E-1   -4.789328138503103E-4    1.200216368896703E-1   -2.729828761989097E-3    8.526862913000692E-1   -2.324222869664282E-1
 1.347027418781318E8     8.486648125357596E-1   -2.444851698962801E-1    1.203933833386188E-1   -3.772742880351373E-4    1.201759294546653E-1   -2.624311071957900E-3    8.521172566855215E-1   -2.343071988891762E-1
 1.357305052967905E8     8.480002301463981E-1   -2.464940940245260E-1    1.205398858386619E-1   -2.710785462781600E-4    1.203171736898208E-1   -2.515710478630138E-3    8.515459061336649E-1   -2.361999603903895E-1
 1.367661104091667E8     8.473085964293968E-1   -2.485204404648253E-1    1.206857100609671E-1   -1.445659257453048E-4    1.204677921607179E-1   -2.388613425993830E-3    8.509452646657308E-1   -2.381099475952284E-1
 1.378096170463071E8     8.465828946314320E-1   -2.505688200437438E-1    1.208427855850564E-1   -1.400111065192179E-5    1.206252595768346E-1   -2.261951290027307E-3    8.503604611970383E-1   -2.400444556015209E-1
 1.388610854957592E8     8.458528116479621E-1   -2.526150838812861E-1    1.210124394556400E-1    1.264537943217580E-4    1.207946117037947E-1   -2.126361353791678E-3    8.497828329671828E-1   -2.419965727054265E-1
 1.399205765050585E8     8.451022480236072E-1   -2.546567922778102E-1    1.211916260013946E-1    2.721305659689095E-4    1.209733462065581E-1   -1.985544468940027E-3    8.491737344078190E-1   -2.439822827377784E-1
 1.409881512852336E8     8.443450068273113E-1   -2.567154203130073E-1    1.213944364372541E-1    4.120996726556560E-4    1.211740175023163E-1   -1.857597992521265E-3    8.485199697672928E-1   -2.460129209304759E-1
 1.420638715143470E8     8.435642063039419E-1   -2.587666546399657E-1    1.216044912158527E-1    5.423179020672797E-4    1.213791089930442E-1   -1.729985111715877E-3    8.478519493555369E-1   -2.480187042514621E-1
 1.431477993410541E8     8.427927991922260E-1   -2.608391030701431E-1    1.218239527316376E-1    6.643262652406168E-4    1.215923865812008E-1   -1.609848794063632E-3    8.471490777057730E-1   -2.500315489863641E-1
 1.442399973881980E8     8.419913794164371E-1   -2.629222729076987E-1    1.220442763909717E-1    7.739585134027439E-4    1.218156190964235E-1   -1.499943920922198E-3    8.464315015187821E-1   -2.520686750986682E-1
 1.453405287564251E8     8.411801219827164E-1   -2.649931409890435E-1    1.222672839493054E-1    8.739078493164038E-4    1.220370692537927E-1   -1.402037866208794E-3    8.456921641894465E-1   -2.540704791048370E-1
 1.464494570278296E8     8.403874945546088E-1   -2.670776196269958E-1    1.224858210594667E-1    9.733436648518487E-4    1.222516256629139E-1   -1.305430436717027E-3    8.449553507002135E-1   -2.560525392117276E-1
 1.475668462696298E8     8.395715525261548E-1   -2.691677097589928E-1    1.226997735405628E-1    1.067511264587239E-3    1.224661016570263E-1   -1.210478290099420E-3    8.442191884369692E-1   -2.580824269815815E-1
 1.486927610378684E8     8.387385778716837E-1   -2.713101573791147E-1    1.229145961215228E-1    1.149266827316184E-3    1.226765653742381E-1   -1.124984264840459E-3    8.434560887202325E-1   -2.601076078807790E-1
 1.498272663811400E8     8.379041471387041E-1   -2.734456487642503E-1    1.231176043375098E-1    1.238634873787832E-3    1.228823227897413E-1   -1.034705031322430E-3    8.427029624499387E-1   -2.621738873096121E-1
 1.509704278443526E8     8.370620364644381E-1   -2.756242766006113E-1    1.233125550241494E-1    1.335881265095657E-3    1.230772975573368E-1   -9.260531661982817E-4    8.419468103817637E-1   -2.642510314879237E-1
 1.521223114725131E8     8.361831776137949E-1   -2.778002213375542E-1    1.235181670648461E-1    1.466131202800741E-3    1.232820271698530E-1   -7.963178077080679E-4    8.411599814055424E-1   -2.663562388526420E-1
 1.532829838145407E8     8.352798199447732E-1   -2.799954726663646E-1    1.237435701453016E-1    1.588338257726027E-3    1.235106759277413E-1   -6.666951499592799E-4    8.403752826789929E-1   -2.684788312978109E-1
 1.544525119271165E8     8.343662104505866E-1   -2.821877594486019E-1    1.239970645614012E-1    1.724341778729381E-3    1.237564757534314E-1   -5.493343376566638E-4    8.395725653737404E-1   -2.706096739972389E-1
 1.556309633785520E8     8.334441320456520E-1   -2.844042584769169E-1    1.242489142089981E-1    1.849411822053129E-3    1.240132335622051E-1   -4.463364501839091E-4    8.387752057867746E-1   -2.727266157190684E-1
 1.568184062526983E8     8.325096083585267E-1   -2.865932551332338E-1    1.245076596687675E-1    1.995020601507472E-3    1.242813706192143E-1   -3.552420329639588E-4    8.379331994900590E-1   -2.748889793364964E-1
 1.580149091528745E8     8.315701786497279E-1   -2.888097954196799E-1    1.247825953022284E-1    2.151129763412321E-3    1.245584773435090E-1   -2.733031899880569E-4    8.370718318901442E-1   -2.770041287918092E-1
 1.592205412058353E8     8.306306686383053E-1   -2.910346854927738E-1    1.250702166601406E-1    2.294772081820238E-3    1.248520594501184E-1   -2.068171007187287E-4    8.362209088397905E-1   -2.790990631575817E-1
 1.604353720657634E8     8.296861942954099E-1   -2.932058846823474E-1    1.253609208210883E-1    2.433510039358264E-3    1.251516443922937E-1   -1.575025124740908E-4    8.353508806610584E-1   -2.812282936044532E-1
 1.616594719182909E8     8.287536718794186E-1   -2.954052428663374E-1    1.256492697955065E-1    2.553716122365973E-3    1.254445274624379E-1   -1.134254521963241E-4    8.344634432429551E-1   -2.833694304336538E-1
 1.628929114845590E8     8.278016819550340E-1   -2.975749001812144E-1    1.259293800623414E-1    2.667049185998922E-3    1.257326813690640E-1   -7.523675858003712E-5    8.335409465216972E-1   -2.855322113838944E-1
 1.641357620253014E8     8.269294229973063E-1   -2.995455753530663E-1    1.262037276677830E-1    2.784683846969551E-3    1.260121063214250E-1    2.344957398141712E-6    8.326239770272498E-1   -2.877105914877624E-1
 1.653880953449593E8     8.259513245675187E-1   -3.018581373708684E-1    1.264830648367349E-1    2.849614301303311E-3    1.262925367274500E-1    7.632278690903119E-5    8.316789298101323E-1   -2.899181266663099E-1
 1.666499837958347E8     8.249208691302001E-1   -3.041537075508955E-1    1.267589056872993E-1    2.920038412306398E-3    1.265711241621463E-1    1.562080277285271E-4    8.307160364512007E-1   -2.921330765290512E-1
 1.679215002822650E8     8.238724100465086E-1   -3.064936141171278E-1    1.270540407635696E-1    2.982103875424249E-3    1.268627148055587E-1    2.407626551384594E-4    8.297372503282349E-1   -2.943465154790608E-1
 1.692027182648404E8     8.228268152730372E-1   -3.088550696474837E-1    1.273491899598638E-1    3.038061988916424E-3    1.271616163860989E-1    3.097562161684742E-4    8.287513104566728E-1   -2.965880228899015E-1
 1.704937117646426E8     8.217342671243022E-1   -3.112606489718696E-1    1.276487401983250E-1    3.094285235835042E-3    1.274602602702056E-1    3.647174384447053E-4    8.277426983087289E-1   -2.988394203333373E-1
 1.717945553675260E8     8.206393870128421E-1   -3.136438035587156E-1    1.279345654505762E-1    3.149115383632776E-3    1.277575655779445E-1    4.073414216385239E-4    8.267224572715607E-1   -3.011342348950056E-1
 1.731053242284249E8     8.194898519490628E-1   -3.160807750375096E-1    1.282180999808593E-1    3.205195747578969E-3    1.280442468633119E-1    4.649189308582994E-4    8.256759402097759E-1   -3.034042442088796E-1
 1.744260940756933E8     8.183371748034900E-1   -3.185036494502035E-1    1.285120829366266E-1    3.271279497059280E-3    1.283360177398503E-1    5.214150270085589E-4    8.245959050584737E-1   -3.056911656808303E-1
 1.757569412154842E8     8.171152937503449E-1   -3.209417938837231E-1    1.287839645240279E-1    3.351100786374347E-3    1.286056878683142E-1    6.030383030837219E-4    8.234986404008258E-1   -3.079523526566770E-1
 1.770979425361561E8     8.158594387158565E-1   -3.233278623562298E-1    1.290804670705016E-1    3.457073718974482E-3    1.289060312551037E-1    7.028064553099550E-4    8.224030926507415E-1   -3.102278749166267E-1
 1.784491755127131E8     8.145965506001484E-1   -3.256759319452140E-1    1.293976321408769E-1    3.554948764653293E-3    1.292230613309481E-1    7.988580965898862E-4    8.212913644795056E-1   -3.125379047321372E-1
 1.798107182112848E8     8.133424548622160E-1   -3.280128601752926E-1    1.297262846537136E-1    3.650981843913109E-3    1.295427882852239E-1    8.923170065438753E-4    8.201058042357401E-1   -3.148191090480458E-1
 1.811826492936349E8     8.120665362111656E-1   -3.303754717183404E-1    1.300643415558942E-1    3.743001176602792E-3    1.298676990475450E-1    9.956691654603867E-4    8.189179082398457E-1   -3.171276408907439E-1
 1.825650480217040E8     8.107829237664806E-1   -3.327450411288513E-1    1.304013679751410E-1    3.820465509790017E-3    1.301980855336524E-1    1.078896792798350E-3    8.177469403459058E-1   -3.194764599830037E-1
 1.839579942621904E8     8.094805369452857E-1   -3.351203938204553E-1    1.307532061635614E-1    3.901404429676048E-3    1.305404463397800E-1    1.184351425507378E-3    8.165474872064392E-1   -3.217995237155818E-1
 1.853615684911660E8     8.081871884287561E-1   -3.374680122418411E-1    1.311153063052312E-1    3.998986834261808E-3    1.309064180478080E-1    1.296634766807689E-3    8.153360637945615E-1   -3.241150756191077E-1
 1.867758517987237E8     8.068628594178744E-1   -3.398758362299723E-1    1.314851825686019E-1    4.063484195814376E-3    1.312741988966914E-1    1.388764583332769E-3    8.141323725947403E-1   -3.265306319025109E-1
 1.882009258936609E8     8.055330124710554E-1   -3.422975124962920E-1    1.318646951342205E-1    4.139944123717001E-3    1.316672520300581E-1    1.493356546556856E-3    8.128614710178419E-1   -3.288962486040006E-1
 1.896368731082037E8     8.041510676515540E-1   -3.447394603593684E-1    1.322472509345732E-1    4.200096413761314E-3    1.320625999692112E-1    1.576210436432050E-3    8.115694677963327E-1   -3.313104703546495E-1
 1.910837764027621E8     8.027189422620836E-1   -3.472104171624000E-1    1.326331372985639E-1    4.259446249294051E-3    1.324551814912638E-1    1.657109702656692E-3    8.102954370175700E-1   -3.337351118956167E-1
 1.925417193707203E8     8.012061503218459E-1   -3.496920792958976E-1    1.330052081668633E-1    4.313370640671240E-3    1.328358905727135E-1    1.740767092780980E-3    8.089273325992833E-1   -3.361861150362234E-1
 1.940107862432706E8     7.996287263727985E-1   -3.521320635729803E-1    1.333621459293965E-1    4.384875415158417E-3    1.332125247999610E-1    1.850281246409080E-3    8.075316013765385E-1   -3.386528537065633E-1
 1.954910618942780E8     7.980138846697840E-1   -3.545430908873678E-1    1.337366692589319E-1    4.498738753874553E-3    1.336196395142512E-1    2.006692146525636E-3    8.060791325756683E-1   -3.410617003979079E-1
 1.969826318451810E8     7.964089019873769E-1   -3.569521557507959E-1    1.341644769289535E-1    4.602313874531979E-3    1.340872927579544E-1    2.128085864097476E-3    8.046831158865190E-1   -3.435078610820742E-1
 1.984855822699381E8     7.947508038812685E-1   -3.593410272015214E-1    1.345593047131134E-1    4.684991630581891E-3    1.345256124777948E-1    2.244155458439023E-3    8.032153050142227E-1   -3.459850307075770E-1
 2.000000000000000E8     7.930357412365535E-1   -3.616930917659676E-1    1.349361549470399E-1    4.812694150980917E-3    1.349649938691789E-1    2.400050240519693E-3    8.016826383640938E-1   -3.484359299175693E-1
