#  HZ   S   RI   R     50.00 
! Rohde & Schwarz Vector Network Analyzer 
! Rohde-Schwarz,ZNLE6-2Port,1323001256200024,1.71.1.10-23.02.1.238
! Created: UTC 4/11/2025, 7:23:51 AM
! freq[Hz]                re:S11                  im:S11                  re:S21                  im:S21                  re:S12                  im:S12                  re:S22                  im:S22
 1.000000000000000E5     6.662848649879506E-1    1.696552472821346E-1    3.365625697209758E-1   -1.704296830712430E-1    3.369724257936423E-1   -1.705304833214742E-1    6.658554533911296E-1    1.694695250296483E-1
 1.007629862646662E5     6.669383595952056E-1    1.692007514994132E-1    3.359064645853535E-1   -1.699835635731283E-1    3.362978336125963E-1   -1.700874914108114E-1    6.664823513192126E-1    1.690202155573348E-1
 1.015317940097331E5     6.675931930923422E-1    1.687745489763793E-1    3.352460792586272E-1   -1.695501349649406E-1    3.356447788358873E-1   -1.696517041108218E-1    6.671237289469594E-1    1.685739039152304E-1
 1.023064676522963E5     6.682021537320856E-1    1.683252768801077E-1    3.345916527079651E-1   -1.691134485399379E-1    3.349784971776238E-1   -1.692169545703213E-1    6.677602829202240E-1    1.681496845992026E-1
 1.030870519483485E5     6.688101369055897E-1    1.678741683027268E-1    3.339341901785990E-1   -1.686813917076528E-1    3.343330920766455E-1   -1.687837856976057E-1    6.683748379680046E-1    1.677167014966607E-1
 1.038735919953636E5     6.694544228345530E-1    1.674291344882250E-1    3.332783579115539E-1   -1.682579239098264E-1    3.336807897284360E-1   -1.683552956611158E-1    6.690352019005755E-1    1.672813260428446E-1
 1.046661332349037E5     6.700924142082701E-1    1.670034276803423E-1    3.326268425048596E-1   -1.678275765205977E-1    3.330333081545790E-1   -1.679332503892021E-1    6.696895835206165E-1    1.668756439050792E-1
 1.054647214552430E5     6.707466379557495E-1    1.665716212695185E-1    3.319774009476713E-1   -1.674154090485197E-1    3.323839914508061E-1   -1.675114082159324E-1    6.703208581031042E-1    1.664400109880678E-1
 1.062694027940149E5     6.713619103739308E-1    1.661661392995156E-1    3.313310136960326E-1   -1.669940212042691E-1    3.317368611446616E-1   -1.670922555338057E-1    6.709482479354834E-1    1.660245306960930E-1
 1.070802237408760E5     6.719879910726103E-1    1.657425501038364E-1    3.306911108233904E-1   -1.665760126815199E-1    3.310871191098241E-1   -1.666855555520616E-1    6.715619323019949E-1    1.656088419463336E-1
 1.078972311401927E5     6.726218115537440E-1    1.653245487673402E-1    3.300375897785205E-1   -1.661589345999542E-1    3.304429190947898E-1   -1.662714177120490E-1    6.722055507006852E-1    1.652045863757484E-1
 1.087204721937475E5     6.732539143670473E-1    1.649221960766181E-1    3.293968644400076E-1   -1.657568392908858E-1    3.298057294959545E-1   -1.658645624642384E-1    6.728396703460378E-1    1.647999610034784E-1
 1.095499944634658E5     6.738624269334985E-1    1.645140566652435E-1    3.287521633847589E-1   -1.653475049502625E-1    3.291681912057178E-1   -1.654550674482728E-1    6.734886764228093E-1    1.643997915106652E-1
 1.103858458741646E5     6.744942813627243E-1    1.641008149042078E-1    3.281075045404479E-1   -1.649457196957487E-1    3.285256642919795E-1   -1.650501961815015E-1    6.741065127193344E-1    1.639809602259031E-1
 1.112280747163201E5     6.751204057563308E-1    1.637000656684284E-1    3.274681062646719E-1   -1.645437523847763E-1    3.278807668883467E-1   -1.646547308451108E-1    6.747269112493600E-1    1.636015317030815E-1
 1.120767296488583E5     6.757469561430237E-1    1.632939097101638E-1    3.268281952793535E-1   -1.641451109199007E-1    3.272333009040013E-1   -1.642578270939540E-1    6.753542927047077E-1    1.631881961818383E-1
 1.129318597019661E5     6.763773377413346E-1    1.628918908286233E-1    3.261836185951332E-1   -1.637489767338083E-1    3.265846729280372E-1   -1.638606319500277E-1    6.759699860596297E-1    1.627763915976002E-1
 1.137935142799240E5     6.770303033134980E-1    1.625266299329419E-1    3.255578274676388E-1   -1.633585493367707E-1    3.259396435666811E-1   -1.634653727747110E-1    6.765992544533553E-1    1.623978392691364E-1
 1.146617431639607E5     6.776625565897835E-1    1.621338714929627E-1    3.249255704426468E-1   -1.629838107058184E-1    3.252985721452538E-1   -1.630752846457149E-1    6.772323541201528E-1    1.620069641117991E-1
 1.155365965151286E5     6.782952089226565E-1    1.617398110605571E-1    3.242861435316848E-1   -1.625939629236158E-1    3.246636930246730E-1   -1.626936921431994E-1    6.778509329412186E-1    1.616185264210556E-1
 1.164181248772018E5     6.789077517574720E-1    1.613604956647599E-1    3.236535072854816E-1   -1.622089390033025E-1    3.240243339628852E-1   -1.623137939697016E-1    6.784784947295608E-1    1.612413259290881E-1
 1.173063791795965E5     6.795464389786636E-1    1.609747219237502E-1    3.230222274596880E-1   -1.618308321878798E-1    3.233765998899492E-1   -1.619335148738458E-1    6.791018820119752E-1    1.608567795106594E-1
 1.182014107403141E5     6.801714862835214E-1    1.606022060051767E-1    3.223852231194275E-1   -1.614561817034937E-1    3.227429542635760E-1   -1.615466420797960E-1    6.797351959773877E-1    1.604874169212315E-1
 1.191032712689044E5     6.807897876749667E-1    1.602172099797665E-1    3.217377971796508E-1   -1.610726364813347E-1    3.220974500527274E-1   -1.611737023520149E-1    6.803432838686635E-1    1.600911739658505E-1
 1.200120128694542E5     6.814208525955425E-1    1.598399145933407E-1    3.211053052532180E-1   -1.607021881478005E-1    3.214726241246058E-1   -1.607997906167466E-1    6.809931272345917E-1    1.597386038034902E-1
 1.209276880435975E5     6.820396035443448E-1    1.594813256412419E-1    3.204683925191903E-1   -1.603300766008393E-1    3.208464527304596E-1   -1.604329626757721E-1    6.816380277052345E-1    1.593696949306875E-1
 1.218503496935483E5     6.826361954359428E-1    1.590958992208215E-1    3.198230705551344E-1   -1.599634879076007E-1    3.201988209627118E-1   -1.600688994863413E-1    6.822481176004118E-1    1.589984951686120E-1
 1.227800511251578E5     6.832811799241065E-1    1.587441972381186E-1    3.192039619771847E-1   -1.595967038437534E-1    3.195656006978079E-1   -1.596904987408195E-1    6.828710853737843E-1    1.586315911148980E-1
 1.237168460509929E5     6.839112752113932E-1    1.583709565021465E-1    3.185676508664432E-1   -1.592390256056608E-1    3.189334596414892E-1   -1.593309040595142E-1    6.834914526409013E-1    1.582722445110007E-1
 1.246607885934402E5     6.845485084833025E-1    1.580130833322455E-1    3.179233517493422E-1   -1.588702425404766E-1    3.182951078903210E-1   -1.589800788045497E-1    6.841124044509184E-1    1.579063773514796E-1
 1.256119332878327E5     6.851590734667812E-1    1.576522990176455E-1    3.172961532947193E-1   -1.585155484952253E-1    3.176680909919827E-1   -1.586175007580810E-1    6.847351074491196E-1    1.575617935175152E-1
 1.265703350856002E5     6.857826516408867E-1    1.572985401626210E-1    3.166682206471168E-1   -1.581584486410864E-1    3.170525653978036E-1   -1.582678305565928E-1    6.853788511279673E-1    1.572015628491813E-1
 1.275360493574453E5     6.864227107415165E-1    1.569400515062061E-1    3.160448248329982E-1   -1.578096742469278E-1    3.164064894658311E-1   -1.579080277522767E-1    6.859919700323169E-1    1.568430600952354E-1
 1.285091318965405E5     6.870380664722887E-1    1.565849766437214E-1    3.154126221868958E-1   -1.574585016181424E-1    3.157888610978841E-1   -1.575598744106121E-1    6.866461448164606E-1    1.565045300174841E-1
 1.294896389217529E5     6.876435231495615E-1    1.562264389633258E-1    3.147722863570754E-1   -1.571068144862294E-1    3.151426462097563E-1   -1.572114378972887E-1    6.872341711904907E-1    1.561432487899073E-1
 1.304776270808914E5     6.882785867547870E-1    1.559027340778265E-1    3.141536664618179E-1   -1.567605225118172E-1    3.145127513559515E-1   -1.568662690039107E-1    6.878895630885055E-1    1.558075762222536E-1
 1.314731534539810E5     6.888917769208297E-1    1.555418677474552E-1    3.135175324740810E-1   -1.564172287806845E-1    3.138782260883528E-1   -1.565236988634185E-1    6.885016322513950E-1    1.554598304745193E-1
 1.324762755565583E5     6.895274053049003E-1    1.552107190479691E-1    3.128937566692601E-1   -1.560765241069483E-1    3.132480286866082E-1   -1.561751229681225E-1    6.891300310262719E-1    1.551220313635882E-1
 1.334870513429962E5     6.901756286877859E-1    1.548509339159299E-1    3.122608468039377E-1   -1.557444056172750E-1    3.126237859034441E-1   -1.558362757195792E-1    6.897754467626692E-1    1.547885538524793E-1
 1.345055392098512E5     6.907726036939674E-1    1.545206444754902E-1    3.116228578319923E-1   -1.553944731427007E-1    3.119911205665468E-1   -1.554947355933021E-1    6.903838573365152E-1    1.544367703276058E-1
 1.355317979992373E5     6.913867335433328E-1    1.541849413998555E-1    3.109930514069509E-1   -1.550590317682632E-1    3.113585767914767E-1   -1.551620812598655E-1    6.910465653453923E-1    1.541165070654643E-1
 1.365658870022265E5     6.920284655241182E-1    1.538587747539720E-1    3.103678603176955E-1   -1.547204191580906E-1    3.107208458317032E-1   -1.548168938567785E-1    6.916402450211678E-1    1.537819350354991E-1
 1.376078659622731E5     6.926554028949422E-1    1.535144507729972E-1    3.097400020248781E-1   -1.543933132048215E-1    3.100889463277252E-1   -1.544946804972518E-1    6.922761184224634E-1    1.534325981062205E-1
 1.386577950786655E5     6.932941768846674E-1    1.531872765744175E-1    3.091223425900543E-1   -1.540607977140453E-1    3.094569029227087E-1   -1.541611090618059E-1    6.928773611647485E-1    1.531093141779324E-1
 1.397157350100044E5     6.939010132429188E-1    1.528446050578344E-1    3.084750215906097E-1   -1.537276455198430E-1    3.088280999384544E-1   -1.538315899089959E-1    6.934965267192849E-1    1.527710017269861E-1
 1.407817468777081E5     6.945095934468981E-1    1.525118006987255E-1    3.078479852860027E-1   -1.534032437331789E-1    3.082008845198582E-1   -1.535088379039818E-1    6.941360364885250E-1    1.524445531099994E-1
 1.418558922695422E5     6.951361614722950E-1    1.521947418952722E-1    3.072177567715843E-1   -1.530796113294449E-1    3.075583594764662E-1   -1.531730672679238E-1    6.947518134155179E-1    1.521195923346854E-1
 1.429382332431784E5     6.957542794305940E-1    1.518591161951763E-1    3.065903764207209E-1   -1.527467611870744E-1    3.069325973143774E-1   -1.528491290493149E-1    6.953668040950658E-1    1.518055449935868E-1
 1.440288323297804E5     6.963775704022310E-1    1.515400696883852E-1    3.059546539352032E-1   -1.524311149824267E-1    3.063027379976582E-1   -1.525297444721904E-1    6.959911672061224E-1    1.514789269907244E-1
 1.451277525376154E5     6.970040294017621E-1    1.512202241463008E-1    3.053388761928152E-1   -1.521139211324382E-1    3.056807260792383E-1   -1.522163288109217E-1    6.966200526395064E-1    1.511551113950586E-1
 1.462350573556962E5     6.976154536526651E-1    1.509079789015724E-1    3.047062888622846E-1   -1.517927442135983E-1    3.050665180992658E-1   -1.518971914676593E-1    6.972476755364713E-1    1.508271124249957E-1
 1.473508107574468E5     6.982314254595314E-1    1.505818036356800E-1    3.040717202015757E-1   -1.514735525144097E-1    3.044190240847139E-1   -1.515748163812987E-1    6.978599527450178E-1    1.504991214250794E-1
 1.484750772044004E5     6.988633831529418E-1    1.502560424580462E-1    3.034442962940300E-1   -1.511539666763565E-1    3.037947670781030E-1   -1.512626506023595E-1    6.984891291797242E-1    1.501975740726663E-1
 1.496079216499225E5     6.995031761486382E-1    1.499471696377244E-1    3.028206291717843E-1   -1.508406457850940E-1    3.031595840493203E-1   -1.509472600999495E-1    6.991181384021362E-1    1.498822443423206E-1
 1.507494095429637E5     7.000923380298547E-1    1.496282867126294E-1    3.021801463601897E-1   -1.505314221012017E-1    3.025342113268593E-1   -1.506285312131894E-1    6.997326495012598E-1    1.495798890965247E-1
 1.518996068318418E5     7.006854332802439E-1    1.493105654965557E-1    3.015509243800774E-1   -1.502165358742886E-1    3.018924628647571E-1   -1.503149698438443E-1    7.003443126803605E-1    1.492499005935727E-1
 1.530585799680507E5     7.013134377015203E-1    1.489933348345018E-1    3.009248967968104E-1   -1.499024818813988E-1    3.012806171229956E-1   -1.500072536816187E-1    7.009828073569466E-1    1.489433841505424E-1
 1.542263959101001E5     7.019587034858953E-1    1.486805695757419E-1    3.002973669745268E-1   -1.495994408107980E-1    3.006521028756927E-1   -1.497037593804222E-1    7.016082316355815E-1    1.486436483881282E-1
 1.554031221273835E5     7.025652953988742E-1    1.483729811226587E-1    2.996737043305974E-1   -1.492859463877454E-1    3.000186325127981E-1   -1.493990130382926E-1    7.022456742894465E-1    1.483197554594045E-1
 1.565888266040779E5     7.032079997766660E-1    1.480708401592619E-1    2.990501455482111E-1   -1.489852892917737E-1    2.993838844352654E-1   -1.490890807556808E-1    7.028500337895697E-1    1.480141763637714E-1
 1.577835778430689E5     7.038146870529873E-1    1.477641740828355E-1    2.984215425340824E-1   -1.486796510718673E-1    2.987582471558681E-1   -1.487797699045301E-1    7.034473822966645E-1    1.477082560092385E-1
 1.589874448699104E5     7.044112451000982E-1    1.474627611262507E-1    2.977934408337024E-1   -1.483691190488533E-1    2.981316069626448E-1   -1.484787143984991E-1    7.040878451213719E-1    1.474058368970111E-1
 1.602004972368116E5     7.050541323036615E-1    1.471606312792325E-1    2.971652513002058E-1   -1.480719151019783E-1    2.975114439337798E-1   -1.481737352410030E-1    7.047220894579521E-1    1.471270821560215E-1
 1.614228050266550E5     7.056933798938644E-1    1.468730883684179E-1    2.965372649954318E-1   -1.477683145687186E-1    2.968871459524459E-1   -1.478758956949816E-1    7.053696631241724E-1    1.468095844316320E-1
 1.626544388570473E5     7.063184842038125E-1    1.465579811362364E-1    2.958998677030359E-1   -1.474617582663832E-1    2.962499036194976E-1   -1.475798693666824E-1    7.059666618522933E-1    1.464950548372785E-1
 1.638954698843964E5     7.069360046033235E-1    1.462462929093323E-1    2.952704584653282E-1   -1.471613699874048E-1    2.956250351775292E-1   -1.472801196822246E-1    7.065980633767348E-1    1.462079261889445E-1
 1.651459698080244E5     7.075703123144343E-1    1.459485891993971E-1    2.946448193605386E-1   -1.468714865525808E-1    2.949882525691941E-1   -1.469783583526783E-1    7.072123237747511E-1    1.458955063598412E-1
 1.664060108743095E5     7.082102077824245E-1    1.456624338639312E-1    2.940192428281971E-1   -1.465724006186185E-1    2.943683898108718E-1   -1.466802237150767E-1    7.078487074158850E-1    1.456050201802361E-1
 1.676756658808590E5     7.088115853252722E-1    1.453738364287076E-1    2.933947184123899E-1   -1.462790010519067E-1    2.937223691704262E-1   -1.463841737387774E-1    7.084364782365972E-1    1.453114517681377E-1
 1.689550081807175E5     7.094326742249829E-1    1.450754480823492E-1    2.927673555778899E-1   -1.459808705544084E-1    2.930974968275592E-1   -1.460912822198078E-1    7.090724752077591E-1    1.450162001296202E-1
 1.702441116866020E5     7.100722302551862E-1    1.447689429897717E-1    2.921274090852237E-1   -1.456855650753291E-1    2.924689919475714E-1   -1.457971549819931E-1    7.097060959709729E-1    1.447179493399465E-1
 1.715430508751738E5     7.107144284798904E-1    1.444873625767807E-1    2.915144102931207E-1   -1.453944119880308E-1    2.918478432068975E-1   -1.455057837324947E-1    7.103332845668209E-1    1.444155965871538E-1
 1.728519007913403E5     7.113448966009374E-1    1.441888758128444E-1    2.908936410065520E-1   -1.451093642726734E-1    2.912283445904468E-1   -1.452193652228042E-1    7.109899368791776E-1    1.441295178846896E-1
 1.741707370525927E5     7.119838908896933E-1    1.438854952314643E-1    2.902689586667541E-1   -1.448113238147535E-1    2.905947110135694E-1   -1.449276511044177E-1    7.115938509469401E-1    1.438372033441715E-1
 1.754996358533718E5     7.126018556639687E-1    1.436149707032891E-1    2.896407394739595E-1   -1.445185984234924E-1    2.899648289665945E-1   -1.446339794408268E-1    7.121990052499771E-1    1.435466253386610E-1
 1.768386739694722E5     7.132161111178748E-1    1.433235938709831E-1    2.890089385608734E-1   -1.442279554090515E-1    2.893271301398602E-1   -1.443457014655732E-1    7.128323254206301E-1    1.432635040200516E-1
 1.781879287624771E5     7.138453346200082E-1    1.430215794080589E-1    2.883773231802824E-1   -1.439423235691774E-1    2.887106442742689E-1   -1.440483289306404E-1    7.134384253962532E-1    1.429640772247316E-1
 1.795474781842276E5     7.144492710391349E-1    1.427338294296242E-1    2.877486828812000E-1   -1.436467568094887E-1    2.880712321405769E-1   -1.437645018314227E-1    7.140711322858025E-1    1.426801255612779E-1
 1.809174007813277E5     7.150925614190639E-1    1.424430069992434E-1    2.871303706651545E-1   -1.433595701554440E-1    2.874489771595205E-1   -1.434747502023364E-1    7.147025954929122E-1    1.424008044348886E-1
 1.822977756996804E5     7.157029591965086E-1    1.421539194979652E-1    2.865031477172950E-1   -1.430747603223338E-1    2.868201163767997E-1   -1.431805366140850E-1    7.152992472326716E-1    1.420960775646161E-1
 1.836886826890609E5     7.163115376863858E-1    1.418614521888160E-1    2.858583290427077E-1   -1.427843382376736E-1    2.861934342065308E-1   -1.429042804742138E-1    7.159489183206100E-1    1.418030631382227E-1
 1.850902021077247E5     7.169315551822780E-1    1.415681303844920E-1    2.852418784388835E-1   -1.425038488347587E-1    2.855652404059235E-1   -1.426202243518083E-1    7.165688314087368E-1    1.415169357489879E-1
 1.865024149270491E5     7.175594025299564E-1    1.412858833530256E-1    2.846192256932815E-1   -1.422205877707590E-1    2.849417616926738E-1   -1.423299395532290E-1    7.172068574687661E-1    1.412340118314019E-1
 1.879254027362132E5     7.181978179218286E-1    1.410138957913657E-1    2.839898321830018E-1   -1.419353071322808E-1    2.843089048204978E-1   -1.420494455198354E-1    7.178419337855254E-1    1.409541913672607E-1
 1.893592477469092E5     7.188433948760279E-1    1.407105682491418E-1    2.833793281711811E-1   -1.416517392913032E-1    2.836567596709693E-1   -1.417350857344566E-1    7.184250818673420E-1    1.406800252439352E-1
 1.908040327980933E5     7.194352174182544E-1    1.404390789067161E-1    2.827411225521850E-1   -1.413610564031818E-1    2.830592214630624E-1   -1.414793258437208E-1    7.190516185659612E-1    1.403936606043545E-1
 1.922598413607715E5     7.200574998549846E-1    1.401526848997297E-1    2.821188712558906E-1   -1.410727998776014E-1    2.824397223915620E-1   -1.411948935569404E-1    7.196773633171518E-1    1.401061459043549E-1
 1.937267575428232E5     7.206566165986598E-1    1.398563134865517E-1    2.814810588141619E-1   -1.407932189899820E-1    2.818065340287231E-1   -1.409059634164368E-1    7.203035851857207E-1    1.398152236288830E-1
 1.952048660938581E5     7.212937800330325E-1    1.395790032517076E-1    2.808591014184671E-1   -1.405137605742700E-1    2.811822000940510E-1   -1.406300798597808E-1    7.209469601805734E-1    1.395282015113895E-1
 1.966942524101142E5     7.219415686898970E-1    1.392990388862125E-1    2.802367065827919E-1   -1.402325779833165E-1    2.805520519888763E-1   -1.403443826730906E-1    7.215727510828183E-1    1.392586772529659E-1
 1.981950025393913E5     7.225422839933512E-1    1.390110490666170E-1    2.796078416886489E-1   -1.399486462856787E-1    2.799212448853779E-1   -1.400603354247413E-1    7.221889289363583E-1    1.389591704041661E-1
 1.997072031860212E5     7.231579850481612E-1    1.387329846792089E-1    2.789816133073209E-1   -1.396646883770896E-1    2.792912273494537E-1   -1.397795115720371E-1    7.228091567613443E-1    1.386873371409905E-1
 2.012309417158795E5     7.237841349213567E-1    1.384448645740701E-1    2.783480596695955E-1   -1.393794661494488E-1    2.786614820392347E-1   -1.394958279936152E-1    7.234228672742392E-1    1.383893780589891E-1
 2.027663061614301E5     7.244307330107772E-1    1.381665062832185E-1    2.777289125569373E-1   -1.391059117790551E-1    2.780366697982752E-1   -1.392157566323113E-1    7.240261885962839E-1    1.381129248242925E-1
 2.043133852268128E5     7.250254259354214E-1    1.378743215752701E-1    2.770993242875095E-1   -1.388195574610808E-1    2.774025432361616E-1   -1.389370296428554E-1    7.246465425884840E-1    1.378177004163395E-1
 2.058722682929675E5     7.256495623888983E-1    1.376091821370156E-1    2.764886375079011E-1   -1.385376525606467E-1    2.767756337626379E-1   -1.386475949710610E-1    7.252640307853333E-1    1.375317022544841E-1
 2.074430454227995E5     7.262579537416819E-1    1.373208279738069E-1    2.758616207286494E-1   -1.382600237497402E-1    2.761488485686596E-1   -1.383727029469199E-1    7.258827657393903E-1    1.372399374065208E-1
 2.090258073663807E5     7.268789384612312E-1    1.370272432455037E-1    2.752268946742047E-1   -1.379760087591520E-1    2.755242236266029E-1   -1.380928937443059E-1    7.265104643252457E-1    1.369631791286751E-1
 2.106206455661938E5     7.275252016122348E-1    1.367488539863455E-1    2.746138647092696E-1   -1.377001879601660E-1    2.748992822669817E-1   -1.378071130740701E-1    7.271409171168906E-1    1.366892894555817E-1
 2.122276521624151E5     7.281098406126600E-1    1.364597552578979E-1    2.739859369626091E-1   -1.374202582949360E-1    2.742786001178497E-1   -1.375246534779280E-1    7.277646921692321E-1    1.364078005133594E-1
 2.138469199982374E5     7.287309158918266E-1    1.361725783380112E-1    2.733569161135030E-1   -1.371433235419405E-1    2.736483194061889E-1   -1.372425476345888E-1    7.283730960774787E-1    1.361153475848768E-1
 2.154785426252357E5     7.293878207219019E-1    1.358995100420294E-1    2.727406040219658E-1   -1.368630115639916E-1    2.730271041153213E-1   -1.369642343714582E-1    7.290139778719599E-1    1.358362633460853E-1
 2.171226143087691E5     7.299871093353937E-1    1.356134274896961E-1    2.721028818817304E-1   -1.365783901388059E-1    2.723948033088047E-1   -1.366725583468320E-1    7.296060237630790E-1    1.355502618649809E-1
 2.187792300334291E5     7.306100006351082E-1    1.353350762931824E-1    2.714852791119436E-1   -1.362964513818592E-1    2.717851628026511E-1   -1.364007539077050E-1    7.302323256142779E-1    1.352644318870370E-1
 2.204484855085266E5     7.312151462652138E-1    1.350418785437210E-1    2.708607287134960E-1   -1.360152886626692E-1    2.711683927484466E-1   -1.361257590730406E-1    7.308532689683029E-1    1.349661930257123E-1
 2.221304771736209E5     7.318266855017398E-1    1.347563895414571E-1    2.702287133362295E-1   -1.357360790468973E-1    2.705534696732844E-1   -1.358387123479498E-1    7.314742596627772E-1    1.346917132602294E-1
 2.238253022040931E5     7.324393905803446E-1    1.344829854992667E-1    2.696046152503296E-1   -1.354507438286372E-1    2.699330069311316E-1   -1.355616378174688E-1    7.321073782622276E-1    1.344119673875845E-1
 2.255330585167579E5     7.330817797653431E-1    1.341992428425487E-1    2.689806449494332E-1   -1.351762994851681E-1    2.693020268230017E-1   -1.352826869010939E-1    7.326966222455921E-1    1.341167386768975E-1
 2.272538447755223E5     7.337049576831579E-1    1.339304067456288E-1    2.683564959976685E-1   -1.348827615714585E-1    2.686732424632002E-1   -1.349879699941338E-1    7.333085714530867E-1    1.338382649936434E-1
 2.289877603970853E5     7.343270168866907E-1    1.336279993307989E-1    2.677345123848101E-1   -1.346107121871467E-1    2.680528576668565E-1   -1.347061348675013E-1    7.338974921213368E-1    1.335400025298029E-1
 2.307349055566813E5     7.349314193380704E-1    1.333505634383866E-1    2.671096122301860E-1   -1.343252187188450E-1    2.674277057412964E-1   -1.344233644271675E-1    7.345249703579503E-1    1.332561981261610E-1
 2.324953811938693E5     7.355407483496192E-1    1.330666060320782E-1    2.664957124011509E-1   -1.340342691941265E-1    2.668172093802119E-1   -1.341407964133772E-1    7.351431908525304E-1    1.329774966865909E-1
 2.342692890183618E5     7.361422706598441E-1    1.327749129659372E-1    2.658561002334728E-1   -1.337549410505554E-1    2.661903463409781E-1   -1.338565247068873E-1    7.357458386191026E-1    1.326869733707384E-1
 2.360567315159030E5     7.367990745376359E-1    1.324931684351100E-1    2.652458127832277E-1   -1.334719012440918E-1    2.655732052143973E-1   -1.335744027195052E-1    7.363980261272507E-1    1.324066607636563E-1
 2.378578119541888E5     7.374072595088071E-1    1.322110171537635E-1    2.646265002438911E-1   -1.331892111096123E-1    2.649578459762167E-1   -1.332933576685494E-1    7.369952355211471E-1    1.321184376977488E-1
 2.396726343888348E5     7.380053312781681E-1    1.319136524288640E-1    2.639990468487881E-1   -1.328918770210163E-1    2.643380650558666E-1   -1.330089095825653E-1    7.375981778243252E-1    1.318245535442052E-1
 2.415013036693852E5     7.385895563778159E-1    1.316336109503691E-1    2.633819354082322E-1   -1.326041437711330E-1    2.637284103889409E-1   -1.327244330567083E-1    7.381836094676959E-1    1.315563331086282E-1
 2.433439254453724E5     7.392211123510621E-1    1.313449105882489E-1    2.627677325695293E-1   -1.323235573397284E-1    2.631045875848579E-1   -1.324337497006856E-1    7.387916944109503E-1    1.312553149408174E-1
 2.452006061724201E5     7.398486722817043E-1    1.310468679401059E-1    2.621744316010963E-1   -1.320405938918801E-1    2.624854316737676E-1   -1.321463729033945E-1    7.393984926732757E-1    1.309805603879713E-1
 2.470714531183934E5     7.404158959344663E-1    1.307564950157507E-1    2.615499519057051E-1   -1.317427128274369E-1    2.618673864364939E-1   -1.318613685803316E-1    7.400046677011162E-1    1.306842161124785E-1
 2.489565743695979E5     7.410584597952787E-1    1.304672735918771E-1    2.609276882052877E-1   -1.314584006214597E-1    2.612438665386995E-1   -1.315770666417706E-1    7.406298164101229E-1    1.304110515639658E-1
 2.508560788370214E5     7.416557118384128E-1    1.301777188506791E-1    2.603171074635784E-1   -1.311710525581677E-1    2.606357959813983E-1   -1.312893488667409E-1    7.412356024542393E-1    1.301312456671398E-1
 2.527700762626280E5     7.422263320834929E-1    1.298649871663554E-1    2.596977727977338E-1   -1.308761888025157E-1    2.600268110630684E-1   -1.310039816254947E-1    7.418496789277391E-1    1.298397392751572E-1
 2.546986772256976E5     7.428593767071744E-1    1.295794651330206E-1    2.590875100619365E-1   -1.305849944401419E-1    2.594019426219160E-1   -1.307138020073942E-1    7.424259305826953E-1    1.295500783178869E-1
 2.566419931492161E5     7.434365492373965E-1    1.292748361853181E-1    2.584763252589987E-1   -1.302959466966239E-1    2.587947212605015E-1   -1.304261288652391E-1    7.430127211176683E-1    1.292711417467994E-1
 2.586001363063102E5     7.440139221036229E-1    1.289661771638614E-1    2.578608320484194E-1   -1.300014372709532E-1    2.581847698489738E-1   -1.301362788850403E-1    7.436394752207138E-1    1.289923702077475E-1
 2.605732198267354E5     7.446083063121310E-1    1.286712569586782E-1    2.572623663200047E-1   -1.297177025854877E-1    2.575752968428650E-1   -1.298445646155861E-1    7.442573057505426E-1    1.287067694076483E-1
 2.625613577034118E5     7.452203497869720E-1    1.283814486191313E-1    2.566559284131842E-1   -1.294207637338863E-1    2.569722447918976E-1   -1.295612352797081E-1    7.448501703318867E-1    1.284088028842703E-1
 2.645646647990093E5     7.458140077149704E-1    1.280857471709663E-1    2.560508218676154E-1   -1.291319872653860E-1    2.563663455009463E-1   -1.292682297816289E-1    7.454347023632492E-1    1.281191327815468E-1
 2.665832568525859E5     7.464172646267924E-1    1.277892942912755E-1    2.554430524283214E-1   -1.288414440681485E-1    2.557553605585635E-1   -1.289732036401925E-1    7.460337761462472E-1    1.278274352435589E-1
 2.686172504862709E5     7.469841984090988E-1    1.274992716828258E-1    2.548468114708712E-1   -1.285461081861449E-1    2.551363996789859E-1   -1.286732675746841E-1    7.466076042808441E-1    1.275448584225372E-1
 2.706667632120051E5     7.475423632244017E-1    1.272005290238584E-1    2.542404830013016E-1   -1.282461254514237E-1    2.545403192381980E-1   -1.283873043721692E-1    7.472426797759802E-1    1.272579416460371E-1
 2.727319134383292E5     7.481460448053165E-1    1.269150210846427E-1    2.536401963108127E-1   -1.279541362608638E-1    2.539405034256214E-1   -1.280937394979427E-1    7.478490816331254E-1    1.269679109925418E-1
 2.748128204772244E5     7.487353805516686E-1    1.266188865750893E-1    2.530455727787067E-1   -1.276591441109473E-1    2.533367179127260E-1   -1.277983138321323E-1    7.484258404581027E-1    1.266819290306434E-1
 2.769096045510074E5     7.493191616414328E-1    1.263367542574212E-1    2.524521390310021E-1   -1.273626182339714E-1    2.527312174919069E-1   -1.275028460191959E-1    7.490273479247002E-1    1.263828722452014E-1
 2.790223867992730E5     7.499147132473669E-1    1.260512064525549E-1    2.518629169506024E-1   -1.270669430415226E-1    2.521498353505198E-1   -1.272178197876555E-1    7.496382040956694E-1    1.260974907312031E-1
 2.811512892858952E5     7.505119581845676E-1    1.257460180928754E-1    2.512639864044316E-1   -1.267678834609863E-1    2.515441690767647E-1   -1.269121356503126E-1    7.502260431955174E-1    1.257954643915196E-1
 2.832964350060779E5     7.511065232686285E-1    1.254591471664574E-1    2.506624263461253E-1   -1.264695766628902E-1    2.509494229882403E-1   -1.266165901680488E-1    7.508025758609049E-1    1.255008085867589E-1
 2.854579478934632E5     7.516537408864703E-1    1.251555873961250E-1    2.500710219692181E-1   -1.261734821187017E-1    2.503568041791528E-1   -1.263232760432539E-1    7.513949635328450E-1    1.252052457839680E-1
 2.876359528272883E5     7.522623134100812E-1    1.248687213280943E-1    2.494918797099889E-1   -1.258798503098687E-1    2.497677164355825E-1   -1.260246393689488E-1    7.519829183711124E-1    1.249179724770812E-1
 2.898305756396023E5     7.528454331890218E-1    1.245737621305751E-1    2.489167038934048E-1   -1.255845244195467E-1    2.491871962592897E-1   -1.257319999724818E-1    7.525791328183322E-1    1.246238306555994E-1
 2.920419431225354E5     7.534348141551812E-1    1.242874475523643E-1    2.483412573377704E-1   -1.252878653916382E-1    2.485952437121968E-1   -1.254316320625844E-1    7.531478105676649E-1    1.243242276909742E-1
 2.942701830356239E5     7.540291088681536E-1    1.239914366728946E-1    2.477625201729153E-1   -1.249942505096212E-1    2.480099625294852E-1   -1.251340033353032E-1    7.537475497004394E-1    1.240255483329990E-1
 2.965154241131938E5     7.546162248545466E-1    1.237057321708240E-1    2.471776253125010E-1   -1.246914559746256E-1    2.474351383716905E-1   -1.248386243079768E-1    7.543417974828955E-1    1.237393753435175E-1
 2.987777960717941E5     7.551802150518441E-1    1.234208244333388E-1    2.466010252851610E-1   -1.243946158242823E-1    2.468334875115118E-1   -1.245329313025720E-1    7.548922607346309E-1    1.234283337511520E-1
 3.010574296176943E5     7.557955390794332E-1    1.231319506374299E-1    2.460263008017977E-1   -1.241011609513176E-1    2.462695078136349E-1   -1.242395440792393E-1    7.554901737173100E-1    1.231477137715298E-1
 3.033544564544337E5     7.563315432461661E-1    1.228281036580382E-1    2.454568370452132E-1   -1.238023051315502E-1    2.456951918889248E-1   -1.239450214049649E-1    7.560479778578988E-1    1.228415219645779E-1
 3.056690092904338E5     7.569048007739644E-1    1.225419753435757E-1    2.448802252239085E-1   -1.235036117537172E-1    2.451267004488434E-1   -1.236478247489381E-1    7.566281182913039E-1    1.225540108727974E-1
 3.080012218466610E5     7.574870917511580E-1    1.222551611420290E-1    2.443156896062552E-1   -1.232055559663593E-1    2.445482218605355E-1   -1.233423650956477E-1    7.571536299013335E-1    1.222441945293952E-1
 3.103512288643551E5     7.580657565647704E-1    1.219529888674008E-1    2.437416807314333E-1   -1.229067610470864E-1    2.439709632645378E-1   -1.230440204498299E-1    7.577406337780612E-1    1.219370951104420E-1
 3.127191661128128E5     7.586138063551381E-1    1.216439568768418E-1    2.431648642324558E-1   -1.226063207491778E-1    2.434054047252285E-1   -1.227494188832591E-1    7.583145354258655E-1    1.216429941355328E-1
 3.151051703972316E5     7.591842190519961E-1    1.213640193661387E-1    2.426072254181454E-1   -1.223103498211238E-1    2.428283162530381E-1   -1.224408872168475E-1    7.588402857996700E-1    1.213484265489610E-1
 3.175093795666154E5     7.597407816662066E-1    1.210537013426437E-1    2.420493397126423E-1   -1.220204826836889E-1    2.422621543792382E-1   -1.221496807585555E-1    7.594183315784572E-1    1.210522294255780E-1
 3.199319325217355E5     7.602887789120958E-1    1.207416268969358E-1    2.414890886810225E-1   -1.217255019179532E-1    2.416956956207025E-1   -1.218490123043971E-1    7.599929648752477E-1    1.207524493981398E-1
 3.223729692231574E5     7.608528768696039E-1    1.204511648503043E-1    2.409189133419924E-1   -1.214251406187370E-1    2.411317074011231E-1   -1.215486489075446E-1    7.605689360931612E-1    1.204421229572129E-1
 3.248326306993267E5     7.614405402989722E-1    1.201569842444335E-1    2.403708468005182E-1   -1.211301870916143E-1    2.405788533670975E-1   -1.212543347762870E-1    7.611535009094530E-1    1.201619680647541E-1
 3.273110590547157E5     7.619582604360852E-1    1.198534674632173E-1    2.398082982105047E-1   -1.208384471092561E-1    2.400310754402395E-1   -1.209597465702940E-1    7.617021258943706E-1    1.198629961814565E-1
 3.298083974780366E5     7.625407721218763E-1    1.195672245909853E-1    2.392479559462069E-1   -1.205339581363395E-1    2.394789062677995E-1   -1.206630995541366E-1    7.622535093694722E-1    1.195588862400078E-1
 3.323247902505097E5     7.631023394966057E-1    1.192770836126671E-1    2.386954792625013E-1   -1.202410677401154E-1    2.389298675151178E-1   -1.203682188561640E-1    7.628309981803599E-1    1.192745135010793E-1
 3.348603827542018E5     7.636557763843077E-1    1.189811505340233E-1    2.381595251269979E-1   -1.199536460362239E-1    2.383801248091898E-1   -1.200774689453946E-1    7.633611252150616E-1    1.189596426798162E-1
 3.374153214804250E5     7.641997136835912E-1    1.186851118161257E-1    2.376167484158882E-1   -1.196539323463468E-1    2.378262544017543E-1   -1.197829379576330E-1    7.639060799275608E-1    1.186692662376521E-1
 3.399897540381991E5     7.647362357022548E-1    1.183810112470018E-1    2.370651971340592E-1   -1.193635841801637E-1    2.372755170409247E-1   -1.194843617086804E-1    7.644403343068786E-1    1.183652867946397E-1
 3.425838291627830E5     7.653098888156438E-1    1.180765749228791E-1    2.365163698135987E-1   -1.190748066165722E-1    2.367341593580511E-1   -1.191858104925843E-1    7.650078546305989E-1    1.180703214400558E-1
 3.451976967242625E5     7.658450836612466E-1    1.177818639988633E-1    2.359653930879039E-1   -1.187746182588142E-1    2.361896808979467E-1   -1.188965957061268E-1    7.655489959098513E-1    1.177748797977972E-1
 3.478315077362126E5     7.663987188859882E-1    1.174952674019355E-1    2.354318104875476E-1   -1.184959147696026E-1    2.356491710293434E-1   -1.185991370754657E-1    7.660941471139452E-1    1.174835319460744E-1
 3.504854143644205E5     7.669222112771977E-1    1.171944400680414E-1    2.348884226363587E-1   -1.181968662791770E-1    2.350945740665973E-1   -1.183030639318027E-1    7.666228376883337E-1    1.171940546715437E-1
 3.531595699356794E5     7.674964315529560E-1    1.168995020203287E-1    2.343596810489204E-1   -1.179158499484426E-1    2.345585931960123E-1   -1.180137772478980E-1    7.671951401321527E-1    1.168930533846209E-1
 3.558541289466428E5     7.680386049673499E-1    1.166048674798498E-1    2.338199642520080E-1   -1.176221215328379E-1    2.340205438556800E-1   -1.177217030914587E-1    7.677223072033763E-1    1.165926080480265E-1
 3.585692470727532E5     7.685327821119160E-1    1.163047643613533E-1    2.332827233739292E-1   -1.173323496308843E-1    2.334794810463807E-1   -1.174247725158538E-1    7.682427880638532E-1    1.163020599616648E-1
 3.613050811772345E5     7.691098262379131E-1    1.160251147267954E-1    2.327558700505856E-1   -1.170494770533243E-1    2.329384546116373E-1   -1.171324789406003E-1    7.687676127068810E-1    1.160055984911442E-1
 3.640617893201578E5     7.696456764381800E-1    1.157276081556048E-1    2.322191032560888E-1   -1.167640081682238E-1    2.324136175872412E-1   -1.168487437202286E-1    7.692955797662551E-1    1.157133555176224E-1
 3.668395307675686E5     7.701880595790100E-1    1.154370735288902E-1    2.316841843269856E-1   -1.164761650294953E-1    2.318807269789160E-1   -1.165569610023815E-1    7.698225818395049E-1    1.154091571093070E-1
 3.696384660006910E5     7.706904863127633E-1    1.151376746368977E-1    2.311509734845810E-1   -1.161905709159386E-1    2.313469385562735E-1   -1.162696221485442E-1    7.703404770780233E-1    1.151158930512708E-1
 3.724587567251991E5     7.712383639413870E-1    1.148493571056372E-1    2.306151216968484E-1   -1.159036326120943E-1    2.308252912126589E-1   -1.159823524585222E-1    7.708696165077148E-1    1.148293835731981E-1
 3.753005658805580E5     7.717555649002691E-1    1.145531332559446E-1    2.300919720631038E-1   -1.156205477543682E-1    2.302963384294133E-1   -1.156971984449287E-1    7.714053900393651E-1    1.145437709291841E-1
 3.781640576494411E5     7.723039321732972E-1    1.142637868274702E-1    2.295812502489211E-1   -1.153443932925463E-1    2.297663902047388E-1   -1.154074767237893E-1    7.719577586414536E-1    1.142479440935779E-1
 3.810493974672107E5     7.728584122538955E-1    1.139855977801982E-1    2.290602350077106E-1   -1.150593856119035E-1    2.292491637733208E-1   -1.151309118462994E-1    7.724678629666820E-1    1.139597066891450E-1
 3.839567520314787E5     7.733723471862218E-1    1.136921278089607E-1    2.285236269444122E-1   -1.147735340776649E-1    2.287290471880835E-1   -1.148480488569720E-1    7.729849427431903E-1    1.136679607982273E-1
 3.868862893117373E5     7.738826288115490E-1    1.134003760306323E-1    2.280035698084741E-1   -1.144931289011356E-1    2.282103064627432E-1   -1.145605466065643E-1    7.735398853370963E-1    1.133770179336331E-1
 3.898381785590618E5     7.744417184882344E-1    1.131255676472440E-1    2.274827613349403E-1   -1.142219440636195E-1    2.276903193138484E-1   -1.142769688923985E-1    7.740484175929474E-1    1.130914867347160E-1
 3.928125903158922E5     7.749415921408087E-1    1.128213526655773E-1    2.269572719512480E-1   -1.139388850951579E-1    2.271634875732380E-1   -1.139931156653908E-1    7.745550643525687E-1    1.127976043455010E-1
 3.958096964258819E5     7.754788908902224E-1    1.125359859506155E-1    2.264354295924893E-1   -1.136558382544879E-1    2.266553712870026E-1   -1.137213019294269E-1    7.750740579868978E-1    1.125102094149828E-1
 3.988296700438284E5     7.759701896395657E-1    1.122427493606526E-1    2.259167591294222E-1   -1.133762349498635E-1    2.261518407633522E-1   -1.134421660691465E-1    7.756008331626005E-1    1.122230183819201E-1
 4.018726856456762E5     7.765195433092954E-1    1.119561811034958E-1    2.254112511105464E-1   -1.130958857413649E-1    2.256322303343087E-1   -1.131626825016826E-1    7.761129109368917E-1    1.119386775621235E-1
 4.049389190385970E5     7.769991405770149E-1    1.116752085485431E-1    2.248880222013208E-1   -1.128202624413281E-1    2.251193571863776E-1   -1.128808903949192E-1    7.766239920491471E-1    1.116542663678604E-1
 4.080285473711492E5     7.774851980128590E-1    1.113755759098754E-1    2.243673263382343E-1   -1.125420663966100E-1    2.245934612722390E-1   -1.126011855037346E-1    7.771327220372868E-1    1.113629108135473E-1
 4.111417491435081E5     7.780239959990898E-1    1.111092982235993E-1    2.238471776469509E-1   -1.122639367376866E-1    2.240735531228137E-1   -1.123185034928618E-1    7.776220792130291E-1    1.110792911457520E-1
 4.142787042177814E5     7.785746293954439E-1    1.108005787581817E-1    2.233551734767978E-1   -1.119956360825071E-1    2.235715807607832E-1   -1.120427272410594E-1    7.781403453474065E-1    1.107853650940205E-1
 4.174395938283992E5     7.790614660428100E-1    1.105278026794577E-1    2.228372822899489E-1   -1.117165190009905E-1    2.230648569014756E-1   -1.117737767751008E-1    7.786579514475657E-1    1.105105539245777E-1
 4.206246005925882E5     7.795527829419850E-1    1.102286353493368E-1    2.223243842968924E-1   -1.114420351511352E-1    2.225629791304327E-1   -1.115022967107140E-1    7.791690713195965E-1    1.102274804767849E-1
 4.238339085209167E5     7.800690797759197E-1    1.099491430671834E-1    2.218078325258583E-1   -1.111697387032309E-1    2.220535040523916E-1   -1.112272941229307E-1    7.797252092239177E-1    1.099491851118477E-1
 4.270677030279291E5     7.805778394957211E-1    1.096614565407699E-1    2.212960246750395E-1   -1.108955547931774E-1    2.215417220925558E-1   -1.109493003517911E-1    7.802114286685977E-1    1.096620972447872E-1
 4.303261709428567E5     7.811134183300267E-1    1.093862979058318E-1    2.207995849836933E-1   -1.106230090160051E-1    2.210331435841379E-1   -1.106767746709020E-1    7.806954128761863E-1    1.093721923340343E-1
 4.336095005204146E5     7.816231933035787E-1    1.090909403857572E-1    2.202966470092913E-1   -1.103490074754021E-1    2.205365735539660E-1   -1.104066757802451E-1    7.812565870373295E-1    1.090995503917970E-1
 4.369178814516730E5     7.821151925448275E-1    1.088025102132537E-1    2.197709100325077E-1   -1.100692531946398E-1    2.200277540370113E-1   -1.101312593205129E-1    7.817245007964323E-1    1.088159865358986E-1
 4.402515048750198E5     7.826397778543929E-1    1.085215776599016E-1    2.192711220360571E-1   -1.097954955130283E-1    2.195184032486683E-1   -1.098551358070221E-1    7.822743572567415E-1    1.085256847621668E-1
 4.436105633872023E5     7.831478023393984E-1    1.082433485055350E-1    2.187746178584416E-1   -1.095213722578429E-1    2.190264236103096E-1   -1.095840388594856E-1    7.827810288121897E-1    1.082468502957038E-1
 4.469952510544541E5     7.836310073201125E-1    1.079522738405789E-1    2.182729944372671E-1   -1.092491609187186E-1    2.185165287081899E-1   -1.093115592897163E-1    7.832773481073337E-1    1.079636624239070E-1
 4.504057634237097E5     7.841183546123414E-1    1.076547964161726E-1    2.177642021027043E-1   -1.089817764764838E-1    2.180108525528367E-1   -1.090368004990448E-1    7.838120190593257E-1    1.076909567930760E-1
 4.538422975338975E5     7.846069572013302E-1    1.073746801896310E-1    2.172552310510232E-1   -1.086974883198394E-1    2.175074478247364E-1   -1.087655579096919E-1    7.842655283170561E-1    1.073940062298667E-1
 4.573050519273265E5     7.851067539013121E-1    1.070948040776391E-1    2.167484191870694E-1   -1.084241005270269E-1    2.170126521721855E-1   -1.084925310923853E-1    7.847855385958157E-1    1.071157018386625E-1
 4.607942266611566E5     7.855989246428384E-1    1.068112379391189E-1    2.162519082052064E-1   -1.081518963361317E-1    2.165030953467602E-1   -1.082167627254688E-1    7.852355287596952E-1    1.068280375660263E-1
 4.643100233189550E5     7.861305459173752E-1    1.065342249912971E-1    2.157563626589435E-1   -1.078747252076299E-1    2.160082399582725E-1   -1.079422484983379E-1    7.857523152628189E-1    1.065429853255473E-1
 4.678526450223470E5     7.865988649601096E-1    1.062357081255716E-1    2.152557421749057E-1   -1.075972700759032E-1    2.155092423955197E-1   -1.076735718717320E-1    7.862307058186884E-1    1.062557288840795E-1
 4.714222964427450E5     7.870848731765412E-1    1.059511604580493E-1    2.147647766742602E-1   -1.073240027158340E-1    2.150191636866569E-1   -1.073962615499826E-1    7.867564610219604E-1    1.059746219403156E-1
 4.750191838131770E5     7.875817608086947E-1    1.056605799586993E-1    2.142673457876832E-1   -1.070518505449299E-1    2.145251135653967E-1   -1.071308226072057E-1    7.872501330816125E-1    1.056954090633764E-1
 4.786435149402010E5     7.880790713523707E-1    1.053753556291828E-1    2.137735633775418E-1   -1.067785905407415E-1    2.140288468025660E-1   -1.068553678105820E-1    7.877422631744315E-1    1.054013150257960E-1
 4.822954992159092E5     7.885544047873929E-1    1.050868476990148E-1    2.132791549809817E-1   -1.064983231845367E-1    2.135352435647416E-1   -1.065857216625725E-1    7.882200286675424E-1    1.051181834460109E-1
 4.859753476300298E5     7.890362969446141E-1    1.047957336958072E-1    2.127884065161597E-1   -1.062246096246669E-1    2.130503621768622E-1   -1.063100806087000E-1    7.887324747787468E-1    1.048235508885146E-1
 4.896832727821107E5     7.895334190582944E-1    1.045207629594827E-1    2.122973881697500E-1   -1.059434612438484E-1    2.125534462080969E-1   -1.060313585756289E-1    7.891796586219554E-1    1.045462081260013E-1
 4.934194888938060E5     7.900041179163453E-1    1.042280940410631E-1    2.118096793272108E-1   -1.056692863060206E-1    2.120748707157858E-1   -1.057626635903005E-1    7.897059626006863E-1    1.042545697395656E-1
 4.971842118212518E5     7.904849245775820E-1    1.039408857859138E-1    2.113252559744930E-1   -1.053935865082911E-1    2.115853430943428E-1   -1.054863562368817E-1    7.901807759108864E-1    1.039749089575428E-1
 5.009776590675358E5     7.909549241596110E-1    1.036404724638137E-1    2.108412171962170E-1   -1.051196191169746E-1    2.110902851148725E-1   -1.052078099951378E-1    7.906439135305044E-1    1.036814697761010E-1
 5.048000497952673E5     7.914575953429734E-1    1.033617445754681E-1    2.103572235405904E-1   -1.048397143923156E-1    2.106137136180441E-1   -1.049364688344538E-1    7.911233957540046E-1    1.034012032983963E-1
 5.086516048392332E5     7.919611213261608E-1    1.030737618556999E-1    2.098877429308890E-1   -1.045750094834944E-1    2.101277741453649E-1   -1.046570769297958E-1    7.916148351156085E-1    1.031124222853577E-1
 5.125325467191607E5     7.924391366329374E-1    1.027899195228281E-1    2.094101671615871E-1   -1.042922066804822E-1    2.096476596279642E-1   -1.043829486810741E-1    7.920693216515735E-1    1.028297233693169E-1
 5.164430996525706E5     7.929096188882535E-1    1.025000981488399E-1    2.089265239868967E-1   -1.040144728418272E-1    2.091756845092347E-1   -1.041159054942538E-1    7.925682885250271E-1    1.025485676530940E-1
 5.203834895677360E5     7.933915686984259E-1    1.022000713877335E-1    2.084558022037331E-1   -1.037450246716745E-1    2.086984733436698E-1   -1.038376036675990E-1    7.930077264465174E-1    1.022610893607364E-1
 5.243539441167285E5     7.938486863006988E-1    1.019083547054826E-1    2.079762444060215E-1   -1.034639673815290E-1    2.082200998877327E-1   -1.035677134940377E-1    7.935317779795987E-1    1.019668930236932E-1
 5.283546926885745E5     7.943351160961616E-1    1.016238979475462E-1    2.075026922667595E-1   -1.031917654669058E-1    2.077380874913689E-1   -1.032803770422591E-1    7.939780965103688E-1    1.016752289808518E-1
 5.323859664225065E5     7.947997944804064E-1    1.013271576062478E-1    2.070245695729314E-1   -1.029067884054535E-1    2.072588862709098E-1   -1.029991002671275E-1    7.944348613581870E-1    1.013995143020453E-1
 5.364479982213206E5     7.952615750257348E-1    1.010451571795593E-1    2.065552279533638E-1   -1.026300980901129E-1    2.067856771147580E-1   -1.027251718665999E-1    7.948743128286198E-1    1.011011370253054E-1
 5.405410227648258E5     7.957468505813680E-1    1.007573847756525E-1    2.060861978401567E-1   -1.023554603877499E-1    2.063336471133166E-1   -1.024553725335635E-1    7.953908236607774E-1    1.008221380654011E-1
 5.446652765234077E5     7.961718691048049E-1    1.004623866964026E-1    2.056205025247332E-1   -1.020653167842123E-1    2.058644891897375E-1   -1.021811639583422E-1    7.958846484842067E-1    1.005328279460451E-1
 5.488209977716873E5     7.966253978537986E-1    1.001802924564686E-1    2.051507330542140E-1   -1.017891755117719E-1    2.053936466620711E-1   -1.019023446079368E-1    7.962942701977032E-1    1.002460319447049E-1
 5.530084266022880E5     7.970649023777442E-1    9.988943822388949E-2    2.046906526226256E-1   -1.015099900400178E-1    2.049455827656880E-1   -1.016316674080758E-1    7.967632094627768E-1    9.997316597458968E-2
 5.572278049397101E5     7.975338587513585E-1    9.960575075821865E-2    2.042367751781819E-1   -1.012406390134675E-1    2.044823699800468E-1   -1.013590406734756E-1    7.972264745495893E-1    9.967063770262516E-2
 5.614793765543010E5     7.980052716688172E-1    9.931765254392919E-2    2.037841279209911E-1   -1.009727602735189E-1    2.040346571295797E-1   -1.010935281295975E-1    7.976788762330977E-1    9.938087557401080E-2
 5.657633870763436E5     7.984345743422534E-1    9.901715622355495E-2    2.033345836495522E-1   -1.006982272846742E-1    2.035728805355350E-1   -1.008147742081578E-1    7.981413173328843E-1    9.908760831850467E-2
 5.700800840102463E5     7.989054092212449E-1    9.875288884463798E-2    2.028727198411936E-1   -1.004221887396310E-1    2.031137355909895E-1   -1.005375706543632E-1    7.985660488295205E-1    9.881643960810108E-2
 5.744297167488408E5     7.993588114221087E-1    9.846381977094708E-2    2.024298502458531E-1   -1.001466324210026E-1    2.026669434482889E-1   -1.002637798649795E-1    7.990354992509706E-1    9.854213350554235E-2
 5.788125365877954E5     7.998180486957637E-1    9.817161845143794E-2    2.019805993511352E-1   -9.987809948879421E-2    2.022189016633557E-1   -9.999655790795697E-2    7.994854013073948E-1    9.825488197143935E-2
 5.832287967401261E5     8.002722532956870E-1    9.789214623357764E-2    2.015259665919798E-1   -9.960188253025497E-2    2.017693702893796E-1   -9.971933167910801E-2    7.998844298294392E-1    9.797594980004125E-2
 5.876787523508312E5     8.006892619531982E-1    9.759449773142202E-2    2.010762160151502E-1   -9.932450496315616E-2    2.013068457757835E-1   -9.944143860166113E-2    8.003055475893170E-1    9.769577400639787E-2
 5.921626605116295E5     8.011455459483184E-1    9.731982432647664E-2    2.006415642006066E-1   -9.905839512492451E-2    2.008663950026451E-1   -9.917472269045798E-2    8.007428172459886E-1    9.740135712999072E-2
 5.966807802758140E5     8.015766607621607E-1    9.703558285630111E-2    2.002038479268636E-1   -9.879674705559784E-2    2.004301696664670E-1   -9.890467507532935E-2    8.012131501496932E-1    9.714088454598908E-2
 6.012333726732214E5     8.020075354714576E-1    9.675767421615629E-2    1.997678831286402E-1   -9.852239730754646E-2    1.999920083853909E-1   -9.864124810276771E-2    8.016229613393903E-1    9.685583126935401E-2
 6.058207007253073E5     8.023899409890638E-1    9.648136433832294E-2    1.993130816638850E-1   -9.824489893118611E-2    1.995533300849980E-1   -9.837096175500536E-2    8.020411076841686E-1    9.658196004652640E-2
 6.104430294603459E5     8.028367133916821E-1    9.618829059287133E-2    1.988833939387267E-1   -9.797939653895048E-2    1.991191330574962E-1   -9.811297192530680E-2    8.024435294166393E-1    9.629625457706673E-2
 6.151006259287392E5     8.032439148741292E-1    9.594123592442892E-2    1.984415062856762E-1   -9.770986535712904E-2    1.986906968052054E-1   -9.784764097818985E-2    8.029522787512462E-1    9.602906255416409E-2
 6.197937592184512E5     8.036621371453077E-1    9.565338266958592E-2    1.980210642916964E-1   -9.744948120785075E-2    1.982491518841079E-1   -9.758415133895137E-2    8.033606511837902E-1    9.574349846649791E-2
 6.245227004705463E5     8.040736670930471E-1    9.537717343424701E-2    1.975924773639166E-1   -9.719237340379137E-2    1.978166459217930E-1   -9.730948712990387E-2    8.037893514956211E-1    9.547816130467743E-2
 6.292877228948588E5     8.045048310580040E-1    9.511637568966400E-2    1.971655197190617E-1   -9.693480807108898E-2    1.973761290374894E-1   -9.704912689140302E-2    8.041905686496649E-1    9.520900002524271E-2
 6.340891017857760E5     8.049321719662516E-1    9.483128882412852E-2    1.967397084127514E-1   -9.667512130381803E-2    1.969457758028663E-1   -9.679401308775641E-2    8.045987742744772E-1    9.493518206677562E-2
 6.389271145381465E5     8.053354319398484E-1    9.455655486201223E-2    1.963096508766205E-1   -9.641358036621053E-2    1.965206335163316E-1   -9.653341948933669E-2    8.050416659011572E-1    9.465295608753868E-2
 6.438020406633007E5     8.057287753484204E-1    9.428627706511153E-2    1.958820886040886E-1   -9.615749934417116E-2    1.960944500068178E-1   -9.627299579900091E-2    8.054453884477429E-1    9.439097855680562E-2
 6.487141618052023E5     8.061882823549033E-1    9.400722025587392E-2    1.954642660761128E-1   -9.590333092239443E-2    1.956718395452394E-1   -9.601699252445123E-2    8.058689997754661E-1    9.411025659535660E-2
 6.536637617567203E5     8.066222276656436E-1    9.374315448215143E-2    1.950394580383142E-1   -9.565304762433552E-2    1.952473788717432E-1   -9.576882788815677E-2    8.062861673359640E-1    9.383969031374992E-2
 6.586511264760230E5     8.070240002058006E-1    9.348867273732704E-2    1.946159579477745E-1   -9.538843716742665E-2    1.948198482505000E-1   -9.550310741239196E-2    8.067024810369228E-1    9.357832312686808E-2
 6.636765441031042E5     8.074343345095514E-1    9.321944984273790E-2    1.941974403485594E-1   -9.513427204479265E-2    1.944023229917900E-1   -9.526123182153748E-2    8.071739708963361E-1    9.330254740312433E-2
 6.687403049764220E5     8.078481837192077E-1    9.293698013647714E-2    1.937774553638911E-1   -9.488890959285544E-2    1.939843969106676E-1   -9.501031184125240E-2    8.075547742253577E-1    9.305394578625821E-2
 6.738427016496789E5     8.082613405785211E-1    9.268694502997959E-2    1.933555682872782E-1   -9.463158972309911E-2    1.935658966481508E-1   -9.476021634456498E-2    8.079654993904403E-1    9.278791192883390E-2
 6.789840289087215E5     8.086676638147389E-1    9.242142067195155E-2    1.929284460852304E-1   -9.437339770810375E-2    1.931426847070836E-1   -9.451405942116443E-2    8.083653411636778E-1    9.253138566399616E-2
 6.841645837885707E5     8.090950561263982E-1    9.215153419564506E-2    1.925110365503499E-1   -9.412920778330698E-2    1.927239979752780E-1   -9.426369072737065E-2    8.087940883501068E-1    9.227634174865240E-2
 6.893846655905881E5     8.095204458293342E-1    9.188334516497315E-2    1.920954306815496E-1   -9.388015394365988E-2    1.923122823424093E-1   -9.402236679828847E-2    8.091926812302793E-1    9.201364542008955E-2
 6.946445758997592E5     8.099084823032286E-1    9.163660392763164E-2    1.916856318478783E-1   -9.364088123058509E-2    1.918850363025109E-1   -9.377394364781401E-2    8.096263854583421E-1    9.173343758270132E-2
 6.999446186021230E5     8.103271487270441E-1    9.138202278651909E-2    1.912653182836001E-1   -9.339469935384075E-2    1.914760711804278E-1   -9.353299440452859E-2    8.100229698129388E-1    9.149154915572008E-2
 7.052850999023273E5     8.107418552206754E-1    9.111036071953772E-2    1.908546123060009E-1   -9.315835889353211E-2    1.910579541749577E-1   -9.328015898825472E-2    8.104547850280251E-1    9.123484294822665E-2
 7.106663283413178E5     8.111191252492145E-1    9.087853131634346E-2    1.904423790718155E-1   -9.291340704653892E-2    1.906467447171448E-1   -9.303751113002008E-2    8.108561707232783E-1    9.098329163864623E-2
 7.160886148141696E5     8.115393605454451E-1    9.060724973733793E-2    1.900173027649608E-1   -9.267426049654762E-2    1.902279562556080E-1   -9.280082970856558E-2    8.112388635541011E-1    9.073588176130810E-2
 7.215522725880400E5     8.119302886690571E-1    9.034833716949300E-2    1.896038959250697E-1   -9.243280938405594E-2    1.898163095280944E-1   -9.255795457684893E-2    8.116285514174131E-1    9.048499561692376E-2
 7.270576173202734E5     8.123552701570889E-1    9.008582607440214E-2    1.891833033375922E-1   -9.218576191867615E-2    1.894022087469160E-1   -9.232172856461757E-2    8.120300767626284E-1    9.023445703655041E-2
 7.326049670766364E5     8.127747246034568E-1    8.982228147322296E-2    1.887862934331192E-1   -9.194790127761721E-2    1.889932247042912E-1   -9.208622677554394E-2    8.124870223686781E-1    8.997128946973521E-2
 7.381946423496918E5     8.131452459458811E-1    8.958051318288988E-2    1.883679164821049E-1   -9.171846452242725E-2    1.885699520155145E-1   -9.184382077522653E-2    8.128746452783931E-1    8.971431738376068E-2
 7.438269660773217E5     8.135591118791838E-1    8.933401826966443E-2    1.879591087939006E-1   -9.147270438492525E-2    1.881537028990224E-1   -9.160280450141339E-2    8.132897855328022E-1    8.944741431417512E-2
 7.495022636613748E5     8.139919474345677E-1    8.907116503235719E-2    1.875464357982966E-1   -9.124428605017117E-2    1.877362426822424E-1   -9.136002496512528E-2    8.136946538950099E-1    8.920733250845081E-2
 7.552208629864733E5     8.143938357751433E-1    8.880978986140933E-2    1.871382153983296E-1   -9.100298249962613E-2    1.873257698742145E-1   -9.111930416219820E-2    8.140786935882766E-1    8.895390776597861E-2
 7.609830944389519E5     8.147808702626460E-1    8.855081206761545E-2    1.867266659697517E-1   -9.075878191145725E-2    1.869192092622934E-1   -9.088688871538050E-2    8.145001110069007E-1    8.870750942752101E-2
 7.667892909259528E5     8.152176078544346E-1    8.831283173735688E-2    1.863137434263406E-1   -9.051824524255148E-2    1.865098001697060E-1   -9.064949668276155E-2    8.149275489509460E-1    8.845864759058379E-2
 7.726397878946491E5     8.155882059633611E-1    8.804583150274724E-2    1.858967624549978E-1   -9.027430539041142E-2    1.860934735096519E-1   -9.040377162411811E-2    8.152848568950147E-1    8.822404758876587E-2
 7.785349233516312E5     8.160229233316253E-1    8.779162046783570E-2    1.854856603242408E-1   -9.003464291494487E-2    1.856810705680280E-1   -9.015671089546357E-2    8.156843557984234E-1    8.796595368667644E-2
 7.844750378824320E5     8.164079937636047E-1    8.755385278655227E-2    1.850778917954014E-1   -8.979024186011730E-2    1.852618588437184E-1   -8.992313458863377E-2    8.160729754237085E-1    8.770361938782198E-2
 7.904604746712097E5     8.168068204262677E-1    8.730703589766087E-2    1.846780125004733E-1   -8.955808328133108E-2    1.848618977275940E-1   -8.969788057396384E-2    8.165030015964125E-1    8.744925752379004E-2
 7.964915795205662E5     8.172405451266234E-1    8.702798451608568E-2    1.842645832225554E-1   -8.931937296222069E-2    1.844599226252774E-1   -8.945876904470086E-2    8.169299536398313E-1    8.718933319982450E-2
 8.025687008715309E5     8.176167648974979E-1    8.676328749341361E-2    1.838528294643444E-1   -8.908269551831370E-2    1.840512531068649E-1   -8.921951432380215E-2    8.173288681864346E-1    8.692381647290692E-2
 8.086921898236905E5     8.180305215102827E-1    8.650833820324819E-2    1.834551887051910E-1   -8.884453218322577E-2    1.836392448104797E-1   -8.897543530553458E-2    8.177256987100856E-1    8.668651235410835E-2
 8.148624001554718E5     8.184407794599600E-1    8.625704618111385E-2    1.830472994877279E-1   -8.859968306767382E-2    1.832263963209980E-1   -8.873275710050467E-2    8.181304269808328E-1    8.641905554858892E-2
 8.210796883445872E5     8.188282657602183E-1    8.599929824377443E-2    1.826380221287847E-1   -8.835630845055008E-2    1.828274041697207E-1   -8.849312735834385E-2    8.185358702474232E-1    8.617792642136995E-2
 8.273444135886204E5     8.192097313039448E-1    8.573229423187810E-2    1.822360974839779E-1   -8.812314764752176E-2    1.824187875234374E-1   -8.824863841268316E-2    8.189201069896903E-1    8.590992688556326E-2
 8.336569378257846E5     8.195979132242706E-1    8.550259146030025E-2    1.818390204355150E-1   -8.788576715356487E-2    1.820171102628491E-1   -8.800386730079955E-2    8.193296004180818E-1    8.565883647289842E-2
 8.400176257558319E5     8.199925814592468E-1    8.522316022815088E-2    1.814380752847735E-1   -8.763615646701491E-2    1.816226630246003E-1   -8.776928784294470E-2    8.197319761922747E-1    8.540704068340553E-2
 8.464268448611222E5     8.203559382056889E-1    8.497792233309849E-2    1.810397475335593E-1   -8.739348902315310E-2    1.812184863888354E-1   -8.752208653520550E-2    8.200762922327757E-1    8.514431208787809E-2
 8.528849654278599E5     8.207825696681004E-1    8.470199514432167E-2    1.806390518030505E-1   -8.714289361629213E-2    1.808170969903456E-1   -8.728745461228712E-2    8.204723543701146E-1    8.488581133715312E-2
 8.593923605674774E5     8.211859246559138E-1    8.443628281183413E-2    1.802487382176801E-1   -8.689756086352766E-2    1.804209252672778E-1   -8.703651204737732E-2    8.208313982342642E-1    8.465148338402068E-2
 8.659494062381978E5     8.215554801715578E-1    8.418267325846313E-2    1.798529478717148E-1   -8.665157741270579E-2    1.800241671650271E-1   -8.679155991309075E-2    8.212497683708786E-1    8.439760282747574E-2
 8.725564812667536E5     8.219233751043191E-1    8.388888716707406E-2    1.794607657244472E-1   -8.641538668388048E-2    1.796290770480713E-1   -8.654754325149092E-2    8.216201490488911E-1    8.413780350569892E-2
 8.792139673702718E5     8.223398821901310E-1    8.365669603808722E-2    1.790749076172870E-1   -8.617714066939514E-2    1.792400893362505E-1   -8.630825808863438E-2    8.220164728770272E-1    8.387942508596864E-2
 8.859222491783336E5     8.227182038571735E-1    8.339023036648152E-2    1.786843729321430E-1   -8.592491770495864E-2    1.788442237536358E-1   -8.606306117111669E-2    8.223924193051180E-1    8.360689564459867E-2
 8.926817142551860E5     8.231035532561310E-1    8.313923525200757E-2    1.782980169567180E-1   -8.568720276013769E-2    1.784636552470672E-1   -8.581953092274708E-2    8.227619059702970E-1    8.335311463903800E-2
 8.994927531221397E5     8.234477447921171E-1    8.288906830792452E-2    1.779076091514668E-1   -8.543686178329976E-2    1.780761187230079E-1   -8.558856558435833E-2    8.231621343688772E-1    8.307786624616430E-2
 9.063557592801275E5     8.238367159943095E-1    8.261068070642134E-2    1.775234436506736E-1   -8.519165959777014E-2    1.776872116259487E-1   -8.533990587538816E-2    8.235218590245725E-1    8.282568862205235E-2
 9.132711292324457E5     8.241842995146341E-1    8.237516342464780E-2    1.771489663363378E-1   -8.495951824964366E-2    1.773125784950093E-1   -8.510692012846191E-2    8.239236622424295E-1    8.255041260239140E-2
 9.202392625076511E5     8.245506531120860E-1    8.209940818269935E-2    1.767685517251929E-1   -8.471623415043757E-2    1.769320964240100E-1   -8.485728400977212E-2    8.243019973068236E-1    8.231516066399332E-2
 9.272605616826499E5     8.249229980720205E-1    8.184056047541832E-2    1.763918673679842E-1   -8.448743429646632E-2    1.765535752151724E-1   -8.461921055609030E-2    8.246795880799529E-1    8.204109648035150E-2
 9.343354324059531E5     8.253074218836491E-1    8.158434611038196E-2    1.760146888173887E-1   -8.424453355830076E-2    1.761746519958420E-1   -8.437708350543158E-2    8.250211473873165E-1    8.178541262717814E-2
 9.414642834211199E5     8.256637835456170E-1    8.132812198635365E-2    1.756434346587247E-1   -8.399112842615554E-2    1.758020824970457E-1   -8.414454933470959E-2    8.253977700895404E-1    8.150665536528734E-2
 9.486475265903610E5     8.260185667680858E-1    8.106675646240061E-2    1.752675282836978E-1   -8.375403525267049E-2    1.754286501721216E-1   -8.390518480241685E-2    8.257884005645020E-1    8.125471704878567E-2
 9.558855769183410E5     8.263791178948358E-1    8.080636702374011E-2    1.748954044506828E-1   -8.351369067305195E-2    1.750504877622400E-1   -8.366362443635754E-2    8.261339698058504E-1    8.102036747874528E-2
 9.631788525761530E5     8.267119036390491E-1    8.054677554292244E-2    1.745268012329106E-1   -8.327894743804451E-2    1.746876727713801E-1   -8.343672310973640E-2    8.264969370608203E-1    8.075492454590352E-2
 9.705277749254764E5     8.270574975337207E-1    8.030495721189783E-2    1.741559318006976E-1   -8.303883237738417E-2    1.743150702126843E-1   -8.319559703275207E-2    8.268337247119653E-1    8.052063550735444E-2
 9.779327685429282E5     8.274023124522811E-1    8.005418428415861E-2    1.737950013693820E-1   -8.281097918273531E-2    1.739455470114464E-1   -8.295505098205588E-2    8.272236661520105E-1    8.025893640071989E-2
 9.853942612445805E5     8.277861372899512E-1    7.978978956962814E-2    1.734395837486527E-1   -8.257754878378037E-2    1.735817735334741E-1   -8.272528012946752E-2    8.275798675852297E-1    7.999146809117402E-2
 9.929126841106854E5     8.281275980369621E-1    7.955254333005497E-2    1.730731419537627E-1   -8.234232298700486E-2    1.732215797895887E-1   -8.249612375228824E-2    8.279335280232427E-1    7.974295534464114E-2
 1.000488471510578E6     8.284816826694072E-1    7.932878867429122E-2    1.727114086687891E-1   -8.211309920537166E-2    1.728595822855684E-1   -8.226201205207025E-2    8.283015802899503E-1    7.947732332103298E-2
 1.008122061127771E6     8.288452114064241E-1    7.906153617248755E-2    1.723536360203150E-1   -8.188637534936294E-2    1.724972211886003E-1   -8.202817164673375E-2    8.286712213717716E-1    7.925627566798832E-2
 1.015813893985245E6     8.292089820751464E-1    7.881719034911955E-2    1.719937216767626E-1   -8.165658818467970E-2    1.721370416606103E-1   -8.181302947183196E-2    8.289914743401418E-1    7.900491921836052E-2
 1.023564414470923E6     8.295466499776130E-1    7.858669554569282E-2    1.716393261876153E-1   -8.142810101547047E-2    1.717749175803213E-1   -8.158069728201996E-2    8.293369099401871E-1    7.876204742981796E-2
 1.031374070363347E6     8.298986115035902E-1    7.833522656453967E-2    1.712777383503319E-1   -8.120708858098327E-2    1.714200352192934E-1   -8.135528815005910E-2    8.296610444801710E-1    7.854008016926801E-2
 1.039243312857548E6     8.302573924649742E-1    7.808436989061319E-2    1.709249838452616E-1   -8.098944355425761E-2    1.710576282387198E-1   -8.112534466298950E-2    8.299945217353614E-1    7.831238349087380E-2
 1.047172596591111E6     8.305785234771969E-1    7.783711958465646E-2    1.705675222932301E-1   -8.076380922724362E-2    1.706979031207870E-1   -8.090609628895085E-2    8.303711751531649E-1    7.801809611704573E-2
 1.055162379670449E6     8.309069067338879E-1    7.758046092413624E-2    1.702052363816782E-1   -8.052927956964966E-2    1.703493943822914E-1   -8.069261532176336E-2    8.307526561053228E-1    7.779545678807026E-2
 1.063213123697260E6     8.312809361407080E-1    7.736207521260943E-2    1.698559786810853E-1   -8.031646427422226E-2    1.699914845336710E-1   -8.047193312831105E-2    8.310817434665726E-1    7.754027002883564E-2
 1.071325293795198E6     8.316239580396660E-1    7.713582097585348E-2    1.695053156979958E-1   -8.009336708056308E-2    1.696374854802446E-1   -8.025207750814436E-2    8.314276172841089E-1    7.729362257296532E-2
 1.079499358636750E6     8.319549960201620E-1    7.690573603376688E-2    1.691511962985442E-1   -7.988282387979589E-2    1.692785902486097E-1   -8.003699915604338E-2    8.317831316229395E-1    7.707561411876684E-2
 1.087735790470306E6     8.323130594373778E-1    7.668782883859132E-2    1.688012182959791E-1   -7.964776813286767E-2    1.689227805789800E-1   -7.981354549497813E-2    8.321231379054457E-1    7.685330683350609E-2
 1.096035065147453E6     8.326369005465938E-1    7.643782156006435E-2    1.684401337300838E-1   -7.943632990874468E-2    1.685691358024749E-1   -7.959036341757535E-2    8.324738826717257E-1    7.661701316563556E-2
 1.104397662150453E6     8.329618397708612E-1    7.621675277675015E-2    1.680871450046512E-1   -7.921338394330472E-2    1.682070407557018E-1   -7.937684396725372E-2    8.328048097048210E-1    7.638099480670109E-2
 1.112824064619953E6     8.333067475177118E-1    7.598463092338169E-2    1.677308425175951E-1   -7.900659251870035E-2    1.678545797770057E-1   -7.916097826452825E-2    8.331533055034630E-1    7.611862127038754E-2
 1.121314759382903E6     8.336784759238498E-1    7.573147624193230E-2    1.673797223347437E-1   -7.879337066513344E-2    1.675044516304640E-1   -7.894406289554583E-2    8.334723047496072E-1    7.590365869151695E-2
 1.129870236980669E6     8.340085250066906E-1    7.550436933200379E-2    1.670273169903512E-1   -7.858548584783774E-2    1.671393131037442E-1   -7.872770596461490E-2    8.338289532353568E-1    7.564923175100000E-2
 1.138490991697383E6     8.343463643753938E-1    7.526813826995438E-2    1.666755642077858E-1   -7.837091609116420E-2    1.667881571834354E-1   -7.850829021769493E-2    8.341852053007980E-1    7.543074047915259E-2
 1.147177521588496E6     8.346820284849170E-1    7.504854473293092E-2    1.663269780930884E-1   -7.814240934615423E-2    1.664387021697259E-1   -7.829585187489080E-2    8.345408123773804E-1    7.517471552637089E-2
 1.155930328509552E6     8.350457423157185E-1    7.479232418592383E-2    1.659691476996900E-1   -7.792795823189390E-2    1.660826149240831E-1   -7.807990084225511E-2    8.348682291013909E-1    7.496410120704557E-2
 1.164749918145190E6     8.354063293243861E-1    7.454086698397999E-2    1.656202146005818E-1   -7.772276416582632E-2    1.657304055356873E-1   -7.785996571831012E-2    8.352159032246894E-1    7.476112460774459E-2
 1.173636800038349E6     8.357107704179279E-1    7.433846231433486E-2    1.652614090302477E-1   -7.750793082097075E-2    1.653753008241662E-1   -7.765108729942820E-2    8.355510788927909E-1    7.450540194094617E-2
 1.182591487619709E6     8.360636495478282E-1    7.407768126879902E-2    1.649121384397233E-1   -7.729257574057796E-2    1.650221667535511E-1   -7.743146140079896E-2    8.359044250043846E-1    7.427812109027682E-2
 1.191614498237359E6     8.363901650315980E-1    7.385244690408566E-2    1.645562443108793E-1   -7.707103913653827E-2    1.646680686070801E-1   -7.721446478103849E-2    8.362463636980734E-1    7.404897305872038E-2
 1.200706353186678E6     8.367319259927625E-1    7.363677171546994E-2    1.642113684289019E-1   -7.685057675312065E-2    1.643105904422720E-1   -7.699574909992368E-2    8.365831951657723E-1    7.380346185234153E-2
 1.209867577740467E6     8.370824803525783E-1    7.337876146413658E-2    1.638592602111318E-1   -7.663804872492438E-2    1.639657225463752E-1   -7.677547150067961E-2    8.369104407085231E-1    7.356975934938557E-2
 1.219098701179276E6     8.374404634951363E-1    7.317772885771824E-2    1.635124801352356E-1   -7.641589224511486E-2    1.636161245032977E-1   -7.656435789504633E-2    8.373090199690466E-1    7.333989700674419E-2
 1.228400256821998E6     8.377612980367874E-1    7.292250815710946E-2    1.631589695845775E-1   -7.620417946950477E-2    1.632631094009672E-1   -7.634638602695396E-2    8.376453822425164E-1    7.311087096882013E-2
 1.237772782056674E6     8.381172151302630E-1    7.267561064051942E-2    1.628168179350101E-1   -7.598008338880809E-2    1.629086528899958E-1   -7.613124477852996E-2    8.379718502177523E-1    7.286592498495147E-2
 1.247216818371540E6     8.384442725182505E-1    7.241283737939751E-2    1.624671922488947E-1   -7.576240917708060E-2    1.625731237693589E-1   -7.590716536569567E-2    8.383188807850097E-1    7.262395604219631E-2
 1.256732911386322E6     8.387811394453675E-1    7.218382937214157E-2    1.621245297095094E-1   -7.554064566136069E-2    1.622297750271547E-1   -7.568360791653421E-2    8.386646889161373E-1    7.241121728311135E-2
 1.266321610883739E6     8.391004913497747E-1    7.196201016467063E-2    1.617788882120214E-1   -7.532623736646803E-2    1.618860584820372E-1   -7.546096199761715E-2    8.389890727655255E-1    7.214829439171053E-2
 1.275983470841281E6     8.394424292124337E-1    7.174721906398687E-2    1.614385354721324E-1   -7.510111704692693E-2    1.615313579406477E-1   -7.524423495732396E-2    8.393268278962844E-1    7.191490918124074E-2
 1.285719049463211E6     8.397674789005862E-1    7.150207447562111E-2    1.611040056519171E-1   -7.487661747133191E-2    1.611893872334305E-1   -7.501794207857468E-2    8.396391044205141E-1    7.167739781018491E-2
 1.295528909212810E6     8.401138865732655E-1    7.124886899203432E-2    1.607582969063019E-1   -7.466114448759757E-2    1.608556146995617E-1   -7.479790789461142E-2    8.399751596701779E-1    7.146585583187537E-2
 1.305413616844883E6     8.404313618832615E-1    7.101514910627418E-2    1.604186464904630E-1   -7.444217835090515E-2    1.605202023946489E-1   -7.457215127265629E-2    8.402769098330014E-1    7.120562207419835E-2
 1.315373743438491E6     8.407453845339612E-1    7.075340321944432E-2    1.600868623766922E-1   -7.422268012235667E-2    1.601809758038422E-1   -7.434760528277115E-2    8.406099212677006E-1    7.096464042111598E-2
 1.325409864429950E6     8.410596789508508E-1    7.056213964313061E-2    1.597569755343015E-1   -7.399466401004688E-2    1.598397518799747E-1   -7.412515811071900E-2    8.409304907307220E-1    7.072825260978913E-2
 1.335522559646084E6     8.413736613307552E-1    7.030738391582680E-2    1.594224465784864E-1   -7.377781531530100E-2    1.595133421764724E-1   -7.390473530741241E-2    8.412353061827247E-1    7.045973661631875E-2
 1.345712413337699E6     8.417014235524518E-1    7.008133152850775E-2    1.590994258232639E-1   -7.355530868439042E-2    1.591843325430248E-1   -7.367966060772749E-2    8.415459490505440E-1    7.021464047267686E-2
 1.355980014213373E6     8.419960647625322E-1    6.985497422301097E-2    1.587725152459920E-1   -7.333553804568052E-2    1.588554460666320E-1   -7.346092927430449E-2    8.418786469392265E-1    6.997142033499393E-2
 1.366325955473440E6     8.423334301265070E-1    6.961127875015338E-2    1.584489189428980E-1   -7.311484600051882E-2    1.585346906875020E-1   -7.323803567269306E-2    8.422237428225045E-1    6.976822001333256E-2
 1.376750834844268E6     8.426606544549735E-1    6.936601157747209E-2    1.581234461376607E-1   -7.289722415006722E-2    1.582098437603625E-1   -7.301828236484756E-2    8.425276756041679E-1    6.951843139511529E-2
 1.387255254612807E6     8.429581973633822E-1    6.913242981246950E-2    1.577995254482555E-1   -7.268216174533407E-2    1.578936469149972E-1   -7.280047479357693E-2    8.428522875622837E-1    6.928016348138671E-2
 1.397839821661363E6     8.432637108040226E-1    6.890632347436602E-2    1.574779069525237E-1   -7.246139649567308E-2    1.575675787753163E-1   -7.258356747960562E-2    8.431669361790540E-1    6.903641644252560E-2
 1.408505147502673E6     8.435916525234193E-1    6.867477782539243E-2    1.571582477629486E-1   -7.225290114041770E-2    1.572393744511794E-1   -7.236658666162006E-2    8.434309906739021E-1    6.878444947477039E-2
 1.419251848315235E6     8.438911643424108E-1    6.842210872481702E-2    1.568438656411929E-1   -7.203895839686635E-2    1.569217972656309E-1   -7.215240800120974E-2    8.437764429370742E-1    6.855406998775515E-2
 1.430080544978898E6     8.441951538071977E-1    6.819377251037978E-2    1.565308999098332E-1   -7.181773855751390E-2    1.566126278084793E-1   -7.193721434044893E-2    8.440781202517165E-1    6.832709613679389E-2
 1.440991863110751E6     8.445147040988473E-1    6.797449873062240E-2    1.562136065858127E-1   -7.160878030342255E-2    1.563072549052080E-1   -7.172878061939811E-2    8.443817859776080E-1    6.808181579339803E-2
 1.451986433101243E6     8.447955784397483E-1    6.771521793956070E-2    1.559043771026290E-1   -7.139660730164839E-2    1.559901579243197E-1   -7.151620531736301E-2    8.447026129554862E-1    6.787588674347239E-2
 1.463064890150622E6     8.451010416469535E-1    6.749012182675249E-2    1.555869426525730E-1   -7.119378678901023E-2    1.556667847705686E-1   -7.130376019713686E-2    8.449772204982391E-1    6.762896180228388E-2
 1.474227874305625E6     8.453691581074818E-1    6.725771519119327E-2    1.552750926648134E-1   -7.098578864083960E-2    1.553658629950437E-1   -7.109297374831307E-2    8.453052949000895E-1    6.741504481615897E-2
 1.485476030496454E6     8.456923022741162E-1    6.703495982290075E-2    1.549629765628074E-1   -7.077442577656169E-2    1.550447625242630E-1   -7.088544075957721E-2    8.455906465169178E-1    6.716394804641750E-2
 1.496810008574050E6     8.460077610714595E-1    6.682140135529117E-2    1.546603483191929E-1   -7.056927836146057E-2    1.547411729849178E-1   -7.068022012128743E-2    8.458799807220143E-1    6.694731293267596E-2
 1.508230463347619E6     8.462897875743525E-1    6.658691843534788E-2    1.543445915705527E-1   -7.036934840948911E-2    1.544306868321919E-1   -7.047330872269769E-2    8.462101824589843E-1    6.673539675226658E-2
 1.519738054622472E6     8.466186778105763E-1    6.638215731356743E-2    1.540489414226756E-1   -7.016016427910303E-2    1.541256094602534E-1   -7.027564852473603E-2    8.464863989482876E-1    6.649151448427053E-2
 1.531333447238147E6     8.469079873120192E-1    6.615027692599867E-2    1.537363064788232E-1   -6.995807067294327E-2    1.538162942805953E-1   -7.006955408365358E-2    8.468230557682787E-1    6.627714799764993E-2
 1.543017311106810E6     8.472140982794053E-1    6.591121883477133E-2    1.534327600195241E-1   -6.976270075767159E-2    1.535121376587237E-1   -6.986622091897880E-2    8.471147217796784E-1    6.605411670613140E-2
 1.554790321251977E6     8.474938935375954E-1    6.569077260911352E-2    1.531175657630994E-1   -6.956072472760735E-2    1.532063640686738E-1   -6.966229301120436E-2    8.474234804332177E-1    6.585032421238740E-2
 1.566653157847488E6     8.478030422535328E-1    6.545671579081354E-2    1.528171121181958E-1   -6.936047480567746E-2    1.528896503360978E-1   -6.946126914724664E-2    8.476869820394722E-1    6.560661976106169E-2
 1.578606506256824E6     8.481088166082782E-1    6.525468954933207E-2    1.525026234275743E-1   -6.916825970410269E-2    1.525819250010541E-1   -6.926188456705859E-2    8.479875432964658E-1    6.540008947821997E-2
 1.590651057072690E6     8.484201672213564E-1    6.503089077116890E-2    1.522001622108098E-1   -6.895993581500216E-2    1.522753874664558E-1   -6.906049333222097E-2    8.482938677042627E-1    6.518597201357802E-2
 1.602787506156919E6     8.487246921233705E-1    6.482564183210783E-2    1.518916556537147E-1   -6.876638067110258E-2    1.519632108515358E-1   -6.885463771770241E-2    8.485959964544403E-1    6.496643884406944E-2
 1.615016554680682E6     8.490097431208258E-1    6.459645861154058E-2    1.515736327764192E-1   -6.856638840268624E-2    1.516651903413050E-1   -6.866272211368164E-2    8.489101674700963E-1    6.475367805182659E-2
 1.627338909164981E6     8.493499325882258E-1    6.439762990329040E-2    1.512790741999873E-1   -6.836498146970608E-2    1.513552271126447E-1   -6.846248685801475E-2    8.492335158665347E-1    6.455310709408690E-2
 1.639755281521474E6     8.496398648067448E-1    6.418061000759195E-2    1.509698028060242E-1   -6.816429157932259E-2    1.510438991751629E-1   -6.826626262141063E-2    8.495349472567723E-1    6.430271149914238E-2
 1.652266389093622E6     8.498956468511858E-1    6.391707975366322E-2    1.506649271938847E-1   -6.797137836955977E-2    1.507322523042973E-1   -6.806179798204649E-2    8.498383355442631E-1    6.410464743650472E-2
 1.664872954698102E6     8.501921336386928E-1    6.370625738546708E-2    1.503583337461766E-1   -6.777189517493513E-2    1.504281312681027E-1   -6.786051405137956E-2    8.501199566290811E-1    6.387159218364381E-2
 1.677575706666590E6     8.504694217225447E-1    6.347840197693355E-2    1.500432121566020E-1   -6.757407515609364E-2    1.501162521428168E-1   -6.765888589910779E-2    8.503939516058719E-1    6.362936798782771E-2
 1.690375378887833E6     8.507798226905872E-1    6.327837278809717E-2    1.497454690520092E-1   -6.737393006415041E-2    1.498169457819729E-1   -6.746057914071220E-2    8.506850856890633E-1    6.341182585192595E-2
 1.703272710850043E6     8.510875675605218E-1    6.305499710770270E-2    1.494357663251739E-1   -6.717242288049864E-2    1.495081758164168E-1   -6.725723467700825E-2    8.509822385756222E-1    6.319336179297749E-2
 1.716268447683636E6     8.514106101503639E-1    6.283441951895724E-2    1.491319940656605E-1   -6.696940941546509E-2    1.491961503848965E-1   -6.705540537115243E-2    8.512534696600416E-1    6.296562196579267E-2
 1.729363340204262E6     8.516782743569066E-1    6.261923008718079E-2    1.488258254859005E-1   -6.676463062868861E-2    1.489010112803323E-1   -6.685593006613103E-2    8.515613617837974E-1    6.274094342776838E-2
 1.742558144956193E6     8.519641121768484E-1    6.240231696849204E-2    1.485288595131930E-1   -6.656375690082572E-2    1.485901593149634E-1   -6.665619406192175E-2    8.518451666572060E-1    6.250910111891056E-2
 1.755853624256030E6     8.522474535168417E-1    6.215529627067145E-2    1.482244444840651E-1   -6.636544248064820E-2    1.482979500336938E-1   -6.645113950275283E-2    8.521504528501140E-1    6.228647524806843E-2
 1.769250546236744E6     8.525486806596225E-1    6.192576415972374E-2    1.479227505962729E-1   -6.616534034128373E-2    1.480049532883439E-1   -6.624906922581042E-2    8.524682702778319E-1    6.207121090763344E-2
 1.782749684892061E6     8.528438340710456E-1    6.168985279011295E-2    1.476242636712187E-1   -6.596136688272645E-2    1.477099406717593E-1   -6.604445819921732E-2    8.527667863171255E-1    6.183121295909132E-2
 1.796351820121167E6     8.531063241247164E-1    6.147336657340779E-2    1.473233459205147E-1   -6.575660727359924E-2    1.474041015583387E-1   -6.583601927154110E-2    8.530417237936745E-1    6.162514954971407E-2
 1.810057737773773E6     8.533888832759983E-1    6.125361155322426E-2    1.470293750507481E-1   -6.555434683554508E-2    1.471069287722963E-1   -6.563228068628969E-2    8.533044259744685E-1    6.137040973592540E-2
 1.823868229695514E6     8.536932907027351E-1    6.102325134011915E-2    1.467393599045295E-1   -6.535486829643697E-2    1.468182602946635E-1   -6.543015049604547E-2    8.535566063763197E-1    6.114845694147845E-2
 1.837784093773698E6     8.539563148260934E-1    6.078615965391536E-2    1.464521648789258E-1   -6.515012012381616E-2    1.465208500501466E-1   -6.522524396901647E-2    8.538659869005457E-1    6.093238845047316E-2
 1.851806133983411E6     8.542063458263610E-1    6.056179567372583E-2    1.461620653171009E-1   -6.495302526019714E-2    1.462338825650853E-1   -6.502832548597914E-2    8.542066224435663E-1    6.072580205435259E-2
 1.865935160433950E6     8.544865003723037E-1    6.032157156987702E-2    1.458740772235913E-1   -6.474894629820119E-2    1.459392754926948E-1   -6.482567824961157E-2    8.544402642915694E-1    6.048003832450003E-2
 1.880171989415638E6     8.547659466387739E-1    6.010816993982569E-2    1.455861662596524E-1   -6.454340146869485E-2    1.456551935549862E-1   -6.462012853873136E-2    8.547307279838660E-1    6.025075734633430E-2
 1.894517443446981E6     8.550458777361009E-1    5.989014225904723E-2    1.453011906782409E-1   -6.434337299245016E-2    1.453690577396622E-1   -6.441774604116811E-2    8.549991577735746E-1    6.003354462804247E-2
 1.908972351322182E6     8.552967872491027E-1    5.964975802279977E-2    1.450221079760328E-1   -6.414653938765680E-2    1.450853091843798E-1   -6.421547639401538E-2    8.552632624743909E-1    5.980304786363531E-2
 1.923537548159045E6     8.555854483652581E-1    5.943680155868631E-2    1.447422731599650E-1   -6.394645808344886E-2    1.448023401363302E-1   -6.401688719083555E-2    8.554785770101812E-1    5.957893619116578E-2
 1.938213875447196E6     8.558636547548066E-1    5.921094627783133E-2    1.444594876819336E-1   -6.374974023526397E-2    1.445117803658143E-1   -6.382020160979336E-2    8.557844809417423E-1    5.935040278898537E-2
 1.953002181096708E6     8.560934425680141E-1    5.898234098143316E-2    1.441762719255449E-1   -6.355233750214624E-2    1.442464301605075E-1   -6.362187677374630E-2    8.560696554174296E-1    5.913155947521670E-2
 1.967903319487111E6     8.563980548131250E-1    5.877015732647878E-2    1.439073399654497E-1   -6.336524566988405E-2    1.439709329480760E-1   -6.342421593161929E-2    8.563304664785155E-1    5.891293479341861E-2
 1.982918151516703E6     8.566530055388194E-1    5.855103158432606E-2    1.436243920716271E-1   -6.316560724118003E-2    1.436892591821096E-1   -6.322921600608856E-2    8.565976761124496E-1    5.868655251849521E-2
 1.998047544652348E6     8.569302468206207E-1    5.832546518518348E-2    1.433461740904616E-1   -6.296944033817600E-2    1.434074234330262E-1   -6.303433682770099E-2    8.568312892554045E-1    5.845999599783284E-2
 2.013292372979546E6     8.572063180518735E-1    5.810897983368109E-2    1.430784133414683E-1   -6.278076901216077E-2    1.431292073489855E-1   -6.284487068908208E-2    8.571038458797536E-1    5.823577811196868E-2
 2.028653517252947E6     8.574669759939147E-1    5.788508227364746E-2    1.428021055017921E-1   -6.259313069145832E-2    1.428631841321233E-1   -6.265407453108658E-2    8.574077460448423E-1    5.802598136251244E-2
 2.044131864947255E6     8.577380334110097E-1    5.768246996515144E-2    1.425206891050392E-1   -6.240111198018441E-2    1.425843695465698E-1   -6.246044029983457E-2    8.576521982244764E-1    5.780351990691016E-2
 2.059728310308467E6     8.579874168514555E-1    5.746034855053311E-2    1.422461950404656E-1   -6.221293169317887E-2    1.423039518768291E-1   -6.226549447079571E-2    8.579112820441995E-1    5.759860220598993E-2
 2.075443754405562E6     8.582303158378987E-1    5.724557166375455E-2    1.419715464339976E-1   -6.202704083330394E-2    1.420385145855711E-1   -6.208054429477852E-2    8.581948418449935E-1    5.739015560445252E-2
 2.091279105182548E6     8.585109243224956E-1    5.704266383212743E-2    1.417035855113629E-1   -6.184279927456140E-2    1.417683146117311E-1   -6.189465355957459E-2    8.584640578657945E-1    5.717897175592718E-2
 2.107235277510921E6     8.587706736033530E-1    5.683150649214507E-2    1.414336022440117E-1   -6.165561015137925E-2    1.414863187803056E-1   -6.170322194901642E-2    8.586946425475404E-1    5.696711763067275E-2
 2.123313193242529E6     8.590135910040099E-1    5.661804085654146E-2    1.411578331420807E-1   -6.147086476307574E-2    1.412064028863547E-1   -6.151461658170122E-2    8.589632295386141E-1    5.675560703741209E-2
 2.139513781262815E6     8.592675262680184E-1    5.640589723420698E-2    1.408917832127574E-1   -6.128987979129701E-2    1.409356940850160E-1   -6.132976094881448E-2    8.592317623694186E-1    5.653649054450893E-2
 2.155837977544490E6     8.595641468284526E-1    5.620001937111038E-2    1.406178358786705E-1   -6.110462844870189E-2    1.406604254433044E-1   -6.114079947134820E-2    8.594748709854972E-1    5.632842952623778E-2
 2.172286725201612E6     8.598404529692197E-1    5.599065454534612E-2    1.403446124518216E-1   -6.092234523570344E-2    1.403792050970527E-1   -6.094648008920401E-2    8.596980040819909E-1    5.612121102462187E-2
 2.188860974544063E6     8.600876997935853E-1    5.578744182824603E-2    1.400692407564957E-1   -6.073440429139507E-2    1.401021126161521E-1   -6.075632906499469E-2    8.599819541341904E-1    5.590905304142228E-2
 2.205561683132472E6     8.603607284164938E-1    5.557867721600622E-2    1.397976083263173E-1   -6.055634700732582E-2    1.398406951288117E-1   -6.057899128133491E-2    8.602834168254074E-1    5.568326810081324E-2
 2.222389815833514E6     8.606192599496548E-1    5.536935777855154E-2    1.395234971054177E-1   -6.037304841975349E-2    1.395674735983410E-1   -6.038461211490997E-2    8.605731269248899E-1    5.547218752115574E-2
 2.239346344875663E6     8.609052594531423E-1    5.517142386962622E-2    1.392464889467852E-1   -6.019091179954374E-2    1.392936784006606E-1   -6.019429199413357E-2    8.608030680126991E-1    5.526197448807030E-2
 2.256432249905369E6     8.611275683521676E-1    5.497207575011202E-2    1.389752928160537E-1   -6.000317580689520E-2    1.390114374504348E-1   -6.000037393377314E-2    8.610653824197469E-1    5.504321935181218E-2
 2.273648518043640E6     8.613926269332746E-1    5.474853020159977E-2    1.387014510756974E-1   -5.982411330746276E-2    1.387434718047361E-1   -5.980417373007584E-2    8.613379113514058E-1    5.484236038732019E-2
 2.290996143943099E6     8.616403774562071E-1    5.455129400635687E-2    1.384287525733048E-1   -5.963748506183760E-2    1.384666585627358E-1   -5.961394810904608E-2    8.615476162598354E-1    5.461722726386375E-2
 2.308476129845417E6     8.619125467318794E-1    5.436566603934974E-2    1.381570216995113E-1   -5.945172227863879E-2    1.382019673348193E-1   -5.941837050741030E-2    8.617884773388309E-1    5.439995379298845E-2
 2.326089485639235E6     8.621776356980095E-1    5.414550946992838E-2    1.378858800979228E-1   -5.926618187906967E-2    1.379390634214569E-1   -5.922032666785090E-2    8.620478688695781E-1    5.420950383185830E-2
 2.343837228918507E6     8.624428679887352E-1    5.395654471577313E-2    1.376112819402767E-1   -5.907407842890722E-2    1.376720090934334E-1   -5.902392471121748E-2    8.623083876331622E-1    5.399991323100430E-2
 2.361720385041283E6     8.626995266713787E-1    5.372276355823822E-2    1.373405428138240E-1   -5.889575789150184E-2    1.374182545908031E-1   -5.883495541369423E-2    8.625965790249674E-1    5.375532369581894E-2
 2.379739987188969E6     8.630046201893703E-1    5.350682938065847E-2    1.370797763889588E-1   -5.870337570931766E-2    1.371600708015950E-1   -5.864397822659860E-2    8.628177861978678E-1    5.355582605001939E-2
 2.397897076425990E6     8.632691352628943E-1    5.327679476120308E-2    1.368096177568087E-1   -5.851840785150553E-2    1.369006521088766E-1   -5.845321369558980E-2    8.630698837099257E-1    5.334609045195837E-2
 2.416192701759947E6     8.634839598622517E-1    5.307452967117655E-2    1.365444057976030E-1   -5.832418517667907E-2    1.366527174923440E-1   -5.826578994460990E-2    8.633491950622634E-1    5.312370540057832E-2
 2.434627920202243E6     8.637236369349699E-1    5.285000832941349E-2    1.362746428080815E-1   -5.813384413695992E-2    1.364030181142581E-1   -5.807649363148910E-2    8.635789566820919E-1    5.290477812423588E-2
 2.453203796829114E6     8.640113332253739E-1    5.264735600632513E-2    1.360173549550127E-1   -5.793421689291361E-2    1.361443390633700E-1   -5.789404200505498E-2    8.638221301433153E-1    5.268854227340087E-2
 2.471921404843189E6     8.642673269133329E-1    5.242835394316313E-2    1.357656861148492E-1   -5.774028551085784E-2    1.358964555420643E-1   -5.770824160828235E-2    8.640845240778198E-1    5.249988327235354E-2
 2.490781825635486E6     8.645077229401397E-1    5.220818928883981E-2    1.355113229818141E-1   -5.755236375807393E-2    1.356448244265313E-1   -5.752344530382324E-2    8.643295369800833E-1    5.227993793658890E-2
 2.509786148847881E6     8.650322796966383E-1    4.977407871901673E-2    1.361147113496476E-1   -5.670325417869718E-2    1.353030830763353E-1   -5.846577052045532E-2    8.650781139916424E-1    5.256116055324222E-2
 2.528935472436085E6     8.652736205728767E-1    4.975463385510344E-2    1.359366841344026E-1   -5.635440093605738E-2    1.350028500295468E-1   -5.835309026445247E-2    8.653187325764249E-1    5.241354194996750E-2
 2.548230902733043E6     8.655592403293314E-1    4.971488931544327E-2    1.356829382273156E-1   -5.616960341505140E-2    1.347429535746925E-1   -5.819251811754361E-2    8.655538681217592E-1    5.213724418565704E-2
 2.567673554512876E6     8.658098669026759E-1    4.949660274711962E-2    1.354562938332295E-1   -5.595406307074817E-2    1.344975500161672E-1   -5.799117179441175E-2    8.657772366360088E-1    5.195643334383145E-2
 2.587264551055275E6     8.660924040454976E-1    4.929387187516224E-2    1.352285883351693E-1   -5.574431740264781E-2    1.342788414099964E-1   -5.778125681592608E-2    8.660184307360320E-1    5.171824811679294E-2
 2.607005024210399E6     8.662752490677509E-1    4.898319573736373E-2    1.349767579115611E-1   -5.557768919828028E-2    1.340558260129371E-1   -5.755197857441258E-2    8.662453877333076E-1    5.149489373879734E-2
 2.626896114464281E6     8.665437776280654E-1    4.885040751527903E-2    1.347361641928512E-1   -5.540212042983558E-2    1.338269068085345E-1   -5.736326867636177E-2    8.664948603344870E-1    5.134089031840587E-2
 2.646938971004693E6     8.667966245017618E-1    4.863120205170202E-2    1.344955412498987E-1   -5.521622154777350E-2    1.335920067942905E-1   -5.717699490193730E-2    8.667143762072194E-1    5.105884858170553E-2
 2.667134751787555E6     8.670493002817578E-1    4.850136135203546E-2    1.342195386584391E-1   -5.508217048033670E-2    1.333828961080123E-1   -5.695256100885131E-2    8.669668070790104E-1    5.097462809068874E-2
 2.687484623603833E6     8.672673497902538E-1    4.810169847992759E-2    1.339837289845778E-1   -5.490234602288162E-2    1.331320185028246E-1   -5.678923956656905E-2    8.672024249025255E-1    5.061289998547240E-2
 2.707989762146940E6     8.675359329422535E-1    4.796797406308133E-2    1.337230418225345E-1   -5.475199739519943E-2    1.329125501973216E-1   -5.658468434836041E-2    8.674314121794134E-1    5.029062887007362E-2
 2.728651352080688E6     8.677086443363031E-1    4.773735877795979E-2    1.334915628091947E-1   -5.456544444154526E-2    1.326999489833899E-1   -5.638017915655184E-2    8.676520451728380E-1    5.016803134199688E-2
 2.749470587107692E6     8.679738716319224E-1    4.750964916183919E-2    1.332444039588786E-1   -5.438118837558670E-2    1.324701631517256E-1   -5.617622576298138E-2    8.679162147747774E-1    4.996886038214046E-2
 2.770448670038360E6     8.682855176425778E-1    4.748422207895171E-2    1.330075872937473E-1   -5.421847988565323E-2    1.322377809105383E-1   -5.598895489108859E-2    8.681257396374886E-1    4.980298822081666E-2
 2.791586812860380E6     8.685436568528867E-1    4.735164913461822E-2    1.327720774334658E-1   -5.403394123906843E-2    1.320168026086442E-1   -5.579988831935215E-2    8.683540365618400E-1    4.951694192762882E-2
 2.812886236808732E6     8.687825780053983E-1    4.729264265605176E-2    1.325449848961408E-1   -5.383684014192675E-2    1.317673161192144E-1   -5.562950773180161E-2    8.686011165126444E-1    4.927058710351746E-2
 2.834348172436268E6     8.689425361524581E-1    4.692029879187964E-2    1.323053210219393E-1   -5.365891295548168E-2    1.315384877209007E-1   -5.544072871269830E-2    8.688322269285308E-1    4.899614124940405E-2
 2.855973859684773E6     8.691656148204088E-1    4.659278157934564E-2    1.320369349220160E-1   -5.352552468605429E-2    1.312999760460251E-1   -5.525757332196864E-2    8.690710057441305E-1    4.881532626828197E-2
 2.877764547956619E6     8.694374185586711E-1    4.643952262667919E-2    1.318326539774008E-1   -5.330739654080364E-2    1.310797309587007E-1   -5.505302355648337E-2    8.693008910859353E-1    4.860011761068412E-2
 2.899721496186967E6     8.696906664160144E-1    4.632485964016272E-2    1.315746867104774E-1   -5.316225694371557E-2    1.308552329273810E-1   -5.487722284801728E-2    8.695434030983675E-1    4.851060024432922E-2
 2.921845972916440E6     8.699364384895536E-1    4.601413265973893E-2    1.313397567071868E-1   -5.299675958296921E-2    1.306136702881420E-1   -5.469629255803785E-2    8.697603659535180E-1    4.814933338882962E-2
 2.944139256364495E6     8.701269922647058E-1    4.585832969088712E-2    1.311001070644772E-1   -5.282400872379434E-2    1.304037336686615E-1   -5.449708580309736E-2    8.700447000307698E-1    4.806105894807976E-2
 2.966602634503201E6     8.703276139007068E-1    4.553017540936147E-2    1.308557434097032E-1   -5.265080970164941E-2    1.301666036454919E-1   -5.432706335926184E-2    8.703045741807294E-1    4.791868556339905E-2
 2.989237405131679E6     8.706280111910660E-1    4.552079037468938E-2    1.306121579025483E-1   -5.248983714735955E-2    1.299278756784369E-1   -5.414491562730022E-2    8.705326741118861E-1    4.777466046568467E-2
 3.012044875951098E6     8.707246050733338E-1    4.597267159905879E-2    1.304008477199506E-1   -5.265700128811555E-2    1.299416476528607E-1   -5.335204517257273E-2    8.709009034026679E-1    4.747209481847125E-2
 3.035026364640187E6     8.710545455677075E-1    4.588258828229773E-2    1.301752172947983E-1   -5.248605639413401E-2    1.296951898090482E-1   -5.319174214206362E-2    8.711071429605651E-1    4.722313463530579E-2
 3.058183198931389E6     8.712119472033009E-1    4.558207914043261E-2    1.299315382656788E-1   -5.233314730049522E-2    1.294784096947606E-1   -5.299846671395881E-2    8.713426856257541E-1    4.696875590319277E-2
 3.081516716687564E6     8.714155982629023E-1    4.528537157194921E-2    1.297147208058355E-1   -5.214794991722298E-2    1.292485104034653E-1   -5.283417955983181E-2    8.715360692389867E-1    4.668069017874098E-2
 3.105028265979277E6     8.717017810149346E-1    4.520955597086477E-2    1.294956801998327E-1   -5.195880367279578E-2    1.290200061504382E-1   -5.265307304073411E-2    8.717446338044450E-1    4.640468705024382E-2
 3.128719205162701E6     8.718782292908985E-1    4.492709739059970E-2    1.292535207655793E-1   -5.180173580171107E-2    1.287895150920107E-1   -5.248421661895937E-2    8.720169740520782E-1    4.632896032472769E-2
 3.152590902958065E6     8.720604458961096E-1    4.441000852468208E-2    1.290032345375197E-1   -5.166650314823779E-2    1.285789593118781E-1   -5.228679256085753E-2    8.722208865256594E-1    4.605390944446947E-2
 3.176644738528751E6     8.722954181712296E-1    4.418883037851951E-2    1.287952864004253E-1   -5.147361022614364E-2    1.283635551143289E-1   -5.210929484737695E-2    8.724421300977677E-1    4.578304882291701E-2
 3.200882101560967E6     8.725085250584200E-1    4.401990900133906E-2    1.285716774959873E-1   -5.129419382237675E-2    1.281306784769328E-1   -5.195353795940757E-2    8.726734923303979E-1    4.562864604693159E-2
 3.225304392344028E6     8.727634310394503E-1    4.386174715584936E-2    1.283523573812323E-1   -5.112825181971107E-2    1.279157559648231E-1   -5.176845310430529E-2    8.728936670593439E-1    4.534372655605430E-2
 3.249913021851289E6     8.730138399832647E-1    4.374258582876690E-2    1.281482088358318E-1   -5.092232605045651E-2    1.276940503709611E-1   -5.159734899355137E-2    8.731030189959464E-1    4.516315056578693E-2
 3.274709411821612E6     8.731607775744288E-1    4.342495048522965E-2    1.279248177231726E-1   -5.075682234849837E-2    1.274862736084995E-1   -5.140897638794053E-2    8.732945570941231E-1    4.482891925477250E-2
 3.299694994841541E6     8.734297849599352E-1    4.333762935610908E-2    1.277156917511021E-1   -5.057484965557191E-2    1.272722171686080E-1   -5.124962157810375E-2    8.735233871266103E-1    4.459634443100760E-2
 3.324871214428060E6     8.736596984797499E-1    4.300263727605848E-2    1.274947937695025E-1   -5.031153727661321E-2    1.269565890690257E-1   -5.120574985540417E-2    8.737292912844447E-1    4.460435983348362E-2
 3.350239525111979E6     8.738914873721028E-1    4.287947484279241E-2    1.272934680173660E-1   -5.012167015786333E-2    1.267510158593581E-1   -5.102202416820339E-2    8.739172075804098E-1    4.434150030875967E-2
 3.375801392522001E6     8.740754441359091E-1    4.261451138882814E-2    1.270463753105832E-1   -5.000779592911153E-2    1.265104203302803E-1   -5.087456626064350E-2    8.741121233719054E-1    4.404885268401033E-2
 3.401558293469354E6     8.742756762459166E-1    4.230479269212084E-2    1.268312738459266E-1   -4.993484185742472E-2    1.263722081213278E-1   -5.059191520832231E-2    8.744084799229995E-1    4.395987847761987E-2
 3.427511716033138E6     8.745572881212740E-1    4.211456105085401E-2    1.266001587074193E-1   -4.977981744990059E-2    1.261568116280725E-1   -5.041233369661381E-2    8.745957228954737E-1    4.369659844502832E-2
 3.453663159646295E6     8.747926971676758E-1    4.192650750491753E-2    1.263913072192975E-1   -4.962427446148909E-2    1.259433893872800E-1   -5.026094884072150E-2    8.748770423060374E-1    4.366055927031820E-2
 3.480014135182226E6     8.750001885063645E-1    4.181401571859180E-2    1.261907016273675E-1   -4.942727978986026E-2    1.257169434340052E-1   -5.009675568084235E-2    8.750523002682215E-1    4.333541492409034E-2
 3.506566165042107E6     8.751921071267179E-1    4.173332977374201E-2    1.259529385107030E-1   -4.936508734748127E-2    1.255856584322328E-1   -4.984787940686509E-2    8.752872275442842E-1    4.307908523365993E-2
 3.533320783242811E6     8.754789247923196E-1    4.151725466159668E-2    1.257191259283801E-1   -4.919836295422329E-2    1.253817208280171E-1   -4.967176674087539E-2    8.755884996062201E-1    4.309551691751765E-2
 3.560279535505542E6     8.756090046018727E-1    4.127809445856961E-2    1.254985026834850E-1   -4.904175518213867E-2    1.251627780527177E-1   -4.952584784259634E-2    8.756999411143465E-1    4.265575892985796E-2
 3.587443979345170E6     8.758511594342232E-1    4.097417524014312E-2    1.252813963499445E-1   -4.888215576935707E-2    1.249339598361735E-1   -4.935269998776036E-2    8.758668887386363E-1    4.236008888086134E-2
 3.614815684160168E6     8.760819892545832E-1    4.069410739704838E-2    1.250623022368158E-1   -4.872388508769521E-2    1.247263563304592E-1   -4.918825337534079E-2    8.761216664199019E-1    4.213368951909197E-2
 3.642396231323309E6     8.762931829229883E-1    4.056519316230554E-2    1.248596452113799E-1   -4.854539248356411E-2    1.245102846104912E-1   -4.903506061955266E-2    8.763198875387207E-1    4.183690468235337E-2
 3.670187214273024E6     8.765876229716051E-1    3.981802679106309E-2    1.246378263514997E-1   -4.791655079273682E-2    1.240055536763930E-1   -4.949959696832604E-2    8.763620072647778E-1    4.175373552652723E-2
 3.698190238605455E6     8.767715504458469E-1    3.956486950222633E-2    1.244306485697548E-1   -4.774614572999303E-2    1.237747157743753E-1   -4.934078517031097E-2    8.766119879193480E-1    4.156998348014657E-2
 3.726406922167240E6     8.770321364317344E-1    3.925271805200243E-2    1.242195052516425E-1   -4.759877842357717E-2    1.235863923848597E-1   -4.917805170117733E-2    8.768395262994455E-1    4.140478272658263E-2
 3.754838895148946E6     8.772098148074050E-1    3.915459622784304E-2    1.240047755008345E-1   -4.742219604667866E-2    1.233930921324600E-1   -4.899741438998278E-2    8.770382618406357E-1    4.111152161661260E-2
 3.783487800179276E6     8.773375957403327E-1    3.912034025983726E-2    1.238209047036679E-1   -4.736920382576644E-2    1.232146847954493E-1   -4.861610441657510E-2    8.772304378840809E-1    4.091181043299486E-2
 3.812355292419964E6     8.775849516749169E-1    3.898432287645333E-2    1.236256082597574E-1   -4.720150897256827E-2    1.229836275365914E-1   -4.847969141433038E-2    8.774993213943474E-1    4.071649277073408E-2
 3.841443039661395E6     8.777728302250754E-1    3.878857417910964E-2    1.234320821708847E-1   -4.700248961603125E-2    1.227799183455133E-1   -4.830532171439033E-2    8.777824278893187E-1    4.073149713614018E-2
 3.870752722418987E6     8.779686538605328E-1    3.857308871890099E-2    1.232004986883482E-1   -4.687356461162254E-2    1.225817751002897E-1   -4.812286931618408E-2    8.779289944981676E-1    4.051524679596188E-2
 3.900286034030236E6     8.781670305266683E-1    3.837686021203257E-2    1.230229856539061E-1   -4.669364770423846E-2    1.223670518710603E-1   -4.797211915642266E-2    8.781937852480809E-1    4.036898442899170E-2
 3.930044680752580E6     8.783816439257894E-1    3.819539183881471E-2    1.228400644609807E-1   -4.649704515064085E-2    1.221528942555053E-1   -4.782416078268176E-2    8.782763705357474E-1    3.991589850596913E-2
 3.960030381861967E6     8.785809663669565E-1    3.795329657919461E-2    1.226234683106550E-1   -4.635011231837693E-2    1.219546786093362E-1   -4.766298431198526E-2    8.785604114199190E-1    3.973912785262163E-2
 3.990244869752173E6     8.787398613123338E-1    3.778920089338508E-2    1.223917380473861E-1   -4.620451397174119E-2    1.217395160406598E-1   -4.751419106739017E-2    8.787967238737465E-1    3.971066419680435E-2
 4.020689890034929E6     8.789718726043062E-1    3.797650796060210E-2    1.222206907888256E-1   -4.627150292604144E-2    1.217156217266377E-1   -4.700369764114619E-2    8.789956229684137E-1    3.924438216426775E-2
 4.051367201640718E6     8.791985896818334E-1    3.782151360627981E-2    1.220071838380466E-1   -4.614099822682623E-2    1.214979942905744E-1   -4.686100388796990E-2    8.791480034782118E-1    3.895403863000802E-2
 4.082278576920427E6     8.793628500471837E-1    3.757001378222368E-2    1.218157544490281E-1   -4.596560130843880E-2    1.212933358657702E-1   -4.670519948202499E-2    8.793851756009060E-1    3.891953588697578E-2
 4.113425801747740E6     8.795667482385333E-1    3.751034178916670E-2    1.216095388525713E-1   -4.579632881034203E-2    1.210913253913206E-1   -4.655915637337818E-2    8.796155375249507E-1    3.873110497376987E-2
 4.144810675622302E6     8.797831542068466E-1    3.725253258167466E-2    1.214222293205111E-1   -4.563635679086320E-2    1.209073233112477E-1   -4.638305961604288E-2    8.798837802327992E-1    3.860794429885352E-2
 4.176435011773718E6     8.799820651198070E-1    3.704514497441398E-2    1.212291736265908E-1   -4.547931536450802E-2    1.207251753181299E-1   -4.620567495376073E-2    8.801111745798492E-1    3.852677409798980E-2
 4.208300637266261E6     8.801624566825575E-1    3.668629706116747E-2    1.210234135860858E-1   -4.531261101022148E-2    1.205149520010781E-1   -4.606395973590561E-2    8.802308681598773E-1    3.810241504037681E-2
 4.240409393104453E6     8.803512963351452E-1    3.658098775655000E-2    1.208264520810179E-1   -4.515268779303432E-2    1.203362513370901E-1   -4.588676320006665E-2    8.804458958527570E-1    3.789553032024390E-2
 4.272763134339464E6     8.805277279448478E-1    3.643451552805792E-2    1.206511129700522E-1   -4.498530573401461E-2    1.201290094213002E-1   -4.574592953274358E-2    8.806465476536282E-1    3.762429289930875E-2
 4.305363730176185E6     8.807485463201882E-1    3.616559646114111E-2    1.204310672581356E-1   -4.486664982000520E-2    1.199196420459066E-1   -4.558449792941161E-2    8.808319537470621E-1    3.756666096403459E-2
 4.338213064081349E6     8.809052429099445E-1    3.577740886579846E-2    1.202264677734521E-1   -4.460088373102405E-2    1.196587494885105E-1   -4.553748486489526E-2    8.809363274252066E-1    3.719222388250183E-2
 4.371313033892244E6     8.810967074662572E-1    3.552651363048401E-2    1.200299720158172E-1   -4.446065564274043E-2    1.194526272003978E-1   -4.539985732589773E-2    8.811292510838250E-1    3.688537258268575E-2
 4.404665551926396E6     8.812905560290480E-1    3.545731177205824E-2    1.198433187677125E-1   -4.427780180747657E-2    1.192547195443758E-1   -4.523609329499197E-2    8.813213402883784E-1    3.669280326440066E-2
 4.438272545092077E6     8.815097709545774E-1    3.518706641230261E-2    1.196429470520649E-1   -4.413127893900057E-2    1.190433552712220E-1   -4.510038610720583E-2    8.815880809479569E-1    3.668248549234961E-2
 4.472135954999580E6     8.817132387851013E-1    3.505652088813537E-2    1.194531176434265E-1   -4.395894689897249E-2    1.188768384813511E-1   -4.492415460168377E-2    8.817944053481295E-1    3.644295600479171E-2
 4.506257738073424E6     8.818976468821320E-1    3.485681966197601E-2    1.192735548350081E-1   -4.379155163135432E-2    1.186582438050618E-1   -4.478830170091676E-2    8.818985927820781E-1    3.607890940597314E-2
 4.540639865665382E6     8.820900993717260E-1    3.467441643546708E-2    1.190743418230955E-1   -4.375331155561572E-2    1.185492793269756E-1   -4.450887267514760E-2    8.821772509570567E-1    3.589305451553423E-2
 4.575284324168356E6     8.823217130779867E-1    3.451214820641008E-2    1.188796875510347E-1   -4.360091468876152E-2    1.183720501319190E-1   -4.434651823763602E-2    8.824068481236874E-1    3.577918271760249E-2
 4.610193115131186E6     8.824898668640945E-1    3.392687831969469E-2    1.186631587344729E-1   -4.318707584628642E-2    1.179952132312042E-1   -4.457887070680001E-2    8.824990272922770E-1    3.551875381356054E-2
 4.645368255374223E6     8.826594834372837E-1    3.369668220711448E-2    1.184425590005077E-1   -4.306052602646841E-2    1.177921970122056E-1   -4.442689122246779E-2    8.826418920219936E-1    3.526224014581718E-2
 4.680811777105891E6     8.828231848892162E-1    3.351931800067470E-2    1.182781865185162E-1   -4.286357896010967E-2    1.175974455400994E-1   -4.428675549646975E-2    8.828260414983902E-1    3.503064177683565E-2
 4.716525728040087E6     8.830184143398263E-1    3.323445628381844E-2    1.180744536709263E-1   -4.272919812443336E-2    1.174115277553659E-1   -4.412420223236294E-2    8.830153355813318E-1    3.481677447183412E-2
 4.752512171514469E6     8.832307440819109E-1    3.300594668294619E-2    1.178903161935433E-1   -4.257584205644216E-2    1.172175837534300E-1   -4.398282079110644E-2    8.832184427624582E-1    3.480209026812531E-2
 4.788773186609713E6     8.833992332697128E-1    3.279658145238227E-2    1.176914348707707E-1   -4.243644794612350E-2    1.170300615010826E-1   -4.383832645271482E-2    8.834092022272798E-1    3.440869431908497E-2
 4.825310868269563E6     8.837061841615723E-1    3.239627693634165E-2    1.174513474732360E-1   -4.219591993736156E-2    1.168101923423664E-1   -4.393740115077802E-2    8.835309149624021E-1    3.428186345763500E-2
 4.862127327421905E6     8.839045327954747E-1    3.221683072876865E-2    1.172988422249340E-1   -4.200334564866508E-2    1.166381726143909E-1   -4.375649493876494E-2    8.838025213057255E-1    3.431050145912547E-2
 4.899224691100715E6     8.840435913576498E-1    3.197207389890862E-2    1.170948473400367E-1   -4.185754411731923E-2    1.164415380836197E-1   -4.363569691516538E-2    8.840099427146294E-1    3.393799528881345E-2
 4.936605102568937E6     8.842137395694799E-1    3.176576963257170E-2    1.169201148555375E-1   -4.169387613258901E-2    1.162738913842031E-1   -4.344245890796537E-2    8.841937557484839E-1    3.404843246014228E-2
 4.974270721442348E6     8.843644635451872E-1    3.158981779339384E-2    1.167257270116279E-1   -4.153190180779080E-2    1.160827134181697E-1   -4.331258941743181E-2    8.843622632706643E-1    3.363453402962881E-2
 5.012223723814265E6     8.845642002240125E-1    3.137819797786162E-2    1.165390593404012E-1   -4.139036174172019E-2    1.158778957644722E-1   -4.320751095122312E-2    8.844771092437488E-1    3.307833126794514E-2
 5.050466302381308E6     8.847352042300386E-1    3.113918517057791E-2    1.163455557135048E-1   -4.123900739458288E-2    1.156850904213405E-1   -4.307746115565231E-2    8.846948854659251E-1    3.301585170764627E-2
 5.089000666570071E6     8.848886990683015E-1    3.090540896938787E-2    1.161615441264976E-1   -4.109211595010168E-2    1.155031797829171E-1   -4.292898059414955E-2    8.848706398952910E-1    3.274847152908751E-2
 5.127829042664761E6     8.850555495843576E-1    3.069426721261853E-2    1.159980910411959E-1   -4.091863202233009E-2    1.153321947827326E-1   -4.277655112771748E-2    8.850798446700591E-1    3.244366940523097E-2
 5.166953673935857E6     8.852679448324617E-1    3.048460281338081E-2    1.158130854458916E-1   -4.076132799048865E-2    1.151485627840065E-1   -4.263449920235134E-2    8.852826135258565E-1    3.241580844091742E-2
 5.206376820769652E6     8.854736151300578E-1    3.030385982100619E-2    1.156261022366201E-1   -4.061483254932731E-2    1.149663726329359E-1   -4.248605426578215E-2    8.854404225014176E-1    3.213165099185280E-2
 5.246100760798878E6     8.856581739370660E-1    3.007833212629046E-2    1.154185822018659E-1   -4.050487050373695E-2    1.147849558324960E-1   -4.235323546637348E-2    8.856214021904433E-1    3.196155008415247E-2
 5.286127789034322E6     8.858379813701829E-1    2.987075655131582E-2    1.152613368589403E-1   -4.031656325318634E-2    1.146043999649299E-1   -4.220178634630007E-2    8.858211178644486E-1    3.200543124570156E-2
 5.326460217997355E6     8.859963196248766E-1    3.049486333156328E-2    1.151412283780553E-1   -4.069864040528471E-2    1.147759395350424E-1   -4.128344337573073E-2    8.861677597891268E-1    3.152891021608398E-2
 5.367100377853584E6     8.861786864299357E-1    3.032698009770394E-2    1.149379660765482E-1   -4.056918209724698E-2    1.146039116227131E-1   -4.112979281010457E-2    8.863337371522259E-1    3.118631047076585E-2
 5.408050616547454E6     8.863382610878942E-1    3.013177829129983E-2    1.147759954321106E-1   -4.041188611099357E-2    1.144063091656934E-1   -4.101620106922255E-2    8.865129042727043E-1    3.109760201575095E-2
 5.449313299937895E6     8.865336770302972E-1    2.991348731353178E-2    1.145931402904587E-1   -4.026855956251912E-2    1.142226223109189E-1   -4.087418721986143E-2    8.866208869532302E-1    3.074239074870428E-2
 5.490890811935049E6     8.866493473241716E-1    2.881444549360607E-2    1.143475707888376E-1   -3.959177272871196E-2    1.137205522289469E-1   -4.147604546890830E-2    8.866542433677551E-1    3.074110658659780E-2
 5.532785554637930E6     8.868251502171249E-1    2.860149842497997E-2    1.141647582959646E-1   -3.944867702770113E-2    1.135500102288269E-1   -4.130774381242478E-2    8.868294384965461E-1    3.076963618178609E-2
 5.574999948473252E6     8.870089312636509E-1    2.923217688130415E-2    1.140605620269216E-1   -3.981248334174152E-2    1.137038149289373E-1   -4.042008270703085E-2    8.871464640252714E-1    3.000392126082365E-2
 5.617536432335250E6     8.871874055691988E-1    2.902124871414034E-2    1.138859084712738E-1   -3.966210232356542E-2    1.135319442230093E-1   -4.027599976669112E-2    8.872621192714735E-1    2.953974244047962E-2
 5.660397463726575E6     8.873643747090679E-1    2.880147069138494E-2    1.137148612296891E-1   -3.950443724485390E-2    1.133611964136926E-1   -4.014368226555228E-2    8.874398009886475E-1    2.941483272004889E-2
 5.703585518900323E6     8.875605660444092E-1    2.770679149070505E-2    1.134589738057669E-1   -3.888110498334051E-2    1.128677342207517E-1   -4.074718148767890E-2    8.875326159069911E-1    2.949706699992735E-2
 5.747103093003022E6     8.877381011631732E-1    2.749564382116471E-2    1.132783237588580E-1   -3.873160852288599E-2    1.126921899538676E-1   -4.061117280211034E-2    8.877531240215458E-1    2.934647642046809E-2
 5.790952700218840E6     8.878845619213567E-1    2.727018408380380E-2    1.130988633370686E-1   -3.859106450361867E-2    1.125211867844990E-1   -4.046367175096382E-2    8.878546561847369E-1    2.913957079552215E-2
 5.835136873914825E6     8.880556859305808E-1    2.795772356127656E-2    1.130119072194355E-1   -3.895383224287732E-2    1.126750516892604E-1   -3.956532744121152E-2    8.882062900693807E-1    2.887731823315750E-2
 5.879658166787256E6     8.882230591327355E-1    2.774839137118168E-2    1.128207584473992E-1   -3.880914226011242E-2    1.125167279661589E-1   -3.939040323037567E-2    8.883660446574321E-1    2.858829435729175E-2
 5.924519151009166E6     8.883949853055223E-1    2.750814832286433E-2    1.126498062573311E-1   -3.866877327381819E-2    1.123535391704898E-1   -3.925896765412662E-2    8.885967164700663E-1    2.843699679242301E-2
 5.969722418378883E6     8.885334612018572E-1    2.729160360362783E-2    1.124847178728744E-1   -3.852495535658544E-2    1.121702370570212E-1   -3.913232716431629E-2    8.887531769953957E-1    2.817123815196759E-2
 6.015270580469812E6     8.887176665282068E-1    2.707865892191303E-2    1.123050337018205E-1   -3.838467080312943E-2    1.119976526743086E-1   -3.899394449655603E-2    8.888470672304027E-1    2.773547872277482E-2
 6.061166268781302E6     8.888899853227855E-1    2.687388055609796E-2    1.121453886831056E-1   -3.822902047965177E-2    1.118336578101126E-1   -3.884504644915127E-2    8.890448053941419E-1    2.755947173195079E-2
 6.107412134890671E6     8.889923061951907E-1    2.657053693818831E-2    1.119689481806568E-1   -3.802341392239103E-2    1.116221630225280E-1   -3.873919676537310E-2    8.892185876297410E-1    2.750048908819646E-2
 6.154010850606443E6     8.891808888444067E-1    2.634472882545098E-2    1.118037286267944E-1   -3.787612287536223E-2    1.114484085100883E-1   -3.858581100240292E-2    8.893551487577546E-1    2.730233030449140E-2
 6.200965108122637E6     8.893615591293708E-1    2.614090446885985E-2    1.116364917122768E-1   -3.773809870603034E-2    1.112826929234613E-1   -3.845072091362209E-2    8.895158156162982E-1    2.703643092788865E-2
 6.248277620174343E6     8.895130272198153E-1    2.590850940968676E-2    1.114567272952867E-1   -3.761881428006724E-2    1.111262050255401E-1   -3.828504272496461E-2    8.896796640978849E-1    2.679472735202812E-2
 6.295951120194497E6     8.896806714656159E-1    2.569536810552306E-2    1.112882364175560E-1   -3.746148376298949E-2    1.109520176222964E-1   -3.814824270854709E-2    8.898226935076076E-1    2.659069080176874E-2
 6.343988362471664E6     8.898529169208325E-1    2.556516492861517E-2    1.111174497261641E-1   -3.739295729703396E-2    1.108498757950570E-1   -3.796976309254495E-2    8.900196886913764E-1    2.628832740897458E-2
 6.392392122309345E6     8.900021795925908E-1    2.533124712237497E-2    1.109558476455961E-1   -3.723834631362086E-2    1.106933693390710E-1   -3.782632471770098E-2    8.901682278420527E-1    2.603142255559557E-2
 6.441165196186168E6     8.901855354003745E-1    2.508166125936418E-2    1.107923146999828E-1   -3.710530069487749E-2    1.105216666736638E-1   -3.768989375511526E-2    8.903343894493757E-1    2.568687284456323E-2
 6.490310401917514E6     8.903289116869728E-1    2.487436817725051E-2    1.106270810728401E-1   -3.696097090562490E-2    1.103707197071895E-1   -3.754223453946597E-2    8.905159533607051E-1    2.559710245346063E-2
 6.539830578818345E6     8.905359098532780E-1    2.464163213087503E-2    1.104568558134075E-1   -3.683604118061959E-2    1.102130853509698E-1   -3.738818629645756E-2    8.906658113990208E-1    2.542537147821557E-2
 6.589728587867169E6     8.906554940613819E-1    2.443482408749344E-2    1.102909220861304E-1   -3.669029487493302E-2    1.100487106323372E-1   -3.724730348711854E-2    8.908375164442027E-1    2.529027995178895E-2
 6.640007311871376E6     8.908434169338539E-1    2.419458422211657E-2    1.101343588087933E-1   -3.655332709014515E-2    1.098829761819929E-1   -3.710516421583428E-2    8.909809987471127E-1    2.496700573919627E-2
 6.690669655633785E6     8.909958286768631E-1    2.398004733132942E-2    1.099655369867747E-1   -3.640843087574815E-2    1.097305036142081E-1   -3.694919290743180E-2    8.911298683884055E-1    2.482051207471864E-2
 6.741718546120445E6     8.911265074474519E-1    2.374808181759450E-2    1.098025228131981E-1   -3.626190914612946E-2    1.095672918182028E-1   -3.682990524600312E-2    8.912660291128839E-1    2.456396344208607E-2
 6.793156932629797E6     8.912601341855091E-1    2.350499841128746E-2    1.096491247514685E-1   -3.612319711321116E-2    1.094055427202975E-1   -3.668586530024807E-2    8.914086116727190E-1    2.426706712104067E-2
 6.844987786962981E6     8.914014199224815E-1    2.328745024598501E-2    1.094780137436619E-1   -3.599345649340697E-2    1.092493228539485E-1   -3.655382424352713E-2    8.915846358524667E-1    2.410501410597405E-2
 6.897214103595586E6     8.915042167014405E-1    2.280452347400768E-2    1.093197646679346E-1   -3.571512899636131E-2    1.089535007957110E-1   -3.653790754535562E-2    8.916993679164857E-1    2.403207765708781E-2
 6.949838899850640E6     8.916586240724517E-1    2.256999228108919E-2    1.091608912508806E-1   -3.557605145046218E-2    1.087904040689003E-1   -3.639855485040062E-2    8.918658365935571E-1    2.365587854567991E-2
 7.002865216072913E6     8.918212072471130E-1    2.182473434691133E-2    1.089630824037883E-1   -3.521632154689483E-2    1.084527395169695E-1   -3.665847524553653E-2    8.919554350374772E-1    2.353300886889376E-2
 7.056296115804635E6     8.919823180117140E-1    2.163512829002606E-2    1.088016462467016E-1   -3.507856447957659E-2    1.082993893607685E-1   -3.652786778483771E-2    8.920913217247798E-1    2.331577777919459E-2
 7.110134685962399E6     8.921676445544184E-1    2.139283229646096E-2    1.086491700811264E-1   -3.494496489314373E-2    1.081490523265081E-1   -3.639080786994753E-2    8.922433598128089E-1    2.308322400480966E-2
 7.164384037015557E6     8.923247924609352E-1    2.115063045007529E-2    1.084914794639984E-1   -3.480989690228305E-2    1.079842201599413E-1   -3.625544808149853E-2    8.923911169897653E-1    2.280338944469264E-2
 7.219047303165923E6     8.924800942080311E-1    2.089078190175337E-2    1.083333378255653E-1   -3.467933792189015E-2    1.078325433038440E-1   -3.611377827587605E-2    8.925548426096832E-1    2.257784411600260E-2
 7.274127642528819E6     8.926810206312293E-1    2.066176163061666E-2    1.081786371212907E-1   -3.453798273030093E-2    1.076816397733017E-1   -3.597274451800082E-2    8.927349668609605E-1    2.234530660448460E-2
 7.329628237315600E6     8.928989394535197E-1    2.015430677608374E-2    1.079875268679437E-1   -3.430167072480268E-2    1.074960928875523E-1   -3.610143230023746E-2    8.928895823170589E-1    2.210255030278142E-2
 7.385552294017412E6     8.930265224897820E-1    1.991686976681905E-2    1.078301580880721E-1   -3.416722932394041E-2    1.073408494310145E-1   -3.596789589322508E-2    8.930310219487567E-1    2.188571220194794E-2
 7.441903043590503E6     8.931496136551603E-1    2.060921493665782E-2    1.077531864144351E-1   -3.444357450145191E-2    1.074791840666082E-1   -3.505983325574053E-2    8.932910314923522E-1    2.159095705820966E-2
 7.498683741642874E6     8.932692142309747E-1    2.036253980572782E-2    1.076110391209811E-1   -3.430520230260958E-2    1.073288970066190E-1   -3.491709760393179E-2    8.934354466508626E-1    2.137367376061425E-2
 7.555897668622349E6     8.934239525472507E-1    1.948162476546031E-2    1.074062382288399E-1   -3.385601780412213E-2    1.069190608605238E-1   -3.529612711073895E-2    8.934896772540613E-1    2.112616593010398E-2
 7.613548130006171E6     8.935929487022504E-1    1.921737891982898E-2    1.072570688681776E-1   -3.371531950777865E-2    1.067655021533762E-1   -3.516211870863431E-2    8.936583997599684E-1    2.090174814205763E-2
 7.671638456491867E6     8.940490966103761E-1    1.839201656544427E-2    1.069925534240263E-1   -3.335902877154386E-2    1.066436688188633E-1   -3.571558259616624E-2    8.937752435766511E-1    2.065058907244869E-2
 7.730172004189732E6     8.942060977790385E-1    1.814193951173908E-2    1.068437199024942E-1   -3.323027125514408E-2    1.064957433739394E-1   -3.558520004775090E-2    8.939219704610948E-1    2.040096784111738E-2
 7.789152154816771E6     8.944051432060565E-1    1.789721741108943E-2    1.066913168707570E-1   -3.308753189179680E-2    1.063520631243511E-1   -3.544787577495220E-2    8.940771542989372E-1    2.017691560627609E-2
 7.848582315891974E6     8.941636703313056E-1    1.827170606435108E-2    1.066511336419961E-1   -3.317555152706207E-2    1.061643001740318E-1   -3.462140238793102E-2    8.942981104683795E-1    1.994908993893324E-2
 7.908465920933248E6     8.943374420087291E-1    1.802450996119856E-2    1.065032117079325E-1   -3.304370118618568E-2    1.060160512470639E-1   -3.448784909580609E-2    8.944414106232539E-1    1.971444050657972E-2
 7.968806429655775E6     8.944870128548603E-1    1.777976059445825E-2    1.063570485959925E-1   -3.290670390042440E-2    1.058684484922298E-1   -3.435289233546656E-2    8.945375328128665E-1    1.946135893989708E-2
 8.029607328171868E6     8.946193203589262E-1    1.752883694678164E-2    1.062009209413886E-1   -3.277246296971199E-2    1.057190895339182E-1   -3.421818326347262E-2    8.947086994217334E-1    1.922170476292635E-2
 8.090872129192449E6     8.947849215225214E-1    1.730698219235765E-2    1.060573089193124E-1   -3.263968565164462E-2    1.055758289536031E-1   -3.408575406973231E-2    8.948364174624521E-1    1.897783018554060E-2
 8.152604372229892E6     8.948905053684078E-1    1.705768270115109E-2    1.059138010663671E-1   -3.250432706671811E-2    1.054299257476156E-1   -3.395207744138076E-2    8.949875888128980E-1    1.870804332050047E-2
 8.214807623802581E6     8.950525806190275E-1    1.679369847414378E-2    1.057666480421310E-1   -3.237243131267444E-2    1.052812257257603E-1   -3.381968877195061E-2    8.950888966023558E-1    1.848694047036362E-2
 8.277485477640945E6     8.951736090714597E-1    1.657523694092738E-2    1.056161226230414E-1   -3.223069883564713E-2    1.051374036492582E-1   -3.369432916544065E-2    8.952070193651974E-1    1.823477770551286E-2
 8.340641554895067E6     8.953221873011034E-1    1.630333804446281E-2    1.054722629753565E-1   -3.210258756695011E-2    1.049889953053654E-1   -3.356088796868118E-2    8.953534149578480E-1    1.800519532079203E-2
 8.404279504343957E6     8.954475049896666E-1    1.607602550134101E-2    1.053273646286226E-1   -3.196853587322059E-2    1.048507475769513E-1   -3.342811892822420E-2    8.955486603221924E-1    1.773991347009262E-2
 8.468403002606256E6     8.955945992034376E-1    1.584521177190613E-2    1.051905151861621E-1   -3.183932704307596E-2    1.047074610361490E-1   -3.329183031233699E-2    8.957196774965542E-1    1.749584186228116E-2
 8.533015754352720E6     8.957172806093077E-1    1.587967037260526E-2    1.050842232735783E-1   -3.183650999563296E-2    1.046601121858872E-1   -3.287822789721056E-2    8.958633171343063E-1    1.722654021021698E-2
 8.598121492520234E6     8.958286300188855E-1    1.563548326178930E-2    1.049355481951599E-1   -3.170113368832421E-2    1.045181719293170E-1   -3.274198488081206E-2    8.960058180131917E-1    1.702921764576597E-2
 8.663723978527457E6     8.964205562907867E-1    1.441074392707360E-2    1.046436346178773E-1   -3.123134303392010E-2    1.043252869798676E-1   -3.362566677072639E-2    8.960971990735291E-1    1.677507799787469E-2
 8.729827002492212E6     8.965376332005121E-1    1.417183586798382E-2    1.044941505326368E-1   -3.109686322147323E-2    1.041772011984186E-1   -3.349660988613051E-2    8.962146968162029E-1    1.652945366012481E-2
 8.796434383450346E6     8.966644055711509E-1    1.389580209708395E-2    1.043483434836630E-1   -3.096681262550705E-2    1.040407210030198E-1   -3.337114683818981E-2    8.963664355930498E-1    1.627928092218808E-2
 8.863549969576446E6     8.965995235222971E-1    1.400197090325016E-2    1.042957153705397E-1   -3.095406629342835E-2    1.038295343949539E-1   -3.279884211795613E-2    8.965196368308346E-1    1.604091270527594E-2
 8.931177638406139E6     8.967175296160413E-1    1.375657307210805E-2    1.041479262295843E-1   -3.081665004374150E-2    1.036911817326695E-1   -3.267039099693506E-2    8.966576213147956E-1    1.579732559287120E-2
 8.999321297060097E6     8.968065016796006E-1    1.350702437606301E-2    1.040092003732104E-1   -3.068781554007596E-2    1.035523530899539E-1   -3.254156190352920E-2    8.967674697286584E-1    1.554137917363468E-2
 9.067984882469844E6     8.969634265024027E-1    1.324504122286500E-2    1.038787072295434E-1   -3.055848668633460E-2    1.034126660722136E-1   -3.241542696337924E-2    8.969139988999217E-1    1.528472935914450E-2
 9.137172361605095E6     8.971074040051077E-1    1.298821431712395E-2    1.037355415961729E-1   -3.042917415950862E-2    1.032670056955034E-1   -3.228132024289616E-2    8.970211051795975E-1    1.505175311987556E-2
 9.206887731702998E6     8.971193744526886E-1    1.353721197514275E-2    1.036912996995773E-1   -3.061229535367935E-2    1.033403918572815E-1   -3.140458642740387E-2    8.972272121572201E-1    1.476809989645838E-2
 9.277135020499127E6     8.973304784111558E-1    1.326051733005345E-2    1.035629704997951E-1   -3.049131489701314E-2    1.032107177766254E-1   -3.128057466197885E-2    8.973975147057202E-1    1.449722001153692E-2
 9.347918286460072E6     8.974630580707761E-1    1.302187777705831E-2    1.034257111694933E-1   -3.035573721011189E-2    1.030756620832499E-1   -3.115348980430280E-2    8.975806090304166E-1    1.423688873446276E-2
 9.419241619017981E6     8.976123279245058E-1    1.274550089198831E-2    1.032879573132146E-1   -3.022877251688813E-2    1.029410076126027E-1   -3.102228416964430E-2    8.977347006554268E-1    1.397733600534706E-2
 9.491109138806809E6     8.977132278570091E-1    1.247766059152949E-2    1.031516162912654E-1   -3.009515840160254E-2    1.028011923487138E-1   -3.089238891977507E-2    8.978178062850465E-1    1.373501424751318E-2
 9.563524997900363E6     8.978080696269709E-1    1.220429004319620E-2    1.030168898659861E-1   -2.996648425554128E-2    1.026662275052902E-1   -3.075955253297428E-2    8.979115382220819E-1    1.348420518612501E-2
 9.636493380052259E6     8.979508783639045E-1    1.199122692767179E-2    1.028775992438927E-1   -2.983509590152858E-2    1.025387334624515E-1   -3.063634315871401E-2    8.981092915178940E-1    1.320483574125067E-2
 9.710018500937525E6     8.981043236612606E-1    1.169460517335615E-2    1.027485477617778E-1   -2.971161888336557E-2    1.023963823035814E-1   -3.050625473430425E-2    8.982337167389306E-1    1.293539154197597E-2
 9.784104608396223E6     8.982327531321055E-1    1.090235205135673E-2    1.025555422507779E-1   -2.935536160331478E-2    1.020869086555128E-1   -3.084911362614908E-2    8.983471794976806E-1    1.272838271785345E-2
 9.858755982678859E6     8.984060821307744E-1    1.064614808452732E-2    1.024212683881549E-1   -2.922389420493034E-2    1.019490422249106E-1   -3.072770817774892E-2    8.984409562742881E-1    1.246986787296334E-2
 9.933976936693633E6     8.985348708532552E-1    1.038151180288108E-2    1.022898507661949E-1   -2.909339844524805E-2    1.018148251354464E-1   -3.060063463965186E-2    8.985810373659568E-1    1.223680117158006E-2
 1.000977181625571E7     8.986829553539578E-1    1.007508819682617E-2    1.021593193353277E-1   -2.897121612796565E-2    1.016872571926634E-1   -3.047388663323768E-2    8.987004796118466E-1    1.195511091967095E-2
 1.008614500033817E7     8.988006674174812E-1    9.836835148652827E-3    1.020222632789517E-1   -2.883711381179894E-2    1.015533266821381E-1   -3.034862843840661E-2    8.987913051883419E-1    1.170844973847912E-2
 1.016310090132507E7     8.989492108147167E-1    9.544169277928956E-3    1.018926964509018E-1   -2.871984704577552E-2    1.014288043888175E-1   -3.021649904521573E-2    8.989141749356335E-1    1.145478936031377E-2
 1.024064396526634E7     8.989980483428170E-1    9.817916587297014E-3    1.018209775305714E-1   -2.879829112741461E-2    1.014847891243854E-1   -2.961622239725142E-2    8.990666940586027E-1    1.116130353272833E-2
 1.031877867213467E7     8.991612486781568E-1    9.571436950812768E-3    1.016891360529165E-1   -2.866880527787961E-2    1.013519154223421E-1   -2.948847016394370E-2    8.992420356198906E-1    1.086748381462306E-2
 1.039750953608436E7     8.992720632061858E-1    9.303860020479287E-3    1.015557766494672E-1   -2.854446889099417E-2    1.012221299310802E-1   -2.936125737630332E-2    8.993765972711039E-1    1.062416746447147E-2
 1.047684110571204E7     8.994064847286445E-1    9.043552573927891E-3    1.014299097724472E-1   -2.841365674424092E-2    1.010955331431934E-1   -2.923247987707628E-2    8.994862461545720E-1    1.034590927292206E-2
 1.055677796431950E7     8.995320783535922E-1    8.752837974872909E-3    1.013057292976014E-1   -2.828900615921148E-2    1.009694552825947E-1   -2.910735201952209E-2    8.996135834279482E-1    1.008435823369817E-2
 1.063732473017859E7     9.000697887760170E-1    7.290683320902467E-3    1.009870023703556E-1   -2.775388626349059E-2    1.007098650864546E-1   -3.023573223299094E-2    8.997103128037184E-1    9.833493432582927E-3
 1.071848605679777E7     9.001812868868564E-1    6.989163847316197E-3    1.008581633817854E-1   -2.762807600223210E-2    1.005854770619695E-1   -3.011838266413012E-2    8.998163204819960E-1    9.562304447448601E-3
 1.080026663319129E7     9.000612288159315E-1    7.103938463150767E-3    1.008165589238551E-1   -2.760294352701052E-2    1.003768979792037E-1   -2.952234524022971E-2    8.999780071904219E-1    9.331493084667660E-3
 1.088267118414987E7     9.001961327032184E-1    6.808470853729355E-3    1.006830655059737E-1   -2.747374356565764E-2    1.002535767518172E-1   -2.939176804072779E-2    9.001090181988539E-1    9.065038933020769E-3
 1.096570447051370E7     9.005528283628736E-1    6.157201684092933E-3    1.004776999874413E-1   -2.725075530286378E-2    1.002031992641428E-1   -2.974752031125435E-2    9.002007690936573E-1    8.750093505003486E-3
 1.104937128944762E7     9.006599737883151E-1    5.873232328014365E-3    1.003455257065166E-1   -2.712224845977317E-2    1.000836662063887E-1   -2.962652260418683E-2    9.003646243396963E-1    8.487202288353771E-3
 1.113367647471805E7     9.008064798518379E-1    5.595025136523084E-3    1.002222416123186E-1   -2.699789578662424E-2    9.995872623440205E-2   -2.950515364487308E-2    9.004619780667735E-1    8.213174983292460E-3
 1.121862489697252E7     9.006218992472916E-1    6.874605542884402E-3    1.003078154958131E-1   -2.747964706742951E-2    1.001844469317167E-1   -2.786958810279434E-2    9.006319199382808E-1    7.847700753190525E-3
 1.130422146402085E7     9.007440327470635E-1    6.624670501544365E-3    1.001856558988091E-1   -2.735193234289514E-2    1.000562429780002E-1   -2.774393608372600E-2    9.007491075752494E-1    7.534100583536116E-3
 1.139047112111875E7     9.008479725086588E-1    6.315291299692814E-3    1.000595458305077E-1   -2.722361869178480E-2    9.993814735768908E-2   -2.761212768710448E-2    9.009079650418693E-1    7.275296721290393E-3
 1.147737885125368E7     9.010180995599596E-1    6.054363629628899E-3    9.994395931608284E-2   -2.710151548482154E-2    9.981263083964016E-2   -2.748927173999340E-2    9.010357019891309E-1    6.997072590317974E-3
 1.156494967543242E7     9.011318148842360E-1    5.756976521885822E-3    9.982054945849264E-2   -2.697299692397231E-2    9.968965499006191E-2   -2.736150051895932E-2    9.011206261620988E-1    6.722237409139849E-3
 1.165318865297152E7     9.012075336270530E-1    5.375256502573432E-3    9.969819035471640E-2   -2.678205794983833E-2    9.951069299764342E-2   -2.728174544288531E-2    9.012312041677197E-1    6.463000706860436E-3
 1.174210088178934E7     9.016582966000354E-1    3.619193325144437E-3    9.936198162993924E-2   -2.612384303809983E-2    9.910669265991069E-2   -2.864599153642744E-2    9.013115874670262E-1    6.263781631637684E-3
 1.183169149870061E7     9.018267311661583E-1    3.298895467719885E-3    9.923886930517992E-2   -2.600768137106126E-2    9.899142217614282E-2   -2.852842798115440E-2    9.014689868662248E-1    6.014858827032242E-3
 1.192196567971337E7     9.019480817796450E-1    3.028496135961812E-3    9.911777430847547E-2   -2.588131560205957E-2    9.887119930316164E-2   -2.841070722287067E-2    9.016090305757990E-1    5.704858227039407E-3
 1.201292864032780E7     9.020685483818980E-1    2.723201627535717E-3    9.899422716035421E-2   -2.576050367546793E-2    9.875202091777688E-2   -2.828910336409932E-2    9.017060910223285E-1    5.434209991128729E-3
 1.210458563583766E7     9.021795817126822E-1    2.452108304370481E-3    9.887672321724732E-2   -2.563279500581324E-2    9.863083778256956E-2   -2.816795271895679E-2    9.018255930384999E-1    5.126302597124555E-3
 1.219694196163385E7     9.022889018189195E-1    2.146094547632245E-3    9.875348324831945E-2   -2.551088785876649E-2    9.851484484167353E-2   -2.804668113010714E-2    9.019279206061309E-1    4.859138416617528E-3
 1.229000295351040E7     9.019706426806646E-1    2.856328764217062E-3    9.881404747775899E-2   -2.567240176180425E-2    9.842310509703081E-2   -2.678673682030882E-2    9.020850405304510E-1    4.544826393197201E-3
 1.238377398797275E7     9.021060628017112E-1    2.541005956806612E-3    9.869752284384312E-2   -2.554915873116457E-2    9.830178984282416E-2   -2.666524383304140E-2    9.021947437797012E-1    4.269290600330309E-3
 1.247826048254829E7     9.022367055505269E-1    2.251100555838803E-3    9.858494626480800E-2   -2.542226381978550E-2    9.818329875051789E-2   -2.653606524389138E-2    9.022735308380021E-1    3.981775510259259E-3
 1.257346789609938E7     9.025280450517399E-1    2.627374766610966E-3    9.851142740361053E-2   -2.565151274050761E-2    9.843516116115256E-2   -2.596763013668979E-2    9.024169520115813E-1    3.557417135515546E-3
 1.266940172913885E7     9.025935098621257E-1    2.314332395371977E-3    9.839650100631193E-2   -2.552377078445759E-2    9.831920071977829E-2   -2.583657232943191E-2    9.025316544644888E-1    3.260552021456859E-3
 1.276606752414753E7     9.027201531306852E-1    2.006202571000188E-3    9.828322178157020E-2   -2.539796703692350E-2    9.820369021300765E-2   -2.571272902386794E-2    9.026698859419229E-1    2.958404197645835E-3
 1.286347086589479E7     9.028466418935279E-1    1.727921027228914E-3    9.816534771118150E-2   -2.527735142881955E-2    9.808698644011903E-2   -2.558955399307838E-2    9.027310955662569E-1    2.661328617364531E-3
 1.296161738176090E7     9.029630920128090E-1    1.409859855350313E-3    9.805697251091382E-2   -2.515147865523959E-2    9.797454048526945E-2   -2.546308461247443E-2    9.028496248966537E-1    2.386317765205193E-3
 1.306051274206230E7     9.030417130186787E-1    1.099128843234558E-3    9.793371751534810E-2   -2.503054100704266E-2    9.786470636008578E-2   -2.534427881658346E-2    9.029711981070589E-1    2.058295191391744E-3
 1.316016266037924E7     9.031423942616505E-1    8.045186198092321E-4    9.782139029464836E-2   -2.490163730880830E-2    9.775050861042055E-2   -2.521664562478556E-2    9.030967330317753E-1    1.785972751277745E-3
 1.326057289388563E7     9.032224519698244E-1    3.302875412544756E-4    9.770879853731784E-2   -2.466261949163105E-2    9.752804534772876E-2   -2.516850652241642E-2    9.032179975788257E-1    1.548896809049399E-3
 1.336174924368203E7     9.033085470432780E-1   -3.075588784757366E-6    9.760087035857672E-2   -2.453996528016514E-2    9.741084319597725E-2   -2.504347960612005E-2    9.033376990672500E-1    1.229424704316239E-3
 1.346369755513046E7     9.034794892125705E-1   -1.485399579995741E-4    9.748588316583770E-2   -2.453488621942601E-2    9.741687506313210E-2   -2.484609375216404E-2    9.034580743589042E-1    8.921474604390423E-4
 1.356642371819227E7     9.035973617192543E-1   -4.441290207491190E-4    9.737421885958346E-2   -2.440968238548042E-2    9.730596540872516E-2   -2.472508619064719E-2    9.035620913410838E-1    5.736385714563359E-4
 1.366993366776852E7     9.037206225958878E-1   -7.675033392948273E-4    9.726382194940411E-2   -2.429075050140202E-2    9.719071244847080E-2   -2.459955745652344E-2    9.036447756794354E-1    2.649028194971388E-4
 1.377423338404255E7     9.038187903414169E-1   -1.047564866265693E-3    9.715536265813934E-2   -2.416112753046309E-2    9.707918652267251E-2   -2.447357866144348E-2    9.037471369005917E-1   -4.746619200126604E-5
 1.387932889282586E7     9.038758600640269E-1   -2.381383530467302E-3    9.693792640565942E-2   -2.359377224786757E-2    9.651204106093925E-2   -2.517183827380575E-2    9.038677699900147E-1   -2.378547735977067E-4
 1.398522626590596E7     9.043841901819801E-1   -3.383481417365572E-3    9.668483073566167E-2   -2.331644905089368E-2    9.648678051759325E-2   -2.587858769304010E-2    9.039930952350852E-1   -5.417864825224153E-4
 1.409193162139728E7     9.044722185715276E-1   -3.713467538224964E-3    9.657779450843122E-2   -2.319602969782561E-2    9.637632906364946E-2   -2.576502008162660E-2    9.040995433061823E-1   -8.549828162553112E-4
 1.419945112409473E7     9.041967075184169E-1   -3.381084990875130E-3    9.660691709847459E-2   -2.322962538316710E-2    9.618429702792472E-2   -2.481600932586788E-2    9.042387290408924E-1   -1.141725266347878E-3
 1.430779098582953E7     9.043273535755583E-1   -3.675563500117201E-3    9.649837525095321E-2   -2.310366353996853E-2    9.607755058472167E-2   -2.469643038778325E-2    9.043559655580027E-1   -1.471242263485589E-3
 1.441695746582855E7     9.044379439011243E-1   -4.005206815098557E-3    9.638761585399695E-2   -2.298493673353619E-2    9.596931423680286E-2   -2.457137432215459E-2    9.044822803341973E-1   -1.789613712673276E-3
 1.452695687107559E7     9.045276439201271E-1   -4.350542242097508E-3    9.628011460316684E-2   -2.286601544500217E-2    9.586270071909234E-2   -2.445201403972761E-2    9.045621623999228E-1   -2.092563460694328E-3
 1.463779555667585E7     9.046638748462902E-1   -4.632567791270413E-3    9.617449130196271E-2   -2.274559912147847E-2    9.575409209273648E-2   -2.433320896001308E-2    9.046727006795570E-1   -2.418700449524188E-3
 1.474947992622320E7     9.047745667064473E-1   -4.949597713386520E-3    9.606769041323719E-2   -2.262555591760805E-2    9.565101445518993E-2   -2.421195755461754E-2    9.047877287727675E-1   -2.724078242753137E-3
 1.486201643216998E7     9.048171953051691E-1   -4.763800463944065E-3    9.604462370797476E-2   -2.267974017550074E-2    9.572774096702569E-2   -2.354171773350387E-2    9.048959148770515E-1   -3.070699419201889E-3
 1.497541157619987E7     9.049487068984412E-1   -5.629013000206895E-3    9.585512149731254E-2   -2.237776789335559E-2    9.544008289722322E-2   -2.396888448628087E-2    9.049838250124318E-1   -3.373401512205587E-3
 1.508967190960350E7     9.050436414210864E-1   -5.979597061015545E-3    9.574883999902158E-2   -2.225666677445919E-2    9.533748917889417E-2   -2.384919276392400E-2    9.051108072962437E-1   -3.678703587341998E-3
 1.520480403365694E7     9.051743950864308E-1   -6.303899031935177E-3    9.564137726687291E-2   -2.213660007263769E-2    9.523037063623509E-2   -2.372702230137733E-2    9.052212746724482E-1   -3.995300794336134E-3
 1.532081460000315E7     9.052573479664405E-1   -6.654688736853123E-3    9.553538760316493E-2   -2.201788553068293E-2    9.512521083730327E-2   -2.361133312401115E-2    9.053185062155472E-1   -4.356662659481896E-3
 1.543771031103615E7     9.053969751241209E-1   -6.960969731649728E-3    9.543440608465081E-2   -2.189292135277380E-2    9.502424620979816E-2   -2.349026702194873E-2    9.054436755665195E-1   -4.669662751623895E-3
 1.555549792028828E7     9.055037037045893E-1   -7.302011737187018E-3    9.533122923208662E-2   -2.177099875571904E-2    9.492173429413292E-2   -2.337279498809532E-2    9.055641467159032E-1   -4.991977686572981E-3
 1.567418423282054E7     9.055114771956442E-1   -7.097072968407479E-3    9.531336385849842E-2   -2.182695556007522E-2    9.500019509419917E-2   -2.269688022547915E-2    9.056399545953046E-1   -5.359120084506577E-3
 1.579377610561541E7     9.056455657708512E-1   -7.436965915892764E-3    9.520810523181819E-2   -2.170472325159497E-2    9.489562085483623E-2   -2.257416197243607E-2    9.057158621926248E-1   -5.709390094545857E-3
 1.591428044797338E7     9.057340209231710E-1   -7.762669205280095E-3    9.510787022312091E-2   -2.158255870299377E-2    9.479257781224761E-2   -2.245494563966112E-2    9.058001281727197E-1   -6.039771210931536E-3
 1.603570422191187E7     9.058372640572275E-1   -8.140153920686831E-3    9.500509358736933E-2   -2.146680664099081E-2    9.469332715114818E-2   -2.233052801767956E-2    9.059000532412593E-1   -6.380728284030883E-3
 1.615805444256752E7     9.059351141425949E-1   -8.469255167774744E-3    9.490199635092633E-2   -2.134167202543618E-2    9.459571071353233E-2   -2.220981922766114E-2    9.060389967301162E-1   -6.696254210955059E-3
 1.628133817860163E7     9.060375176776605E-1   -8.824635241058493E-3    9.480527681449814E-2   -2.121960214027624E-2    9.449414261715036E-2   -2.208810742882713E-2    9.061505946979620E-1   -7.027968531706526E-3
 1.640556255260818E7     9.061304774129804E-1   -9.381688461296386E-3    9.467179738168169E-2   -2.102394683059150E-2    9.429984661018538E-2   -2.216897622840918E-2    9.062398665201983E-1   -7.358225452590202E-3
 1.653073474152580E7     9.062043877457108E-1   -9.760550423723259E-3    9.457425827439421E-2   -2.090432718083076E-2    9.420399416925695E-2   -2.204568037026359E-2    9.063337197662905E-1   -7.721093363766757E-3
 1.665686197705204E7     9.063124079121165E-1   -1.012590264438275E-2    9.447542129930595E-2   -2.077886997516031E-2    9.410572248310181E-2   -2.192295799626484E-2    9.064012213523922E-1   -8.061611891263145E-3
 1.678395154606132E7     9.064158517711168E-1   -1.046953018668628E-2    9.437358626930585E-2   -2.065813760524345E-2    9.400162555106824E-2   -2.180682894510006E-2    9.064828342811152E-1   -8.410328659614063E-3
 1.691201079102603E7     9.065596309590420E-1   -1.117727094192476E-2    9.422257940870354E-2   -2.044295120298462E-2    9.381999639869948E-2   -2.205041349069071E-2    9.066167472966001E-1   -8.730193681542268E-3
 1.704104711044038E7     9.066636572741409E-1   -1.151097370487704E-2    9.412363789163054E-2   -2.032424238617435E-2    9.372274835177551E-2   -2.193367133421589E-2    9.067046952798772E-1   -9.100830981177616E-3
 1.717106795924834E7     9.067504050939182E-1   -1.186858093335453E-2    9.402834707717118E-2   -2.020010532445635E-2    9.363060063755801E-2   -2.180977260945954E-2    9.068174673735523E-1   -9.429466101211096E-3
 1.730208084927390E7     9.072435670288078E-1   -1.288686912446841E-2    9.379126075262599E-2   -1.995395497529422E-2    9.364676097624307E-2   -2.256720205058962E-2    9.068998487667549E-1   -9.791077324976385E-3
 1.743409334965526E7     9.069400441642974E-1   -1.263354342347048E-2    9.383556302140872E-2   -1.996169039450538E-2    9.343889395692605E-2   -2.157971895265469E-2    9.069863663928391E-1   -1.013214299239532E-2
 1.756711308728221E7     9.070323321247659E-1   -1.300779258168214E-2    9.373717802477524E-2   -1.984592456237516E-2    9.334105348631444E-2   -2.146222342270928E-2    9.070990320049603E-1   -1.048593603927915E-2
 1.770114774723655E7     9.071168878091164E-1   -1.335222693011191E-2    9.364488848932087E-2   -1.972281038253009E-2    9.324746553237015E-2   -2.133757473214618E-2    9.071867812596114E-1   -1.084427921644926E-2
 1.783620507323623E7     9.072854912477665E-1   -1.271197708594653E-2    9.369457790614384E-2   -2.000083628470678E-2    9.360571248901980E-2   -2.032304763548251E-2    9.072370231324174E-1   -1.131578657041590E-2
 1.797229286808272E7     9.072840344915171E-1   -1.323911211375308E-2    9.358635214343150E-2   -1.976874612558955E-2    9.339927436791849E-2   -2.029270897842692E-2    9.073659900295824E-1   -1.161160615835170E-2
 1.810941899411174E7     9.074463654523893E-1   -1.343879063485723E-2    9.350415987625714E-2   -1.975945055447171E-2    9.341934735348746E-2   -2.007949368803248E-2    9.074223388805065E-1   -1.203462942228494E-2
 1.824759137364766E7     9.075855495944408E-1   -1.383412546494853E-2    9.341359042889132E-2   -1.964077950295263E-2    9.332684641118347E-2   -1.996310634816702E-2    9.074878497583656E-1   -1.245906582334900E-2
 1.838681798946100E7     9.076509724414308E-1   -1.419125675288889E-2    9.332097709806700E-2   -1.951461024508469E-2    9.323299967737174E-2   -1.983678385227136E-2    9.075670993893530E-1   -1.279438126073150E-2
 1.852710688522972E7     9.077927079785337E-1   -1.587928099473441E-2    9.303168924537894E-2   -1.895014288533848E-2    9.268718526671388E-2   -2.096222000244957E-2    9.077165631381704E-1   -1.302991727349914E-2
 1.866846616600409E7     9.077632860112870E-1   -1.595562605681622E-2    9.299243714007567E-2   -1.888414083545701E-2    9.259922903724332E-2   -2.050046434987833E-2    9.077740675735272E-1   -1.342047676848700E-2
 1.881090399867451E7     9.078939081034209E-1   -1.539467117022995E-2    9.303846167198238E-2   -1.909794681532170E-2    9.290885221495601E-2   -1.950982083870308E-2    9.078678474246717E-1   -1.388248872455194E-2
 1.895442861244394E7     9.079632619808120E-1   -1.578423935546665E-2    9.294658559565126E-2   -1.897747842242385E-2    9.282206624296442E-2   -1.938631448854993E-2    9.079591651985924E-1   -1.424086040415329E-2
 1.909904829930285E7     9.080519798735880E-1   -1.616868676731110E-2    9.285776102441781E-2   -1.885880221693759E-2    9.273225014570685E-2   -1.926213005648039E-2    9.080412941571250E-1   -1.461494930173613E-2
 1.924477141450845E7     9.081411803599140E-1   -1.655642228845976E-2    9.277432360094200E-2   -1.873788216317289E-2    9.264545750411650E-2   -1.913883421720844E-2    9.081236007886035E-1   -1.498921318059939E-2
 1.939160637706759E7     9.081903835624419E-1   -1.696495916015583E-2    9.268016608353634E-2   -1.861586123707671E-2    9.255277135875871E-2   -1.901973926458856E-2    9.081974504853945E-1   -1.539221558640769E-2
 1.953956167022271E7     9.082937328229997E-1   -1.735879093924688E-2    9.259167469890446E-2   -1.849673497174606E-2    9.246806420088891E-2   -1.889922396952963E-2    9.082790852319762E-1   -1.576512932937921E-2
 1.968864584194249E7     9.083611295998416E-1   -1.788101675580758E-2    9.249385345149998E-2   -1.831982164547852E-2    9.231432180628429E-2   -1.883323908707862E-2    9.083468459934035E-1   -1.614248459704723E-2
 1.983886750541528E7     9.085228358238028E-1   -1.938306576136040E-2    9.221819649688197E-2   -1.787191960468831E-2    9.188752162017752E-2   -1.988810124880052E-2    9.084500175211621E-1   -1.645578851269626E-2
 1.999023533954688E7     9.086161791904387E-1   -1.979129506603517E-2    9.212839792901553E-2   -1.775423843744082E-2    9.180111795653907E-2   -1.977566860266171E-2    9.085509896321826E-1   -1.684521675767539E-2
 2.014275808946211E7     9.087256269271627E-1   -2.016147155330645E-2    9.204362556720139E-2   -1.763057868355316E-2    9.171497861450417E-2   -1.965624778911946E-2    9.086203172821976E-1   -1.725203167495259E-2
 2.029644456700960E7     9.087942130580287E-1   -2.060874823204773E-2    9.195806975262243E-2   -1.751426101287334E-2    9.163151743824452E-2   -1.954190352954470E-2    9.087057504182101E-1   -1.763085359393973E-2
 2.045130365127147E7     9.088710122518009E-1   -2.098036868531894E-2    9.187494799494826E-2   -1.739138687163794E-2    9.154861650015643E-2   -1.941981671909680E-2    9.088022873119194E-1   -1.802450369054628E-2
 2.060734428907584E7     9.089756322435019E-1   -2.140715521065173E-2    9.178824549966284E-2   -1.727830449333407E-2    9.146386862187872E-2   -1.929994124484236E-2    9.088612244281965E-1   -1.838927578737887E-2
 2.076457549551392E7     9.090597943714475E-1   -2.182659428420927E-2    9.170156719621360E-2   -1.715764461084829E-2    9.137883826302901E-2   -1.917817066211995E-2    9.089330028048800E-1   -1.880261539524800E-2
 2.092300635446098E7     9.091074995026557E-1   -2.224151178387725E-2    9.161562430957444E-2   -1.703643500315132E-2    9.129689444272317E-2   -1.905983946813990E-2    9.090169114278636E-1   -1.920195277059124E-2
 2.108264601910070E7     9.092006927901716E-1   -2.265250661777662E-2    9.153530389364865E-2   -1.691365103934412E-2    9.121308048636657E-2   -1.894271813242874E-2    9.090799967211768E-1   -1.959878223397456E-2
 2.124350371245464E7     9.092203052093635E-1   -2.179322925077257E-2    9.166190455757627E-2   -1.720443708021309E-2    9.157579553944711E-2   -1.752816960387589E-2    9.091230566142412E-1   -2.013896376568491E-2
 2.140558872791451E7     9.092711776608617E-1   -2.220100557850826E-2    9.157536330005764E-2   -1.708621681405048E-2    9.149555863879996E-2   -1.740163412005584E-2    9.092231734123351E-1   -2.054092524257969E-2
 2.156891042977939E7     9.092413546734834E-1   -2.328099116973902E-2    9.139655366811156E-2   -1.668177943452722E-2    9.104728155152626E-2   -1.783543206750025E-2    9.093178550049561E-1   -2.083347085404594E-2
 2.173347825379676E7     9.093096158103972E-1   -2.371473601021733E-2    9.131815511992693E-2   -1.655772512946207E-2    9.096718976691823E-2   -1.771587405697537E-2    9.093998058537380E-1   -2.127017822330448E-2
 2.189930170770744E7     9.093629970819452E-1   -2.415536529767289E-2    9.123140412346753E-2   -1.643955847834771E-2    9.088526830153408E-2   -1.759896572921075E-2    9.094651944254021E-1   -2.167566946009760E-2
 2.206639037179505E7     9.094438302598150E-1   -2.457136179801844E-2    9.115359138580580E-2   -1.631862551735870E-2    9.080449843608061E-2   -1.747549093996012E-2    9.095251260275011E-1   -2.209863554483348E-2
 2.223475389943947E7     9.096348849413359E-1   -2.435005317031967E-2    9.117642360463583E-2   -1.647760798967644E-2    9.109212302532275E-2   -1.679777261733204E-2    9.095808171038354E-1   -2.258657398407909E-2
 2.240440201767448E7     9.097293416464050E-1   -2.477203767149852E-2    9.109650461845538E-2   -1.635914990398159E-2    9.101283351009841E-2   -1.667680509028396E-2    9.096512285051797E-1   -2.304527702914344E-2
 2.257534452774993E7     9.097967186898822E-1   -2.518101779131157E-2    9.101844060130651E-2   -1.623165346554246E-2    9.093172956479673E-2   -1.655314746892731E-2    9.096985881411955E-1   -2.346928902098729E-2
 2.274759130569773E7     9.098764986274958E-1   -2.562583328446712E-2    9.094341271199548E-2   -1.611359826379130E-2    9.085202494794621E-2   -1.643324282870039E-2    9.097733147814168E-1   -2.388995330555936E-2
 2.292115230290256E7     9.099211059710351E-1   -2.609980820166201E-2    9.086392862330728E-2   -1.598980639213403E-2    9.077952005654649E-2   -1.630970311572797E-2    9.098652700767061E-1   -2.432727434654605E-2
 2.309603754667697E7     9.099859557000648E-1   -2.653129343612198E-2    9.078685538587696E-2   -1.587235126224028E-2    9.069821509672056E-2   -1.618669531524909E-2    9.099015989245384E-1   -2.475965289904941E-2
 2.327225714084021E7     9.100455647312659E-1   -2.698837375925115E-2    9.071047460958041E-2   -1.574999796686383E-2    9.062039099812740E-2   -1.606702304964738E-2    9.099742630147279E-1   -2.522100389966230E-2
 2.344982126630262E7     9.099815850807846E-1   -2.792288031874882E-2    9.056721062486740E-2   -1.541581738046137E-2    9.027498394902229E-2   -1.628909319660370E-2    9.101127643757131E-1   -2.551142647680621E-2
 2.362874018165328E7     9.100381014433784E-1   -2.837699938546808E-2    9.048683276405881E-2   -1.529276251057709E-2    9.019241584350636E-2   -1.616851198916113E-2    9.101442452659247E-1   -2.597577096642079E-2
 2.380902422375290E7     9.101880694025409E-1   -2.937361964547152E-2    9.031626257004097E-2   -1.504910119399294E-2    8.995852380336154E-2   -1.665703970649862E-2    9.102366784196464E-1   -2.639264970859316E-2
 2.399068380833123E7     9.102268892235206E-1   -2.985968473152169E-2    9.024076697836106E-2   -1.493099497425367E-2    8.988064169022171E-2   -1.654304640938178E-2    9.102939602840526E-1   -2.684831032353709E-2
 2.417372943058824E7     9.102356971546067E-1   -2.975386558439693E-2    9.026163395875236E-2   -1.492769566762507E-2    8.996548211693717E-2   -1.580632272244358E-2    9.103591355002361E-1   -2.729864458717460E-2
 2.435817166580120E7     9.102889377356408E-1   -3.020818462102006E-2    9.018671449059384E-2   -1.481035001305144E-2    8.989051534764386E-2   -1.568184355377115E-2    9.104388433670547E-1   -2.773699733476521E-2
 2.454402116993507E7     9.104303628793052E-1   -3.121803055035083E-2    9.001965746721052E-2   -1.456812184251986E-2    8.965842790472142E-2   -1.617939253432426E-2    9.104680163870620E-1   -2.818789505953287E-2
 2.473128868025839E7     9.104829079238144E-1   -3.167175026546203E-2    8.994660193465775E-2   -1.444421981538007E-2    8.958337330116875E-2   -1.605971044914078E-2    9.105292310720351E-1   -2.863017910488550E-2
 2.491998501596375E7     9.105478994475286E-1   -3.214675133091401E-2    8.987123930526648E-2   -1.432760764116588E-2    8.950923136907167E-2   -1.594021300961532E-2    9.105989047772582E-1   -2.908484740332838E-2
 2.511012107879237E7     9.106359587804295E-1   -3.163864391557298E-2    8.996064940967105E-2   -1.452629589448571E-2    8.986539648707512E-2   -1.484389734756430E-2    9.105900516460399E-1   -2.965224873408992E-2
 2.530170785366461E7     9.106900876325286E-1   -3.210882149138515E-2    8.988459733723009E-2   -1.440582677131668E-2    8.979417504363855E-2   -1.471679598752385E-2    9.106508599524292E-1   -3.012157098802459E-2
 2.549475640931404E7     9.107621420982704E-1   -3.256789468024514E-2    8.981049866027993E-2   -1.428198499694951E-2    8.971880961050267E-2   -1.459209874554603E-2    9.106911628247243E-1   -3.059544732700705E-2
 2.568927789892715E7     9.108238715835890E-1   -3.308349098416820E-2    8.973732566775626E-2   -1.415793544335019E-2    8.964753119886761E-2   -1.446720876998399E-2    9.107579750748843E-1   -3.105869721818801E-2
 2.588528356078789E7     9.107999086692986E-1   -3.371525155045090E-2    8.964429759594787E-2   -1.393127983851074E-2    8.946356860851988E-2   -1.444341768158677E-2    9.108567607509734E-1   -3.147703876501097E-2
 2.608278471892660E7     9.109236634583224E-1   -3.403714685353056E-2    8.959687355730184E-2   -1.389950140042659E-2    8.951604351950981E-2   -1.421058223727266E-2    9.108862326317587E-1   -3.200496976496851E-2
 2.628179278377446E7     9.109964514519820E-1   -3.449209931093337E-2    8.953351475159747E-2   -1.376833909887600E-2    8.944942012369750E-2   -1.408666624263866E-2    9.109428994411648E-1   -3.247715613609025E-2
 2.648231925282269E7     9.109283674663421E-1   -3.544683702242697E-2    8.939716030081758E-2   -1.344198531960709E-2    8.911307353803463E-2   -1.432472016682247E-2    9.110430966868329E-1   -3.285680702807172E-2
 2.668437571128672E7     9.109719433998399E-1   -3.595862109964749E-2    8.933431934055729E-2   -1.331911092783782E-2    8.904612076758002E-2   -1.420094578815428E-2    9.111043421061947E-1   -3.332622585219470E-2
 2.688797383277575E7     9.110204621043339E-1   -3.647087698520887E-2    8.926792384379066E-2   -1.319742714261258E-2    8.897941576632479E-2   -1.407883803041544E-2    9.111245713770028E-1   -3.381974707638324E-2
 2.709312537996687E7     9.111221651967307E-1   -3.667886324308619E-2    8.925202974906160E-2   -1.317875038273308E-2    8.907100795547095E-2   -1.370224301667625E-2    9.111965689414810E-1   -3.433981460273678E-2
 2.729984220528475E7     9.111878676778363E-1   -3.716610778755283E-2    8.918842181969547E-2   -1.305905280737386E-2    8.900496011288027E-2   -1.357989769239244E-2    9.112446801916719E-1   -3.484036551378238E-2
 2.750813625158667E7     9.112581255049050E-1   -3.766767248597610E-2    8.912123911088797E-2   -1.293540113964372E-2    8.894139747021539E-2   -1.345668050833900E-2    9.113003839207707E-1   -3.530785762631971E-2
 2.771801955285188E7     9.113995406923330E-1   -3.929093624958724E-2    8.887328941129660E-2   -1.258410489183124E-2    8.858580068251456E-2   -1.458446634266984E-2    9.113769021294875E-1   -3.575930416807819E-2
 2.792950423487763E7     9.112767333366245E-1   -3.918977162342720E-2    8.891016511121649E-2   -1.254509374096388E-2    8.857488561166656E-2   -1.369333514727020E-2    9.114254014041918E-1   -3.624586241138363E-2
 2.814260251597910E7     9.113299731494635E-1   -3.972814646140051E-2    8.884568863033962E-2   -1.242102564673658E-2    8.850808956845706E-2   -1.357062046426957E-2    9.114766908660675E-1   -3.676009211918160E-2
 2.835732670769557E7     9.113847210243329E-1   -4.025792154354397E-2    8.878318171482662E-2   -1.230305366423089E-2    8.844748232847462E-2   -1.344617128813205E-2    9.115131622764276E-1   -3.725838088327324E-2
 2.857368921550186E7     9.115386777441665E-1   -4.010971401351613E-2    8.883447975059700E-2   -1.242207837583402E-2    8.873625242164591E-2   -1.273324560185842E-2    9.115144149339813E-1   -3.789522052259951E-2
 2.879170253952448E7     9.115888659473202E-1   -4.063398892225396E-2    8.877686034939918E-2   -1.229307971413064E-2    8.866932279756751E-2   -1.261310867061621E-2    9.115319671395563E-1   -3.839590514301387E-2
 2.901137927526460E7     9.116336374079212E-1   -4.116493255694786E-2    8.871665998159380E-2   -1.217305161047744E-2    8.860982934367670E-2   -1.248508840822281E-2    9.115908631146000E-1   -3.890933019290055E-2
 2.923273211432508E7     9.116939332860308E-1   -4.171608812900589E-2    8.865243853552220E-2   -1.205049128070766E-2    8.854831297403197E-2   -1.236605963253896E-2    9.116341512389605E-1   -3.943595592768812E-2
 2.945577384514398E7     9.117164059634988E-1   -4.224634040566479E-2    8.859000709799511E-2   -1.192598565716138E-2    8.848721171707367E-2   -1.223858458089877E-2    9.116703323496085E-1   -3.994818565673049E-2
 2.968051735373363E7     9.117600402221189E-1   -4.281505690084440E-2    8.852855644204348E-2   -1.180338221487977E-2    8.842586318848791E-2   -1.211873594411824E-2    9.117124571192220E-1   -4.047070032352972E-2
 2.990697562442441E7     9.116905726575429E-1   -4.365592791234559E-2    8.842089172572713E-2   -1.154405295547735E-2    8.817740686160147E-2   -1.220840527042596E-2    9.117954875402815E-1   -4.093344305306160E-2
 3.013516174061584E7     9.117661846600826E-1   -4.405049753697297E-2    8.838541616463529E-2   -1.146257610359585E-2    8.819189345249027E-2   -1.198006178955358E-2    9.118365476485879E-1   -4.148116342146632E-2
 3.036508888553168E7     9.117475408495247E-1   -4.473960928329650E-2    8.830142507074039E-2   -1.129453310539467E-2    8.806088367702204E-2   -1.196021150182946E-2    9.118800307851226E-1   -4.195822822419602E-2
 3.059677034298190E7     9.118194285725023E-1   -4.527744980957357E-2    8.824568336919615E-2   -1.117205859770650E-2    8.799803268512416E-2   -1.183982813700638E-2    9.119272153148349E-1   -4.252769790693224E-2
 3.083021949813037E7     9.122185071230764E-1   -4.719625714579112E-2    8.797974164947531E-2   -1.088351709342213E-2    8.791776524237502E-2   -1.344365624379568E-2    9.119622721169791E-1   -4.304291264148891E-2
 3.106544983826748E7     9.122591496521677E-1   -4.776566517066063E-2    8.792749900959355E-2   -1.076359626574783E-2    8.786162205013032E-2   -1.332278456694057E-2    9.120053598626002E-1   -4.356515949545897E-2
 3.130247495359022E7     9.120075850120627E-1   -4.668595116874255E-2    8.812425943827776E-2   -1.093411964879556E-2    8.800901946831165E-2   -1.124885647358051E-2    9.119865177950724E-1   -4.422181489851453E-2
 3.154130853798668E7     9.120377866540442E-1   -4.726182471185932E-2    8.806547442338548E-2   -1.081277249352074E-2    8.795280704399354E-2   -1.112433156975624E-2    9.120006087234596E-1   -4.477144928118802E-2
 3.178196438982744E7     9.120848336839608E-1   -4.782429009046093E-2    8.801188618810867E-2   -1.068709655455595E-2    8.789967913569983E-2   -1.100037901631185E-2    9.120387099319063E-1   -4.531755066410385E-2
 3.202445641276293E7     9.120374184594124E-1   -4.853908698919325E-2    8.792585916060359E-2   -1.047323835974662E-2    8.772493518882414E-2   -1.099067512082794E-2    9.120869455581084E-1   -4.583615579695598E-2
 3.226879861652631E7     9.121435120469545E-1   -4.894231979863903E-2    8.790263156956624E-2   -1.043240100272857E-2    8.778186795081981E-2   -1.075396445191627E-2    9.120950455520622E-1   -4.645996739568346E-2
 3.251500511774320E7     9.121387196708315E-1   -5.083512430679827E-2    8.764493080544113E-2   -1.004124269814835E-2    8.735041774005850E-2   -1.201355608644246E-2    9.121891284015964E-1   -4.689513363199101E-2
 3.276309014074709E7     9.121503084250580E-1   -5.142316130118915E-2    8.758772692665222E-2   -9.915056779147929E-3    8.729386241928823E-2   -1.189036089148502E-2    9.122230276439095E-1   -4.744918968248765E-2
 3.301306801840112E7     9.121772026267663E-1   -5.202735030105148E-2    8.753466177602989E-2   -9.798663250532337E-3    8.723666183961533E-2   -1.177100960228156E-2    9.122402924894188E-1   -4.800943048962061E-2
 3.326495319292643E7     9.122189589847453E-1   -5.261671685632931E-2    8.748444282922430E-2   -9.673461015095130E-3    8.717885434949713E-2   -1.164670111206787E-2    9.122674774493740E-1   -4.860937207977491E-2
 3.351876021673609E7     9.122765122293330E-1   -5.196576993898355E-2    8.763142368558981E-2   -9.813074757041622E-3    8.749181777675874E-2   -1.012951294053033E-2    9.122083549321673E-1   -4.931542085342716E-2
 3.377450375327612E7     9.122892678136353E-1   -5.256054167967535E-2    8.757770725266147E-2   -9.691415017590292E-3    8.743389152201732E-2   -9.993697562922947E-3    9.122242048127389E-1   -4.989016003925045E-2
 3.403219857787284E7     9.121913935019026E-1   -5.343842344629489E-2    8.746719294402751E-2   -9.435342616902051E-3    8.719194352133849E-2   -1.008405317894755E-2    9.123044247374362E-1   -5.038551208868254E-2
 3.429185957858586E7     9.122148518087427E-1   -5.406354335301948E-2    8.741318184162397E-2   -9.314587169380495E-3    8.713246929278229E-2   -9.945807428825249E-3    9.123061715167333E-1   -5.096817699064235E-2
 3.455350175706909E7     9.122226060705405E-1   -5.466335336929822E-2    8.735650870029243E-2   -9.193755874593239E-3    8.708038355420475E-2   -9.808502385526122E-3    9.123324497632174E-1   -5.152035557463828E-2
 3.481714022943672E7     9.122887595764277E-1   -5.627602414840389E-2    8.715935443531145E-2   -8.948480382254733E-3    8.685211496298874E-2   -1.085069889372470E-2    9.123724375925989E-1   -5.210864667536765E-2
 3.508279022713681E7     9.122955336387958E-1   -5.691177278161966E-2    8.709617951804856E-2   -8.825611489574005E-3    8.680136546870944E-2   -1.071281316116448E-2    9.123931781180535E-1   -5.266438256483700E-2
 3.535046709783159E7     9.122863963479213E-1   -5.752129634716482E-2    8.703552532975763E-2   -8.698714074191701E-3    8.675488749756016E-2   -1.057958851559044E-2    9.124134823933626E-1   -5.327884046504751E-2
 3.562018630628331E7     9.122780913140891E-1   -5.815513543461921E-2    8.696679769942543E-2   -8.565334306921402E-3    8.671460332757784E-2   -1.043851989877536E-2    9.124346385462904E-1   -5.388644272070175E-2
 3.589196343524875E7     9.122428311568350E-1   -5.876341743509138E-2    8.689756081933220E-2   -8.417312039719103E-3    8.667987436340253E-2   -1.030725088841954E-2    9.124592613670709E-1   -5.445937455540666E-2
 3.616581418637872E7     9.122646321778493E-1   -5.935677657936612E-2    8.684787317371649E-2   -8.247670999102594E-3    8.664711733989153E-2   -1.017662785471392E-2    9.124918610554745E-1   -5.506980456933536E-2
 3.644175438112541E7     9.122814981752466E-1   -5.999447128944795E-2    8.682280936145316E-2   -8.096021769619786E-3    8.660873689017273E-2   -1.004920338631249E-2    9.125131315964747E-1   -5.570963914370226E-2
 3.671979996165685E7     9.122117817429292E-1   -5.998166868299122E-2    8.688076578369271E-2   -8.003133530786933E-3    8.658885351938815E-2   -9.134522069959447E-3    9.125263557271355E-1   -5.634689164567051E-2
 3.699996699177712E7     9.122398173743590E-1   -6.063677647363090E-2    8.685457912869927E-2   -7.878593706415724E-3    8.654725214416151E-2   -9.006537233796992E-3    9.125291600351774E-1   -5.698904115347510E-2
 3.728227165785540E7     9.122578525408177E-1   -6.131129484655213E-2    8.682092169367299E-2   -7.751850331105190E-3    8.650515320898881E-2   -8.879043509379781E-3    9.125474124572434E-1   -5.760598672525945E-2
 3.756673026976037E7     9.122699211656603E-1   -6.195387990734540E-2    8.678269089105606E-2   -7.630387825462711E-3    8.646311512497226E-2   -8.752707156302173E-3    9.125643910474830E-1   -5.823801145227746E-2
 3.785335926180276E7     9.124716639398325E-1   -6.198160114705334E-2    8.685648899674916E-2   -7.691725716863115E-3    8.675155807585491E-2   -7.998822425853600E-3    9.124907976690448E-1   -5.899485152845616E-2
 3.814217519368506E7     9.124982297924771E-1   -6.265929906220746E-2    8.681374024681043E-2   -7.566126786421337E-3    8.671047886438434E-2   -7.873270971867444E-3    9.125002206863911E-1   -5.963512726385108E-2
 3.843319475145779E7     9.124905712737535E-1   -6.334531035948900E-2    8.677497432327728E-2   -7.437145363803054E-3    8.666715904219824E-2   -7.744130230692251E-3    9.125134185098812E-1   -6.027926159641500E-2
 3.872643474848381E7     9.124921510350212E-1   -6.400766748391121E-2    8.673801770176358E-2   -7.307248943826304E-3    8.662959409301403E-2   -7.613776509183182E-3    9.125130447402368E-1   -6.092745221393486E-2
 3.902191212640966E7     9.125071811511647E-1   -6.468624259247226E-2    8.669549165769012E-2   -7.174478123567445E-3    8.658692874414438E-2   -7.483611352111338E-3    9.125101959843845E-1   -6.158735436605135E-2
 3.931964395614420E7     9.125312594279893E-1   -6.535629150298307E-2    8.665829118036279E-2   -7.048809121657756E-3    8.654625533130343E-2   -7.352693140332673E-3    9.125311597846615E-1   -6.223928554597758E-2
 3.961964743884522E7     9.124298527208796E-1   -6.621908603341388E-2    8.658483415828598E-2   -6.835169319465882E-3    8.639602516951017E-2   -7.342302132705134E-3    9.125778220419319E-1   -6.285879166779741E-2
 3.992193990691278E7     9.124233934970009E-1   -6.690684675357753E-2    8.654202511403131E-2   -6.705733645630694E-3    8.635695534078044E-2   -7.208399484750052E-3    9.125693752868070E-1   -6.349982095387731E-2
 4.022653882499073E7     9.122942595611055E-1   -6.813049515132609E-2    8.642573619911986E-2   -6.481485112246674E-3    8.610481764870284E-2   -7.586447109985955E-3    9.126059810905752E-1   -6.410876374718082E-2
 4.053346179097611E7     9.122624754774279E-1   -6.883707013367411E-2    8.638479803628693E-2   -6.348571399728048E-3    8.606987094793644E-2   -7.459026111981961E-3    9.126035962411432E-1   -6.481558690109795E-2
 4.084272653703488E7     9.122670210133186E-1   -6.952826061866632E-2    8.634714095085233E-2   -6.216497575377811E-3    8.603120612522268E-2   -7.328374303125723E-3    9.125996919046532E-1   -6.548254613420497E-2
 4.115435093062763E7     9.122514013017161E-1   -7.061904184880576E-2    8.626968586922563E-2   -6.065422103661495E-3    8.595218636118665E-2   -7.614586091574490E-3    9.126064038504261E-1   -6.613384947961234E-2
 4.146835297554084E7     9.122380213161624E-1   -7.132739910033402E-2    8.623021967714944E-2   -5.933663214070241E-3    8.591558923737382E-2   -7.484980086828516E-3    9.125942103040613E-1   -6.683767330928218E-2
 4.178475081292742E7     9.124656056992243E-1   -7.278434708286109E-2    8.615642920405830E-2   -5.795719922698817E-3    8.613325368739874E-2   -8.301322618636598E-3    9.125947680403635E-1   -6.751060596416532E-2
 4.210356272235513E7     9.124483297878374E-1   -7.350978642606676E-2    8.611847973558098E-2   -5.666518174396674E-3    8.609991869928074E-2   -8.168109788864479E-3    9.125762883368052E-1   -6.820205348850403E-2
 4.242480712286174E7     9.124370800693143E-1   -7.424398872157160E-2    8.608656386479065E-2   -5.532528161261027E-3    8.606885481189358E-2   -8.041649317760816E-3    9.125643715447094E-1   -6.891942190008823E-2
 4.274850257402029E7     9.124278646479120E-1   -7.499732705088523E-2    8.605423864570566E-2   -5.400115725444493E-3    8.603476335575209E-2   -7.907110970323570E-3    9.125562046192643E-1   -6.962853437304814E-2
 4.307466777701053E7     9.123962043128133E-1   -7.398185864657285E-2    8.621017284566075E-2   -5.449991331198100E-3    8.609756607349510E-2   -5.768309223380146E-3    9.124457706413674E-1   -7.048665880348878E-2
 4.340332157569963E7     9.123694823844238E-1   -7.647135919380432E-2    8.598819143502533E-2   -5.133023853693104E-3    8.597282368537204E-2   -7.630696178897819E-3    9.125256187127194E-1   -7.104152179611326E-2
 4.373448295773120E7     9.123345052307991E-1   -7.721330506749398E-2    8.595326617601499E-2   -4.997262913084867E-3    8.594125929674060E-2   -7.500737796236241E-3    9.125124641483765E-1   -7.174867489755138E-2
 4.406817105562137E7     9.120607224031122E-1   -7.723316744000051E-2    8.595508876180508E-2   -4.860501997274131E-3    8.564729038379271E-2   -6.418443326638646E-3    9.124957399598540E-1   -7.246948644483946E-2
 4.440440514786536E7     9.120339177521949E-1   -7.798496579970153E-2    8.592560873002601E-2   -4.725721308412640E-3    8.561789892116378E-2   -6.282738009486345E-3    9.124711452543679E-1   -7.322237903966611E-2
 4.474320466005030E7     9.120026891432925E-1   -7.877851560146912E-2    8.589362546796242E-2   -4.589273776023324E-3    8.559119484499346E-2   -6.146381286264003E-3    9.124488563732149E-1   -7.395372942669109E-2
 4.508458916597787E7     9.120428950325438E-1   -7.895372402080060E-2    8.592362233294049E-2   -4.501108316129567E-3    8.565711688426435E-2   -5.349272549526662E-3    9.124161340193363E-1   -7.471979570646965E-2
 4.542857838879555E7     9.120130762516577E-1   -7.972005401759259E-2    8.589654685707358E-2   -4.363552583482530E-3    8.562871668608807E-2   -5.210093014926634E-3    9.123865109769833E-1   -7.545320273519637E-2
 4.577519220213508E7     9.119766639868327E-1   -8.051837942994380E-2    8.586848075935732E-2   -4.228432295497812E-3    8.560068975108537E-2   -5.077760911900958E-3    9.123687753561442E-1   -7.619782180081001E-2
 4.612445063126191E7     9.119554982610055E-1   -8.128515960612688E-2    8.583953648643913E-2   -4.091416769607835E-3    8.557354040216189E-2   -4.942490494963889E-3    9.123279492384563E-1   -7.697874792003408E-2
 4.647637385423118E7     9.119170900100770E-1   -8.206860395284810E-2    8.580969929120141E-2   -3.952792937705887E-3    8.554431989400678E-2   -4.799741796663538E-3    9.123070080869545E-1   -7.773009670890961E-2
 4.683098220305377E7     9.118685618578173E-1   -8.287613239213905E-2    8.577848399984868E-2   -3.812782636201305E-3    8.551696918460804E-2   -4.661989621626886E-3    9.122801825183579E-1   -7.849924793744657E-2
 4.718829616487134E7     9.118197186558702E-1   -8.366894666829817E-2    8.574945130989346E-2   -3.677694543852021E-3    8.549124072200520E-2   -4.523821948115511E-3    9.122451617850581E-1   -7.928418242367806E-2
 4.754833638313931E7     9.116752269389472E-1   -8.506187023764450E-2    8.566102725555036E-2   -3.492495659398763E-3    8.537185063143624E-2   -5.043922378322809E-3    9.122310791797018E-1   -8.000461364580250E-2
 4.791112365881994E7     9.116306072177291E-1   -8.586733959415273E-2    8.563113349373123E-2   -3.349376381098863E-3    8.535094602156097E-2   -4.903767782867541E-3    9.121872884989642E-1   -8.077597056509311E-2
 4.827667895158397E7     9.115664387152970E-1   -8.666911636860239E-2    8.560323428844796E-2   -3.208438656041970E-3    8.532717405736615E-2   -4.761247192116743E-3    9.121380778750484E-1   -8.156267327973911E-2
 4.864502338102144E7     9.115227604841616E-1   -8.748940034609208E-2    8.557564198721310E-2   -3.061621670535964E-3    8.530556379045924E-2   -4.621962704288047E-3    9.121032317558978E-1   -8.234379757841842E-2
 4.901617822786229E7     9.114561667329817E-1   -8.830331308417098E-2    8.555341944382014E-2   -2.913365705345610E-3    8.528511828991467E-2   -4.477495520393388E-3    9.120637959887135E-1   -8.311375829384568E-2
 4.939016493520518E7     9.114158369508452E-1   -8.914755563016177E-2    8.553038403200253E-2   -2.772789730740931E-3    8.526512321829841E-2   -4.337593015421790E-3    9.120284684356655E-1   -8.392898733674221E-2
 4.976700510975666E7     9.113617032800263E-1   -8.997718609804585E-2    8.550967684831784E-2   -2.628635835943927E-3    8.524513276166804E-2   -4.193274745717819E-3    9.119812582327150E-1   -8.473104865105921E-2
 5.014672052307993E7     9.113192945903434E-1   -9.083221858309723E-2    8.548449169408068E-2   -2.483856856376570E-3    8.522815409092810E-2   -4.049111959644695E-3    9.119384583440000E-1   -8.552477277070249E-2
 5.052933311285146E7     9.112641195503918E-1   -9.167667034942560E-2    8.546685254894347E-2   -2.336668778453905E-3    8.520752692762952E-2   -3.910704671866201E-3    9.118879073653418E-1   -8.633180900195395E-2
 5.091486498412994E7     9.111944303397438E-1   -9.250064832712400E-2    8.544900401929646E-2   -2.187045802011877E-3    8.519170233690153E-2   -3.765470494830659E-3    9.118354990787535E-1   -8.715505759533997E-2
 5.130333841063219E7     9.111416863266510E-1   -9.336371478611841E-2    8.543450239322856E-2   -2.038688973468140E-3    8.518256624241029E-2   -3.627784843179159E-3    9.117912582052777E-1   -8.799258616113212E-2
 5.169477583602042E7     9.110856883588431E-1   -9.423707259465662E-2    8.541942089034296E-2   -1.894479730235188E-3    8.517033739826263E-2   -3.483261513742637E-3    9.117444292513845E-1   -8.883433670127047E-2
 5.208919987519933E7     9.110366070499024E-1   -9.510943551070562E-2    8.540523319287469E-2   -1.749408158512105E-3    8.515884415899284E-2   -3.342495095386182E-3    9.116869432677036E-1   -8.966204168033517E-2
 5.248663331562151E7     9.109509100630521E-1   -9.597724870263315E-2    8.538945969001227E-2   -1.602535151470936E-3    8.514516857727833E-2   -3.197361538803037E-3    9.116237053982473E-1   -9.048806358623035E-2
 5.288709911860541E7     9.108939524578564E-1   -9.686841088587027E-2    8.537562120069689E-2   -1.455308627696946E-3    8.512782324248180E-2   -3.054998940699671E-3    9.115592312450098E-1   -9.133795829669326E-2
 5.329062042066076E7     9.108242007399463E-1   -9.774086299413508E-2    8.536007311875668E-2   -1.310195093771828E-3    8.512033920255348E-2   -2.910945999230972E-3    9.115038331344170E-1   -9.216200143411228E-2
 5.369722053482568E7     9.107475408904789E-1   -9.864632629450494E-2    8.534754997610969E-2   -1.164352266720052E-3    8.510923870050935E-2   -2.764508330985678E-3    9.114399761433485E-1   -9.303989905947481E-2
 5.410692295201402E7     9.106543782433670E-1   -9.954320045137197E-2    8.533173686581474E-2   -1.018461208494331E-3    8.509646369151301E-2   -2.619211972283134E-3    9.113826609729690E-1   -9.389076648525460E-2
 5.451975134237129E7     9.105836651180708E-1   -1.004596471338268E-1    8.531886134944845E-2   -8.721983647762257E-4    8.508582008912140E-2   -2.472404113104574E-3    9.113042923134972E-1   -9.475830842831839E-2
 5.493572955664375E7     9.104918736819998E-1   -1.013656640134484E-1    8.530258929207714E-2   -7.236058872436857E-4    8.507602137851782E-2   -2.328996018433711E-3    9.112434136355883E-1   -9.564344215887999E-2
 5.535488162755510E7     9.104305493682793E-1   -1.022763640506780E-1    8.529362595827816E-2   -5.736674829528983E-4    8.507051374032341E-2   -2.182655420827797E-3    9.111873586467981E-1   -9.651685007685515E-2
 5.577723177119546E7     9.103420716392713E-1   -1.032044999686732E-1    8.528297886674810E-2   -4.210975156615598E-4    8.506209042138768E-2   -2.038089062691684E-3    9.110968092310506E-1   -9.741485946831686E-2
 5.620280438842070E7     9.102406018601690E-1   -1.041205091680544E-1    8.527375263438124E-2   -2.708490632892465E-4    8.505565005622140E-2   -1.890441725334928E-3    9.110216705211172E-1   -9.830243619713108E-2
 5.663162406626155E7     9.101684964592499E-1   -1.050501514981575E-1    8.526433748533598E-2   -1.189787949046320E-4    8.504976157204111E-2   -1.744064656570789E-3    9.109397995214552E-1   -9.922939665486566E-2
 5.706371557934452E7     9.100512911254552E-1   -1.059923439294246E-1    8.525401393268035E-2    3.271712988030430E-5    8.504760300464201E-2   -1.595945585065618E-3    9.108734968992799E-1   -1.001179558737514E-1
 5.749910389132310E7     9.099731393259323E-1   -1.069537076814569E-1    8.524741190842326E-2    1.838501230425159E-4    8.504308609753011E-2   -1.447866141511926E-3    9.107936211161630E-1   -1.010397401404467E-1
 5.793781415631992E7     9.098858845279797E-1   -1.079195316618514E-1    8.524092287704264E-2    3.375601116764435E-4    8.503803597234814E-2   -1.300522703743155E-3    9.106885899127771E-1   -1.019322407549632E-1
 5.837987172038046E7     9.102376292699708E-1   -1.077614089580642E-1    8.537394174083701E-2    2.770070593342181E-4    8.531665404797474E-2   -6.529509056816933E-5    9.105065927396421E-1   -1.030157576419849E-1
 5.882530212293670E7     9.101191683552652E-1   -1.087777337413443E-1    8.536420426482022E-2    4.234329491289700E-4    8.531263507907431E-2    8.609430369853691E-5    9.103980814400832E-1   -1.039327887958285E-1
 5.927413109828297E7     9.100210774670687E-1   -1.097044740730127E-1    8.536104147079010E-2    5.785719224311374E-4    8.530998864117556E-2    2.362402612085613E-4    9.103072935476354E-1   -1.048601014147468E-1
 5.972638457706322E7     9.099174956008514E-1   -1.106672611407085E-1    8.535703854116765E-2    7.291404379504323E-4    8.530856372156186E-2    3.919857776306984E-4    9.102324588510152E-1   -1.058159162096088E-1
 6.018208868776779E7     9.098404096756557E-1   -1.116461941613109E-1    8.535405631956668E-2    8.864839598777335E-4    8.531242765356313E-2    5.451104119653671E-4    9.101443216807422E-1   -1.067643438327194E-1
 6.064126975824468E7     9.097222674999529E-1   -1.126367815445803E-1    8.535403689671510E-2    1.040107050063449E-3    8.531118180718553E-2    6.968632065157054E-4    9.100420508897916E-1   -1.077183013607875E-1
 6.110395431721926E7     9.096097122541399E-1   -1.136212521369450E-1    8.535571972956511E-2    1.197152835823762E-3    8.531321686004861E-2    8.513537631048744E-4    9.099302495884044E-1   -1.086601163462273E-1
 6.157016909582742E7     9.094908905237111E-1   -1.146322779121848E-1    8.535347010066274E-2    1.351514496797591E-3    8.531546237066261E-2    1.004378899115710E-3    9.098322244273274E-1   -1.096242609498828E-1
 6.203994102916045E7     9.093700498362485E-1   -1.156264313909029E-1    8.535329158199119E-2    1.504183761404244E-3    8.531852297694480E-2    1.158335996522310E-3    9.097228469790831E-1   -1.106072213743444E-1
 6.251329725781982E7     9.092420487339905E-1   -1.166163669561201E-1    8.535451679385656E-2    1.660082700321310E-3    8.532364496900055E-2    1.316819510391752E-3    9.096123920316085E-1   -1.115888882630186E-1
 6.299026512948693E7     9.091309478083869E-1   -1.176817992094672E-1    8.535593251386586E-2    1.814227869420344E-3    8.533178357377300E-2    1.471425829772088E-3    9.095258618295330E-1   -1.125676382043219E-1
 6.347087220050172E7     9.089974837969910E-1   -1.186879655720023E-1    8.535729028065613E-2    1.968690825523198E-3    8.533686443900616E-2    1.623444856096494E-3    9.094046915456202E-1   -1.135551354835548E-1
 6.395514623745525E7     9.088737041775690E-1   -1.197330678177566E-1    8.536279326658983E-2    2.129445845847894E-3    8.534019557795333E-2    1.778194442444984E-3    9.092745089433171E-1   -1.145656558565908E-1
 6.444311521879433E7     9.087600113968051E-1   -1.207860179015340E-1    8.536632944200440E-2    2.292319795809507E-3    8.534480214528038E-2    1.939401456594422E-3    9.091658577890305E-1   -1.155713585521959E-1
 6.493480733643661E7     9.085922187680575E-1   -1.218268967686591E-1    8.537007108794191E-2    2.445254162870561E-3    8.534998010876273E-2    2.096490583211178E-3    9.090185398334464E-1   -1.165893401939019E-1
 6.543025099740107E7     9.084715290455664E-1   -1.228791927365906E-1    8.537584062045527E-2    2.602422113417378E-3    8.535700891553011E-2    2.254035133288024E-3    9.088992020216812E-1   -1.176108617196273E-1
 6.592947482544785E7     9.079784365787548E-1   -1.260104915424669E-1    8.516121399382694E-2    3.176808550657259E-3    8.542184393553634E-2    4.705693437211593E-4    9.088591208961220E-1   -1.184933843989930E-1
 6.643250766273243E7     9.078557758219981E-1   -1.271142008503077E-1    8.517274432674224E-2    3.340025341287900E-3    8.545033592997356E-2    6.084774731870335E-4    9.087607561043635E-1   -1.195345988833847E-1
 6.693937857147253E7     9.077356000344373E-1   -1.281784553367022E-1    8.517907970711869E-2    3.502145202036711E-3    8.546827242641537E-2    7.687208709780081E-4    9.086418019998083E-1   -1.205424657282734E-1
 6.745011683562562E7     9.075668802812963E-1   -1.293234383615594E-1    8.517738244408220E-2    3.673988099159743E-3    8.548529068560018E-2    9.211886354306672E-4    9.084973643415341E-1   -1.215948347283410E-1
 6.796475196258274E7     9.074261732130801E-1   -1.303615133027669E-1    8.518076828630311E-2    3.851109845682241E-3    8.550601822209927E-2    1.095598449043702E-3    9.083818210021883E-1   -1.226347194222818E-1
 6.848331368487169E7     9.072918642870621E-1   -1.314103572444141E-1    8.519447709770443E-2    4.038425131709571E-3    8.553159110159114E-2    1.279769649258835E-3    9.082482800756879E-1   -1.236425597310200E-1
 6.900583196187538E7     9.069650486344968E-1   -1.315285035775306E-1    8.529099536637608E-2    4.105288622150552E-3    8.520181824706442E-2    2.364481790755124E-3    9.081149455248460E-1   -1.246837156082184E-1
 6.953233698156311E7     9.068180713192351E-1   -1.326175076688881E-1    8.531593386381302E-2    4.291017843544495E-3    8.522367051048683E-2    2.516584834896260E-3    9.079220107570198E-1   -1.258940726142126E-1
 7.006285916223384E7     9.066431766199281E-1   -1.337680357622048E-1    8.533476148938594E-2    4.480092599414167E-3    8.524132521541719E-2    2.634731716633055E-3    9.077361833714576E-1   -1.270978225677649E-1
 7.059742915427396E7     9.064577960894838E-1   -1.350535648456550E-1    8.535863869955002E-2    4.651308097813389E-3    8.526738419694500E-2    2.782244887014109E-3    9.076051393413574E-1   -1.281124349783656E-1
 7.113607784192866E7     9.062857095001249E-1   -1.361884012584458E-1    8.537998460263352E-2    4.808038054311126E-3    8.529696239908396E-2    2.963239561298503E-3    9.074890734669514E-1   -1.291835728107833E-1
 7.167883634508467E7     9.061457637014116E-1   -1.372713915582955E-1    8.540412410590971E-2    4.970268076206668E-3    8.532633720356335E-2    3.142011553776408E-3    9.073339547152974E-1   -1.302401908536635E-1
 7.222573602107021E7     9.060006711360756E-1   -1.384149738931954E-1    8.542974135512858E-2    5.132702882393613E-3    8.535423971667913E-2    3.320493311291746E-3    9.071827268122992E-1   -1.313197452154092E-1
 7.277680846646504E7     9.058082580470839E-1   -1.395088317986351E-1    8.544671578585029E-2    5.302171912225005E-3    8.537505792606193E-2    3.502921701634509E-3    9.070161231236877E-1   -1.324335314177008E-1
 7.333208551892644E7     9.056553766347630E-1   -1.406510346372648E-1    8.546602228938049E-2    5.491992575557575E-3    8.539358255601109E-2    3.655740400795318E-3    9.067810014939723E-1   -1.337515012245500E-1
 7.389159925902925E7     9.054313232483095E-1   -1.418904552397293E-1    8.548385740831016E-2    5.692703244269866E-3    8.541707850390229E-2    3.797096551242336E-3    9.065982833170106E-1   -1.349221701617432E-1
 7.445538201211768E7     9.052332900501815E-1   -1.432202257340254E-1    8.551327618731978E-2    5.873789786708775E-3    8.544852281357555E-2    3.963350382354033E-3    9.064336986478009E-1   -1.359722429940254E-1
 7.502346635017487E7     9.050561305428987E-1   -1.444036327517025E-1    8.554333393678934E-2    6.034462032361543E-3    8.548317678110953E-2    4.163215545047790E-3    9.062548456424842E-1   -1.370755443424846E-1
 7.559588509370317E7     9.048670190318594E-1   -1.455405050329859E-1    8.557461103539135E-2    6.206873032609850E-3    8.552529697681262E-2    4.354482732748464E-3    9.060979299079760E-1   -1.382148668697741E-1
 7.617267131362079E7     9.047153836640629E-1   -1.467234943798149E-1    8.560898696225593E-2    6.374716351399988E-3    8.555970555739487E-2    4.546355409654335E-3    9.059411876601298E-1   -1.393575976173782E-1
 7.675385833317320E7     9.045116003005705E-1   -1.479065057483512E-1    8.563443482200835E-2    6.555682503373050E-3    8.559479925246602E-2    4.739753260201342E-3    9.057339982540163E-1   -1.405472035321624E-1
 7.733947972985649E7     9.043024329799426E-1   -1.491238326677225E-1    8.566129851873827E-2    6.752474828551039E-3    8.563335303494397E-2    4.896239608150809E-3    9.055093770296532E-1   -1.418378368151172E-1
 7.792956933735959E7     9.040685040316050E-1   -1.504228067393804E-1    8.568988659295641E-2    6.954663075995527E-3    8.567824520450448E-2    5.046386731031733E-3    9.053208303887212E-1   -1.430536733232551E-1
 7.852416124751715E7     9.038507035986385E-1   -1.517589683843609E-1    8.572303054298964E-2    7.135577425079207E-3    8.572521717300276E-2    5.221783784504152E-3    9.051289461585184E-1   -1.441770406447338E-1
 7.912328981227988E7     9.036320603946449E-1   -1.529270643197528E-1    8.576000522099977E-2    7.317449873725038E-3    8.577010535271488E-2    5.420842535782805E-3    9.049338133632506E-1   -1.453773072765465E-1
 7.972698964569975E7     9.034214325218738E-1   -1.541351579862537E-1    8.579419319400834E-2    7.501840236020086E-3    8.581495029151194E-2    5.617232398965854E-3    9.047286886801881E-1   -1.466014324820223E-1
 8.033529562592810E7     9.032230173632382E-1   -1.553891123775874E-1    8.583245770663299E-2    7.697412857015794E-3    8.586971056367598E-2    5.799887704296766E-3    9.045183316430628E-1   -1.478274188155139E-1
 8.094824289723292E7     9.030207042634371E-1   -1.566852049440457E-1    8.588125131224468E-2    7.890767242635991E-3    8.592942741659654E-2    5.979255834242617E-3    9.042824567770490E-1   -1.490445655629106E-1
 8.156586687202743E7     9.027642604553824E-1   -1.579632506448727E-1    8.592492118163038E-2    8.083911735043811E-3    8.598632653888884E-2    6.164826142187971E-3    9.041040974213548E-1   -1.503006366552413E-1
 8.218820323291673E7     9.024986166545242E-1   -1.592887112564372E-1    8.597297007099602E-2    8.273252923099144E-3    8.604850832133254E-2    6.356963708689106E-3    9.038862657096381E-1   -1.515539627651123E-1
 8.281528793475981E7     9.022937709471277E-1   -1.605455612195594E-1    8.603408942088749E-2    8.464512394144842E-3    8.610807248889868E-2    6.548277795030282E-3    9.036532761544441E-1   -1.528107508455928E-1
 8.344715720674579E7     9.021185698367142E-1   -1.618610972830191E-1    8.609249699670218E-2    8.652144492848186E-3    8.617405083345164E-2    6.729986616000502E-3    9.034342032637784E-1   -1.540943308580651E-1
 8.408384755448765E7     9.018744374309984E-1   -1.631666126326150E-1    8.614790154471154E-2    8.836560717114568E-3    8.623334717092521E-2    6.920785274087232E-3    9.032274869953529E-1   -1.553854690178608E-1
 8.472539576213124E7     9.016254572467094E-1   -1.644948994736436E-1    8.619785317679329E-2    9.026379852077701E-3    8.629417953140113E-2    7.116809615992536E-3    9.029961445768278E-1   -1.566795867074756E-1
 8.537183889448020E7     9.013626368281910E-1   -1.658099213572413E-1    8.624683482424808E-2    9.225789905043472E-3    8.636441139452404E-2    7.316429130230452E-3    9.027440338782108E-1   -1.579560551321178E-1
 8.602321429913802E7     9.011167145637606E-1   -1.671471964957714E-1    8.630885744099966E-2    9.429044831818644E-3    8.644625294031309E-2    7.507070574144837E-3    9.025376820991248E-1   -1.592812848513988E-1
 8.667955960866481E7     9.008472825562895E-1   -1.684699376287961E-1    8.637392103801722E-2    9.626971562155513E-3    8.652425485994317E-2    7.699749007382324E-3    9.023165875813965E-1   -1.606017876713260E-1
 8.734091274275188E7     9.006080491287808E-1   -1.698363150477988E-1    8.643487396965026E-2    9.825944086368372E-3    8.660063542445989E-2    7.895460575851105E-3    9.020699187143654E-1   -1.619208368635784E-1
 8.800731191041334E7     9.003340497946830E-1   -1.711913962052463E-1    8.650041349681113E-2    1.003139907619660E-2    8.668451749370543E-2    8.091797911895451E-3    9.018241794398835E-1   -1.632544375875332E-1
 8.867879561219153E7     9.000656683550955E-1   -1.725495488223084E-1    8.656939062421959E-2    1.024365598194388E-2    8.677232501571056E-2    8.288671009181032E-3    9.016000217634136E-1   -1.646048550206601E-1
 8.935540264238395E7     8.998457117257840E-1   -1.739418999126720E-1    8.666187484190518E-2    1.045346373797861E-2    8.686393460897721E-2    8.478455716790644E-3    9.013533810689275E-1   -1.659636705381366E-1
 9.003717209128250E7     8.995384765218155E-1   -1.752933944632990E-1    8.673004966738793E-2    1.065786017031594E-2    8.693119059132587E-2    8.682919919944510E-3    9.010766121653089E-1   -1.673051804192986E-1
 9.072414334743266E7     8.992659135152243E-1   -1.766938889636499E-1    8.682436970393141E-2    1.085423254629896E-2    8.702657679882213E-2    8.869332788643490E-3    9.008208476089845E-1   -1.686850754972740E-1
 9.141635609990983E7     8.989697898387655E-1   -1.781145257711797E-1    8.691144424480950E-2    1.104923335659488E-2    8.712198711415499E-2    9.055735578314133E-3    9.005653950241916E-1   -1.700925799594469E-1
 9.211385034061028E7     8.987119777154271E-1   -1.795345447214833E-1    8.700721443165901E-2    1.124814204476431E-2    8.721797940751667E-2    9.243738464178305E-3    9.002995006071651E-1   -1.714855495407822E-1
 9.281666636656430E7     8.984273211829742E-1   -1.809573419010823E-1    8.711183039238810E-2    1.143956850612716E-2    8.731758513511025E-2    9.432541938449343E-3    9.000284611528034E-1   -1.729003982248363E-1
 9.352484478226222E7     8.981563247649191E-1   -1.824290640661712E-1    8.721135525537811E-2    1.162191724943842E-2    8.740985988261421E-2    9.620018541111806E-3    8.997356726065593E-1   -1.743109117945429E-1
 9.423842650200106E7     8.978719460456502E-1   -1.839066620401743E-1    8.730713224526850E-2    1.180452034244590E-2    8.750466410568139E-2    9.806152129479960E-3    8.994521579405280E-1   -1.757366766245258E-1
 9.495745275224906E7     8.975662809630983E-1   -1.853751707873648E-1    8.739820173615533E-2    1.198370881717880E-2    8.760541969252138E-2    9.988064211879479E-3    8.991700094799180E-1   -1.771903400153183E-1
 9.568196507402541E7     8.972199236949921E-1   -1.868667591724819E-1    8.749190973769366E-2    1.216699373984173E-2    8.769854605306950E-2    1.017382097749896E-2    8.988411280605020E-1   -1.786243147682075E-1
 9.641200532530291E7     8.968870867612883E-1   -1.883708820815545E-1    8.758601683880328E-2    1.235162034333552E-2    8.779370511856532E-2    1.036202317565785E-2    8.985435814495980E-1   -1.800828763896522E-1
 9.714761568342420E7     8.965708553577280E-1   -1.898777942845516E-1    8.767823784862476E-2    1.253969416120223E-2    8.788991582660467E-2    1.055513219472115E-2    8.982097314269960E-1   -1.815387557316411E-1
 9.788883864753923E7     8.961975499477376E-1   -1.913944583673500E-1    8.777263936945598E-2    1.272771113575057E-2    8.798893971311605E-2    1.074742760260048E-2    8.978664679884509E-1   -1.829987415036121E-1
 9.863571704106140E7     8.958490523378102E-1   -1.929333785784592E-1    8.786824214590126E-2    1.291917941042488E-2    8.808840808086860E-2    1.093927164539920E-2    8.975513965230535E-1   -1.844892122615153E-1
 9.938829401413949E7     8.954759991576717E-1   -1.944511670898297E-1    8.796084676845868E-2    1.311453258783756E-2    8.818798532383212E-2    1.113837706732933E-2    8.971966466271911E-1   -1.859834948278108E-1
 1.001466130461536E8     8.951087538611622E-1   -1.960063301068954E-1    8.806328229455897E-2    1.331370542681320E-2    8.829656209016364E-2    1.133850181412619E-2    8.968471065773163E-1   -1.874900554040052E-1
 1.009107179482240E8     8.947025102080628E-1   -1.975439620846459E-1    8.816421467177021E-2    1.351407947508258E-2    8.841046329015968E-2    1.153910265774099E-2    8.964990047356753E-1   -1.889949392153246E-1
 1.016806528657447E8     8.942867821741844E-1   -1.990924545663548E-1    8.827918820351820E-2    1.371463098825191E-2    8.852747133378464E-2    1.173426663782496E-2    8.961641778275524E-1   -1.905011804971344E-1
 1.024564622809335E8     8.938777960290161E-1   -2.006586343050336E-1    8.839570425817585E-2    1.391109250074979E-2    8.863984699309137E-2    1.192658944101043E-2    8.958063964175995E-1   -1.920435344454661E-1
 1.032381910153997E8     8.934801409936983E-1   -2.022311819616553E-1    8.851186816789036E-2    1.410718073693109E-2    8.875260234792839E-2    1.212406076207488E-2    8.954355781015305E-1   -1.935722103597571E-1
 1.040258842327368E8     8.930838856683548E-1   -2.038240992148363E-1    8.863622871796890E-2    1.429402881813486E-2    8.887397515230895E-2    1.231470814973470E-2    8.950840027838499E-1   -1.951103951388437E-1
 1.048195874411304E8     8.926488340784977E-1   -2.054204036707037E-1    8.874745420510566E-2    1.448007517725173E-2    8.898936879027544E-2    1.250245083868140E-2    8.947177139238001E-1   -1.966700866895188E-1
 1.056193464959857E8     8.922235528903026E-1   -2.070011393525698E-1    8.885578188930593E-2    1.466785622714062E-2    8.909436063032249E-2    1.269599025699318E-2    8.943597270165085E-1   -1.982657112869610E-1
 1.064252076025801E8     8.918073124602035E-1   -2.086282927280789E-1    8.895892698079716E-2    1.486780110859134E-2    8.919964131139255E-2    1.289601655203758E-2    8.939944118525266E-1   -1.998822163597497E-1
 1.072372173187304E8     8.913344214930996E-1   -2.102351888461423E-1    8.907223586791246E-2    1.507822920533932E-2    8.931585524002450E-2    1.310713927345625E-2    8.935674314210708E-1   -2.015057061593058E-1
 1.080554225574824E8     8.908548142244227E-1   -2.118836153963402E-1    8.919011371686661E-2    1.528237683291448E-2    8.943246764250883E-2    1.331590555440719E-2    8.931918913880645E-1   -2.031337548186951E-1
 1.088798705898232E8     8.903950848313219E-1   -2.134934957525142E-1    8.931455332835746E-2    1.549589001267768E-2    8.955384171116752E-2    1.352482893127654E-2    8.927876221902765E-1   -2.047687679425503E-1
 1.097106090474096E8     8.899317538929573E-1   -2.151218094716158E-1    8.944821671277450E-2    1.570709265371189E-2    8.967411992212410E-2    1.374302497740286E-2    8.923415314509753E-1   -2.064342234374985E-1
 1.105476859253232E8     8.894973396729901E-1   -2.167726529104670E-1    8.958687984479513E-2    1.590877240007321E-2    8.980486364759099E-2    1.395172359440422E-2    8.919115121543901E-1   -2.080729734212518E-1
 1.113911495848395E8     8.890908977758322E-1   -2.184519619691577E-1    8.971935364695935E-2    1.611843859199995E-2    8.993185508970573E-2    1.416691694910485E-2    8.914711377174217E-1   -2.097591355847160E-1
 1.122410487562254E8     8.886659070781862E-1   -2.201980936789480E-1    8.985965725801869E-2    1.633713485039115E-2    9.006326377745721E-2    1.438668749132044E-2    8.910197710495744E-1   -2.114535406119978E-1
 1.130974325415529E8     8.882153847506375E-1   -2.219704880413871E-1    9.001001735038315E-2    1.655310654567223E-2    9.020560892725396E-2    1.460898490886642E-2    8.905727025684279E-1   -2.131399967443733E-1
 1.139603504175348E8     8.877443096444899E-1   -2.237552511947404E-1    9.016366501360902E-2    1.676339707317950E-2    9.035579943028527E-2    1.482488289226931E-2    8.901364322900739E-1   -2.148178880460501E-1
 1.148298522383858E8     8.872213677917261E-1   -2.255356063280214E-1    9.031728814852878E-2    1.697360808215531E-2    9.049702336291621E-2    1.504010334458141E-2    8.896929607735361E-1   -2.165340887121076E-1
 1.157059882387014E8     8.867232394429847E-1   -2.273409664825220E-1    9.047210741524807E-2    1.718690876561838E-2    9.063729802291297E-2    1.525904703250101E-2    8.892056027025965E-1   -2.182743962468594E-1
 1.165888090363587E8     8.861806113225323E-1   -2.291561339125553E-1    9.062938047224914E-2    1.739459276728934E-2    9.077338939724741E-2    1.548345100267806E-2    8.887332658179339E-1   -2.200380626892759E-1
 1.174783656354443E8     8.856369291198289E-1   -2.309830852457133E-1    9.077986614999194E-2    1.760135837481605E-2    9.090584411412059E-2    1.571695606379173E-2    8.882509976464726E-1   -2.218266220354090E-1
 1.183747094291968E8     8.850905256064584E-1   -2.328087068442885E-1    9.092437589247646E-2    1.782110370453106E-2    9.104947298930259E-2    1.597102738440238E-2    8.877700465278456E-1   -2.236448859038781E-1
 1.192778922029803E8     8.845485924416495E-1   -2.346776463325013E-1    9.108502485463336E-2    1.806451694027533E-2    9.121674966737955E-2    1.623193976112563E-2    8.872551047875270E-1   -2.254759712917509E-1
 1.201879661372721E8     8.839760810748373E-1   -2.365748759738029E-1    9.127040140065641E-2    1.829233147410585E-2    9.140525895080309E-2    1.648164644209518E-2    8.867151080576705E-1   -2.273029190231082E-1
 1.211049838106809E8     8.834123505682515E-1   -2.384595691449272E-1    9.145159534303919E-2    1.850432756450059E-2    9.159675265565528E-2    1.670914498984769E-2    8.861816774341998E-1   -2.291128637336902E-1
 1.220289982029829E8     8.828831957713508E-1   -2.403832124040593E-1    9.161428428553312E-2    1.872612392301139E-2    9.177589325373706E-2    1.694443708542654E-2    8.856513054683822E-1   -2.309552119057978E-1
 1.229600626981811E8     8.823038520452769E-1   -2.423594962456022E-1    9.178948612031163E-2    1.896610276621196E-2    9.196253146893674E-2    1.718144771485695E-2    8.850937459951203E-1   -2.328168431082106E-1
 1.238982310875929E8     8.816911893265477E-1   -2.443655929699857E-1    9.198173325158532E-2    1.921063517095101E-2    9.215742200166008E-2    1.741937736224819E-2    8.845274989553620E-1   -2.346947055011396E-1
 1.248435575729559E8     8.810342588089385E-1   -2.463596858513732E-1    9.218830006406936E-2    1.943780852000416E-2    9.235517816830341E-2    1.765118564927193E-2    8.839277686407275E-1   -2.365587377450184E-1
 1.257960967695579E8     8.803754432014672E-1   -2.483489585653856E-1    9.236986522226638E-2    1.965316490132313E-2    9.252706007423413E-2    1.788895254743207E-2    8.833529788894854E-1   -2.384137836789163E-1
 1.267559037093956E8     8.797231149304161E-1   -2.503708208178914E-1    9.254391695083761E-2    1.988105127361560E-2    9.270981164401502E-2    1.812440454395220E-2    8.828020706428243E-1   -2.403209731212343E-1
 1.277230338443520E8     8.790413168713466E-1   -2.524232517731770E-1    9.273506297244245E-2    2.014249023161118E-2    9.290871503165662E-2    1.838473727196977E-2    8.822385938534165E-1   -2.422743644964968E-1
 1.286975430493991E8     8.783432831646524E-1   -2.544823229230973E-1    9.295601171558023E-2    2.039866295898261E-2    9.312800668377301E-2    1.864183545915292E-2    8.816142625931781E-1   -2.442378119227323E-1
 1.296794876258291E8     8.776211876923277E-1   -2.565248014418393E-1    9.318056635717951E-2    2.063305113053738E-2    9.335178279390395E-2    1.888725844516482E-2    8.809792524527458E-1   -2.461928598375154E-1
 1.306689243045034E8     8.769105386321771E-1   -2.585640275603602E-1    9.339820560858614E-2    2.087561427309926E-2    9.357531464581335E-2    1.913224496330715E-2    8.803429840122132E-1   -2.481505138210902E-1
 1.316659102491341E8     8.761938544655716E-1   -2.606263454745342E-1    9.362446835606396E-2    2.112169257629668E-2    9.380686409152907E-2    1.937580270565169E-2    8.797009906804399E-1   -2.501282291461338E-1
 1.326705030595824E8     8.754859567600740E-1   -2.626982921078547E-1    9.385449263340775E-2    2.137182493884538E-2    9.404148735051246E-2    1.962156245004942E-2    8.790305136423029E-1   -2.521010358847226E-1
 1.336827607751903E8     8.747697914757934E-1   -2.647975055846413E-1    9.409970813353789E-2    2.162048637368320E-2    9.428572335871135E-2    1.986071307436478E-2    8.783746055080890E-1   -2.540847266314130E-1
 1.347027418781318E8     8.740506594348999E-1   -2.669202640270008E-1    9.434716692886728E-2    2.185778137351696E-2    9.452399732584622E-2    2.009755724187439E-2    8.777268746380575E-1   -2.560872330476943E-1
 1.357305052967905E8     8.733202042083281E-1   -2.690645515144321E-1    9.459261331810818E-2    2.208853181032653E-2    9.475507942690350E-2    2.033495768871356E-2    8.770457195013457E-1   -2.581049027940124E-1
 1.367661104091667E8     8.725701289644407E-1   -2.712215617502114E-1    9.482224695591951E-2    2.232252135835454E-2    9.499456530535991E-2    2.058786127841518E-2    8.763501217398876E-1   -2.601350392009915E-1
 1.378096170463071E8     8.718003937968815E-1   -2.734187210899572E-1    9.505932374161445E-2    2.256480214238759E-2    9.524014584160954E-2    2.083671804805149E-2    8.756536764098910E-1   -2.621762078033122E-1
 1.388610854957592E8     8.710099451805542E-1   -2.756277516458765E-1    9.529823148853654E-2    2.281278269406185E-2    9.549027202746427E-2    2.109181543760336E-2    8.749707533714490E-1   -2.642179401509862E-1
 1.399205765050585E8     8.701922293703919E-1   -2.778266047739008E-1    9.553048346499542E-2    2.307430282674777E-2    9.574114500432142E-2    2.135315211940126E-2    8.742849895877997E-1   -2.662963418822397E-1
 1.409881512852336E8     8.693829883236305E-1   -2.800601909157509E-1    9.578048846780680E-2    2.334406210405019E-2    9.601406969167185E-2    2.161625139403486E-2    8.735525346441521E-1   -2.684290236608632E-1
 1.420638715143470E8     8.685522754165829E-1   -2.822818908638286E-1    9.603706974603637E-2    2.362154469406333E-2    9.629010162109831E-2    2.187911547664491E-2    8.728129331277631E-1   -2.705477595589560E-1
 1.431477993410541E8     8.677039913205152E-1   -2.845288280302574E-1    9.630616233202807E-2    2.390349596601533E-2    9.657231810243828E-2    2.214489844849907E-2    8.720529772925562E-1   -2.726718909057692E-1
 1.442399973881980E8     8.668427686968757E-1   -2.867904371937633E-1    9.659060336896874E-2    2.418664143342081E-2    9.686589530186084E-2    2.240585234541225E-2    8.712608580154728E-1   -2.748404342981970E-1
 1.453405287564251E8     8.659461161617582E-1   -2.890647816939541E-1    9.689007278208721E-2    2.446521710552146E-2    9.716713891362255E-2    2.266385771530686E-2    8.704377103100339E-1   -2.769859340610750E-1
 1.464494570278296E8     8.650529321560222E-1   -2.913396787549516E-1    9.719621668894492E-2    2.473412582414777E-2    9.746543175126797E-2    2.291892085848899E-2    8.696233387484419E-1   -2.791094556315663E-1
 1.475668462696298E8     8.641395644402209E-1   -2.936179080551559E-1    9.750009770878634E-2    2.500046141546318E-2    9.776728953440585E-2    2.317660870919794E-2    8.687964880491674E-1   -2.812668448724306E-1
 1.486927610378684E8     8.632032340233603E-1   -2.959122188079213E-1    9.781272500880349E-2    2.525783923822714E-2    9.807603762529532E-2    2.342868582686874E-2    8.679469341571913E-1   -2.834233223999029E-1
 1.498272663811400E8     8.622635213973305E-1   -2.982414873207158E-1    9.812582886166678E-2    2.550806181619316E-2    9.838392310925138E-2    2.367804502720607E-2    8.671070680565695E-1   -2.856151355175345E-1
 1.509704278443526E8     8.613221531548459E-1   -3.005774489832009E-1    9.842665302891992E-2    2.576201032333212E-2    9.867720829582360E-2    2.393664010255172E-2    8.662418328076610E-1   -2.878044034416803E-1
 1.521223114725131E8     8.603655621555504E-1   -3.029347279280312E-1    9.871862711819826E-2    2.603779912104869E-2    9.897165147416066E-2    2.421398462367019E-2    8.653613181180119E-1   -2.900370579678652E-1
 1.532829838145407E8     8.593751937418688E-1   -3.052958344591292E-1    9.902361576530386E-2    2.633749010480472E-2    9.928392736215497E-2    2.450949653373372E-2    8.644853253618804E-1   -2.923066773801508E-1
 1.544525119271165E8     8.583516433653919E-1   -3.077107258632698E-1    9.936940652908552E-2    2.665855860579755E-2    9.962459840450505E-2    2.481075410580942E-2    8.636023703127904E-1   -2.945567401775658E-1
 1.556309633785520E8     8.573293428188313E-1   -3.101017550202767E-1    9.972652699282948E-2    2.696265946667885E-2    9.998920765755215E-2    2.509044394345372E-2    8.627118120163454E-1   -2.968665269308530E-1
 1.568184062526983E8     8.562804336430190E-1   -3.124926392070248E-1    1.000843019109902E-1    2.727409004837782E-2    1.003647116889903E-1    2.536055433866834E-2    8.617820802630772E-1   -2.991709136118141E-1
 1.580149091528745E8     8.552287134457692E-1   -3.149332751737319E-1    1.004579659770711E-1    2.759337676113015E-2    1.007525200036362E-1    2.562385034052909E-2    8.608403191777370E-1   -3.014399131246235E-1
 1.592205412058353E8     8.541729410082470E-1   -3.173435147832762E-1    1.008476421703037E-1    2.790579923332704E-2    1.011642062142838E-1    2.588080759944193E-2    8.598900372964955E-1   -3.037075912690188E-1
 1.604353720657634E8     8.530999730970729E-1   -3.196776273848217E-1    1.012402080177802E-1    2.821373382852432E-2    1.015867418753468E-1    2.611863714802504E-2    8.589117284298108E-1   -3.060080748248519E-1
 1.616594719182909E8     8.520443529001155E-1   -3.220766657115964E-1    1.016381414373142E-1    2.850918100427558E-2    1.020044399269847E-1    2.635278893767784E-2    8.579200664465022E-1   -3.083138656670446E-1
 1.628929114845590E8     8.509659819015303E-1   -3.244325157625993E-1    1.020296098905636E-1    2.879028260540696E-2    1.024229465098768E-1    2.657716114806905E-2    8.568866410537991E-1   -3.106569892779437E-1
 1.641357620253014E8     8.499635701009707E-1   -3.266217008516502E-1    1.024156116461906E-1    2.907203373516221E-2    1.028245429550705E-1    2.683867083313856E-2    8.558653419764904E-1   -3.130113923852241E-1
 1.653880953449593E8     8.488623218656320E-1   -3.291208723809299E-1    1.028146632603209E-1    2.932871431737987E-2    1.032306142044692E-1    2.709603546430408E-2    8.548202530421606E-1   -3.153843397549381E-1
 1.666499837958347E8     8.477231802620260E-1   -3.316533653722248E-1    1.032215600578258E-1    2.958776119254515E-2    1.036425582386524E-1    2.735629729433193E-2    8.537647605143143E-1   -3.177992713444200E-1
 1.679215002822650E8     8.465660149529968E-1   -3.341543765314058E-1    1.036452195012697E-1    2.985625121811666E-2    1.040707736648260E-1    2.761824003393854E-2    8.526801806799207E-1   -3.202316776745802E-1
 1.692027182648404E8     8.453983353220048E-1   -3.366988317551188E-1    1.040803819716853E-1    3.010705288822954E-2    1.045128470975330E-1    2.786336520374155E-2    8.515651322945839E-1   -3.226686195928506E-1
 1.704937117646426E8     8.441719839867802E-1   -3.392962006517605E-1    1.045210697458104E-1    3.035179961761640E-2    1.049526000829090E-1    2.809672495291490E-2    8.504408054194367E-1   -3.251151869266089E-1
 1.717945553675260E8     8.429636302056330E-1   -3.419107504559233E-1    1.049581046820431E-1    3.058485919033693E-2    1.053897858126327E-1    2.832005048069787E-2    8.492913752424277E-1   -3.275831800001068E-1
 1.731053242284249E8     8.417068846598061E-1   -3.445516162348447E-1    1.053829673616962E-1    3.082304607334062E-2    1.058114625597456E-1    2.855277874136027E-2    8.481089042440015E-1   -3.300767067368038E-1
 1.744260940756933E8     8.404089966587019E-1   -3.471952698119354E-1    1.058182383316512E-1    3.106648839298362E-2    1.062396894637497E-1    2.879020228983038E-2    8.468914298706985E-1   -3.325452031749319E-1
 1.757569412154842E8     8.390749618464380E-1   -3.498688841360775E-1    1.062248563984473E-1    3.130908227792506E-2    1.066425274224502E-1    2.904089836984723E-2    8.456502071793773E-1   -3.350285654875543E-1
 1.770979425361561E8     8.376573993014428E-1   -3.525315608630540E-1    1.066313585884907E-1    3.159452622047086E-2    1.070589227470468E-1    2.932270892074929E-2    8.444202999423794E-1   -3.375226638257033E-1
 1.784491755127131E8     8.362005220309858E-1   -3.551458932804409E-1    1.070707367850848E-1    3.190228300296027E-2    1.074999582955214E-1    2.961965901855025E-2    8.431554347864659E-1   -3.400501790598444E-1
 1.798107182112848E8     8.347617317381859E-1   -3.577387000008521E-1    1.075480925832308E-1    3.220122352022959E-2    1.079546499532531E-1    2.991735134905570E-2    8.418576547511945E-1   -3.425765470220216E-1
 1.811826492936349E8     8.332742079904240E-1   -3.603329692985558E-1    1.080304773156636E-1    3.248398041764534E-2    1.084192647193842E-1    3.022422391949385E-2    8.405121031313343E-1   -3.451072519083128E-1
 1.825650480217040E8     8.317995524592831E-1   -3.629343486053833E-1    1.085135291478329E-1    3.275115947312367E-2    1.088971658873353E-1    3.051171379856320E-2    8.391792656378567E-1   -3.476800084911987E-1
 1.839579942621904E8     8.302891498960340E-1   -3.655478566187699E-1    1.089999677790653E-1    3.302862745753370E-2    1.093835255226354E-1    3.081752762815060E-2    8.377881140858260E-1   -3.502237272183246E-1
 1.853615684911660E8     8.287450343470427E-1   -3.681353785218700E-1    1.094929287243196E-1    3.332395244989568E-2    1.098876900000061E-1    3.113607644075386E-2    8.364219624985704E-1   -3.527814375368002E-1
 1.867758517987237E8     8.271979712775669E-1   -3.707565577389820E-1    1.100009090997348E-1    3.360155421527437E-2    1.103918536522396E-1    3.144257118433978E-2    8.350406781184012E-1   -3.554312614479859E-1
 1.882009258936609E8     8.256362212808576E-1   -3.733441603377241E-1    1.105232517705745E-1    3.390727480775695E-2    1.109237959632845E-1    3.177445578499692E-2    8.335793517062965E-1   -3.580235276033255E-1
 1.896368731082037E8     8.240235612828843E-1   -3.759659764428208E-1    1.110527128604862E-1    3.418080519154679E-2    1.114607833328709E-1    3.209269041514486E-2    8.320933267714867E-1   -3.606522234768184E-1
 1.910837764027621E8     8.223904615304249E-1   -3.786537916663941E-1    1.115847913135161E-1    3.445583594682627E-2    1.120029425778264E-1    3.241714592680163E-2    8.306308484193669E-1   -3.632708409142404E-1
 1.925417193707203E8     8.206671793178693E-1   -3.813644776218918E-1    1.120908794052338E-1    3.472042128396340E-2    1.125440873358148E-1    3.274767626262021E-2    8.291208851607358E-1   -3.659388044829511E-1
 1.940107862432706E8     8.188178539445119E-1   -3.840357725051922E-1    1.125497003152652E-1    3.501125665134827E-2    1.130654566487473E-1    3.311246084389236E-2    8.275247096919524E-1   -3.686200230732799E-1
 1.954910618942780E8     8.169087397501157E-1   -3.866303061459018E-1    1.129976362076923E-1    3.541242127166180E-2    1.136309521706176E-1    3.357260249880188E-2    8.258953923923980E-1   -3.712260022267299E-1
 1.969826318451810E8     8.150118431444984E-1   -3.891806217293698E-1    1.135551129025130E-1    3.585726924857623E-2    1.143279093634486E-1    3.399392862811844E-2    8.243826651855579E-1   -3.738799575069112E-1
 1.984855822699381E8     8.131000284647647E-1   -3.916664048589797E-1    1.141206338491702E-1    3.628288521664996E-2    1.149841662320668E-1    3.437542150578690E-2    8.227596360823098E-1   -3.765852255367927E-1
 2.000000000000000E8     8.111733251325559E-1   -3.941009651157017E-1    1.146981883677260E-1    3.678467963900436E-2    1.156514064939016E-1    3.480296234145334E-2    8.210619927222851E-1   -3.792967233916823E-1
