#  HZ   S   RI   R     50.00 
! Rohde & Schwarz Vector Network Analyzer 
! Rohde-Schwarz,ZNLE6-2Port,1323001256200024,1.71.1.10-23.02.1.238
! Created: UTC 4/11/2025, 7:16:32 AM
! freq[Hz]                re:S11                  im:S11                  re:S21                  im:S21                  re:S12                  im:S12                  re:S22                  im:S22
 1.000000000000000E5     7.386244560450015E-1    1.501489267767666E-1    2.638006478537798E-1   -1.509503647503977E-1    2.641204245285592E-1   -1.510427360519534E-1    7.382676469688895E-1    1.499289066291195E-1
 1.007629862646662E5     7.391627508497373E-1    1.496670991133933E-1    2.632533574916309E-1   -1.505012654243407E-1    2.635705997683722E-1   -1.505825730758964E-1    7.387729124320237E-1    1.494851152561429E-1
 1.015317940097331E5     7.396962569392185E-1    1.492226689061156E-1    2.627193154964408E-1   -1.500559602064023E-1    2.630342119009136E-1   -1.501391023680864E-1    7.392862402788428E-1    1.490256913349827E-1
 1.023064676522963E5     7.402168002949104E-1    1.487713229544492E-1    2.621855799621592E-1   -1.496127572444064E-1    2.624879240583011E-1   -1.496945973033369E-1    7.398354830387770E-1    1.485893321389936E-1
 1.030870519483485E5     7.407140703579975E-1    1.483151087295014E-1    2.616404860803753E-1   -1.491702620281929E-1    2.619641426538881E-1   -1.492544674689720E-1    7.403580892896471E-1    1.481518561823465E-1
 1.038735919953636E5     7.412251149192312E-1    1.478652558896074E-1    2.610981402523807E-1   -1.487314817581892E-1    2.614288795633107E-1   -1.488173515334050E-1    7.408831283103635E-1    1.477006097173208E-1
 1.046661332349037E5     7.417429353321914E-1    1.474255496937983E-1    2.605640946688113E-1   -1.482849719081827E-1    2.608932244734183E-1   -1.483871821269807E-1    7.414198188882593E-1    1.472855986089292E-1
 1.054647214552430E5     7.422687164873650E-1    1.470005787789594E-1    2.600335371285313E-1   -1.478593871702585E-1    2.603601104673715E-1   -1.479525919125139E-1    7.419224553035302E-1    1.468426382514844E-1
 1.062694027940149E5     7.427827348144435E-1    1.465711855509302E-1    2.595108385319065E-1   -1.474311962829658E-1    2.598366432389363E-1   -1.475242616606520E-1    7.424388027929455E-1    1.464129672061012E-1
 1.070802237408760E5     7.432945298596786E-1    1.461427595039422E-1    2.589841499409322E-1   -1.470074189511944E-1    2.592996788422955E-1   -1.471046692176823E-1    7.429627347462892E-1    1.459962111499980E-1
 1.078972311401927E5     7.438149383945891E-1    1.457128503873541E-1    2.584515096800845E-1   -1.465834325397520E-1    2.587735411697241E-1   -1.466792140749607E-1    7.434596382046709E-1    1.455939691011320E-1
 1.087204721937475E5     7.443552810686528E-1    1.453129865973186E-1    2.579303230443830E-1   -1.461706760451130E-1    2.582433666038658E-1   -1.462641718369642E-1    7.439895668048228E-1    1.451594490779460E-1
 1.095499944634658E5     7.448635843174117E-1    1.448856615594430E-1    2.574022215001334E-1   -1.457548369988999E-1    2.577247208483422E-1   -1.458459462678856E-1    7.445028305086938E-1    1.447818752134970E-1
 1.103858458741646E5     7.453714824593669E-1    1.444730717041726E-1    2.568738947049273E-1   -1.453387651788161E-1    2.571901185692892E-1   -1.454319565649081E-1    7.450078619822977E-1    1.443347065642826E-1
 1.112280747163201E5     7.458481826447788E-1    1.440496749485493E-1    2.563446565429466E-1   -1.449272344956797E-1    2.566618311908330E-1   -1.450237814101495E-1    7.455129726970506E-1    1.439423041821060E-1
 1.120767296488583E5     7.463697258188607E-1    1.436369826663767E-1    2.558156916227779E-1   -1.445138677916571E-1    2.561354197212474E-1   -1.446219408762588E-1    7.460413260467762E-1    1.435229216682245E-1
 1.129318597019661E5     7.468722170845984E-1    1.432360517369721E-1    2.552888772468153E-1   -1.441129036471259E-1    2.556077370554515E-1   -1.442146324063308E-1    7.465720613367478E-1    1.431141564094369E-1
 1.137935142799240E5     7.474088429475666E-1    1.428552068945505E-1    2.547702155018954E-1   -1.437090481821484E-1    2.550728945754417E-1   -1.438080560350224E-1    7.470822145937450E-1    1.427242495865749E-1
 1.146617431639607E5     7.479024683563602E-1    1.424456784826704E-1    2.542457131675216E-1   -1.433177950872976E-1    2.545398646614740E-1   -1.434125996042402E-1    7.475800452388285E-1    1.423309534548974E-1
 1.155365965151286E5     7.484329141388445E-1    1.420477949799120E-1    2.537214740206412E-1   -1.429264549206139E-1    2.540212848146883E-1   -1.430175665938462E-1    7.480894413516963E-1    1.419282116147986E-1
 1.164181248772018E5     7.489249209300854E-1    1.416536823921489E-1    2.532059789308195E-1   -1.425308097906572E-1    2.534970548665660E-1   -1.426272433211178E-1    7.486189631799393E-1    1.415375800103916E-1
 1.173063791795965E5     7.494524970407132E-1    1.412597302993337E-1    2.526853418138546E-1   -1.421373665781867E-1    2.529701413242709E-1   -1.422431137978440E-1    7.491484266889596E-1    1.411528444395747E-1
 1.182014107403141E5     7.499751296963081E-1    1.408714108761119E-1    2.521639750932055E-1   -1.417516175370680E-1    2.524506987937741E-1   -1.418449533017663E-1    7.496531048495406E-1    1.407740380186646E-1
 1.191032712689044E5     7.505181650234791E-1    1.404775677723102E-1    2.516335336273718E-1   -1.413726853102978E-1    2.519229435523433E-1   -1.414605053705386E-1    7.501606567738210E-1    1.403667268626643E-1
 1.200120128694542E5     7.510239321096028E-1    1.400900105748288E-1    2.511133542288546E-1   -1.409867225052132E-1    2.514021097583474E-1   -1.410769319313867E-1    7.506714278834080E-1    1.400130453937055E-1
 1.209276880435975E5     7.515415280775182E-1    1.397226644760319E-1    2.505932802466210E-1   -1.405998867856343E-1    2.508835840248078E-1   -1.407008660655645E-1    7.511802108289839E-1    1.396258838675833E-1
 1.218503496935483E5     7.520403326254853E-1    1.393460564616357E-1    2.500690774115034E-1   -1.402276424809012E-1    2.503594280548361E-1   -1.403210806864055E-1    7.517089352163032E-1    1.392537721482183E-1
 1.227800511251578E5     7.525617342317288E-1    1.389787268767174E-1    2.495608393605177E-1   -1.398524073134690E-1    2.498376385472490E-1   -1.399463942585952E-1    7.522266725434450E-1    1.388701112796581E-1
 1.237168460509929E5     7.530558454662452E-1    1.386030252108654E-1    2.490338687630896E-1   -1.394784179898182E-1    2.493235451974932E-1   -1.395763092172364E-1    7.527510737797088E-1    1.385103480350360E-1
 1.246607885934402E5     7.535665356666130E-1    1.382338228549500E-1    2.485092402798064E-1   -1.391067374730886E-1    2.487982766540356E-1   -1.392120690063499E-1    7.532828627210308E-1    1.381242820603533E-1
 1.256119332878327E5     7.540715573296715E-1    1.378607119055253E-1    2.479868309600846E-1   -1.387434010102861E-1    2.482808625059282E-1   -1.388442632461112E-1    7.538042589502845E-1    1.377608896680232E-1
 1.265703350856002E5     7.545994877816472E-1    1.375017276495366E-1    2.474679116198139E-1   -1.383841397854306E-1    2.477639715924758E-1   -1.384846830625777E-1    7.542977248747759E-1    1.374025494650278E-1
 1.275360493574453E5     7.551209383837547E-1    1.371311447555786E-1    2.469516538403061E-1   -1.380169894961990E-1    2.472406556565397E-1   -1.381117336364159E-1    7.548252747988358E-1    1.370440398791451E-1
 1.285091318965405E5     7.556281104337238E-1    1.367756043219875E-1    2.464370688176369E-1   -1.376562214647257E-1    2.467296028731408E-1   -1.377555903275055E-1    7.553350842837230E-1    1.366919462456298E-1
 1.294896389217529E5     7.561195058267981E-1    1.364194783236833E-1    2.459100806198862E-1   -1.372918500707085E-1    2.462006988043880E-1   -1.373955407532855E-1    7.558527955133196E-1    1.363437855762268E-1
 1.304776270808914E5     7.566430621189193E-1    1.360620591437643E-1    2.454006188117638E-1   -1.369484151142828E-1    2.456840631492222E-1   -1.370403359263846E-1    7.563748512378827E-1    1.359931939656524E-1
 1.314731534539810E5     7.571268846466750E-1    1.357038423496177E-1    2.448811932636290E-1   -1.365889570127493E-1    2.451610526490355E-1   -1.366897450911141E-1    7.568943063506227E-1    1.356359229903369E-1
 1.324762755565583E5     7.576617331091418E-1    1.353560989998729E-1    2.443638661973206E-1   -1.362396993199584E-1    2.446409748056133E-1   -1.363353253130333E-1    7.573905565432461E-1    1.352842580160225E-1
 1.334870513429962E5     7.581898522367643E-1    1.350031997840899E-1    2.438417169691980E-1   -1.358979048930899E-1    2.441293828103720E-1   -1.359856522257870E-1    7.579024791772569E-1    1.349358422494615E-1
 1.345055392098512E5     7.586889928525495E-1    1.346555875621018E-1    2.433205013632846E-1   -1.355438558071523E-1    2.436046745252032E-1   -1.356285940405627E-1    7.583770622053777E-1    1.345803084245061E-1
 1.355317979992373E5     7.592228853100961E-1    1.343279145640109E-1    2.428117989791010E-1   -1.351944536921302E-1    2.430843126340207E-1   -1.352901406805145E-1    7.589428938019864E-1    1.342525389944499E-1
 1.365658870022265E5     7.597435866688901E-1    1.339759688510699E-1    2.422928863574760E-1   -1.348537467128273E-1    2.425616342794924E-1   -1.349397939312201E-1    7.594371890616286E-1    1.339013840607053E-1
 1.376078659622731E5     7.602345929850958E-1    1.336228615112691E-1    2.417738009677750E-1   -1.345135499211862E-1    2.420469120758330E-1   -1.346032504892886E-1    7.599674419652385E-1    1.335535577402406E-1
 1.386577950786655E5     7.607454215624805E-1    1.332801729000279E-1    2.412563129773548E-1   -1.341767166355168E-1    2.415209775058783E-1   -1.342625473265317E-1    7.604478511835511E-1    1.332144094648113E-1
 1.397157350100044E5     7.612742113114954E-1    1.329335861059739E-1    2.407417327092733E-1   -1.338332693144920E-1    2.410031062558875E-1   -1.339298713027970E-1    7.609455039596108E-1    1.328710688876640E-1
 1.407817468777081E5     7.617582785488033E-1    1.325991856752259E-1    2.402233093407370E-1   -1.334954344332361E-1    2.404813794274469E-1   -1.335937403530024E-1    7.614491200845744E-1    1.325351970629711E-1
 1.418558922695422E5     7.622768095358184E-1    1.322628043312828E-1    2.397069294168231E-1   -1.331616553018343E-1    2.399529215380608E-1   -1.332560881043672E-1    7.619751091812683E-1    1.321968777860195E-1
 1.429382332431784E5     7.627735777211532E-1    1.319218696558006E-1    2.391804305645187E-1   -1.328268217653912E-1    2.394411244944683E-1   -1.329222056697757E-1    7.625007473775738E-1    1.318803042038883E-1
 1.440288323297804E5     7.632877802569156E-1    1.315990650219876E-1    2.386570831221674E-1   -1.325017165436282E-1    2.389336611218241E-1   -1.325926278557656E-1    7.630183079486073E-1    1.315565908809935E-1
 1.451277525376154E5     7.638056219813349E-1    1.312710140759268E-1    2.381545062223713E-1   -1.321742822152983E-1    2.384091629149704E-1   -1.322677070159690E-1    7.635237081508597E-1    1.312270955931608E-1
 1.462350573556962E5     7.643299923081329E-1    1.309632795029020E-1    2.376341571302841E-1   -1.318467830335721E-1    2.379048107837367E-1   -1.319427254169475E-1    7.640361725311097E-1    1.308980606111431E-1
 1.473508107574468E5     7.648331499472651E-1    1.306214191593036E-1    2.371164178995490E-1   -1.315204727606883E-1    2.373680306746208E-1   -1.316089036395472E-1    7.645306134645006E-1    1.305641652855531E-1
 1.484750772044004E5     7.653560846446072E-1    1.303027570711495E-1    2.366013636610756E-1   -1.311975090736768E-1    2.368604855871776E-1   -1.312903130819657E-1    7.650479571799563E-1    1.302495262793241E-1
 1.496079216499225E5     7.658697934492550E-1    1.299847347584641E-1    2.360869552166791E-1   -1.308676604093005E-1    2.363410709499750E-1   -1.309656681902599E-1    7.655624474993885E-1    1.299269423878524E-1
 1.507494095429637E5     7.663807216575422E-1    1.296532113235087E-1    2.355671683309595E-1   -1.305517931545137E-1    2.358213151941268E-1   -1.306455464733720E-1    7.660817088498210E-1    1.296019409897951E-1
 1.518996068318418E5     7.668804110238638E-1    1.293202386813809E-1    2.350451943085616E-1   -1.302372167365219E-1    2.353011758628640E-1   -1.303262845457570E-1    7.666150075605260E-1    1.292812132876298E-1
 1.530585799680507E5     7.673677809743522E-1    1.290061511710320E-1    2.345292536377727E-1   -1.299062716177559E-1    2.347872018941378E-1   -1.300078922851811E-1    7.671071681680685E-1    1.289639536444668E-1
 1.542263959101001E5     7.678902445856952E-1    1.286961121514714E-1    2.340132240909926E-1   -1.295957684599243E-1    2.342694679694195E-1   -1.296964881354069E-1    7.676101337724075E-1    1.286483151412071E-1
 1.554031221273835E5     7.684024884756709E-1    1.283810863710041E-1    2.335051583444197E-1   -1.292829536207742E-1    2.337517467977903E-1   -1.293750678402819E-1    7.681170229731455E-1    1.283258757912847E-1
 1.565888266040779E5     7.689465214791525E-1    1.280865564221449E-1    2.329960518653648E-1   -1.289688681197095E-1    2.332337352797647E-1   -1.290610196005184E-1    7.686201017690276E-1    1.280174855988110E-1
 1.577835778430689E5     7.694554844599448E-1    1.277603959417253E-1    2.324786556768416E-1   -1.286591635271728E-1    2.327180332569877E-1   -1.287500686940455E-1    7.691181019598099E-1    1.276951805029511E-1
 1.589874448699104E5     7.699511078337188E-1    1.274484318420052E-1    2.319590540583905E-1   -1.283451540371027E-1    2.322049206375095E-1   -1.284383801850764E-1    7.696717632736311E-1    1.273933717742852E-1
 1.602004972368116E5     7.704720494324262E-1    1.271351221818298E-1    2.314421510554394E-1   -1.280383315706174E-1    2.316934579199662E-1   -1.281302628639091E-1    7.701675536618824E-1    1.270905894725749E-1
 1.614228050266550E5     7.710141457835541E-1    1.268346846637733E-1    2.309299539936573E-1   -1.277304088597902E-1    2.311770517968036E-1   -1.278235857328818E-1    7.706640316551145E-1    1.267784178319344E-1
 1.626544388570473E5     7.715027060096563E-1    1.265305736301061E-1    2.304020617953405E-1   -1.274156211073127E-1    2.306504011261874E-1   -1.275153288589057E-1    7.711708303528688E-1    1.264550146894035E-1
 1.638954698843964E5     7.720201265685963E-1    1.262076793086135E-1    2.298874086425981E-1   -1.271092669262198E-1    2.301446498760826E-1   -1.272125417595030E-1    7.716881867844563E-1    1.261673978340570E-1
 1.651459698080244E5     7.725391470593371E-1    1.259037400429858E-1    2.293710087725846E-1   -1.268073705006998E-1    2.296142078154631E-1   -1.269045462111504E-1    7.721939298544495E-1    1.258498989137040E-1
 1.664060108743095E5     7.730347275374091E-1    1.256014068135545E-1    2.288509288753896E-1   -1.265025431886646E-1    2.290974938757285E-1   -1.265956843299078E-1    7.727026017463320E-1    1.255568842220544E-1
 1.676756658808590E5     7.735518381667406E-1    1.253014734688782E-1    2.283372358391643E-1   -1.262056943377402E-1    2.285806580729115E-1   -1.262985238135965E-1    7.732107313486880E-1    1.252564897443157E-1
 1.689550081807175E5     7.740593048946850E-1    1.249954235872040E-1    2.278173460924991E-1   -1.259045787989521E-1    2.280710095969068E-1   -1.260026623017430E-1    7.737393914057017E-1    1.249622715932090E-1
 1.702441116866020E5     7.745855329225508E-1    1.246868323422945E-1    2.272991485161763E-1   -1.256034874930901E-1    2.275439221324881E-1   -1.256993991349502E-1    7.742456328972119E-1    1.246524877043804E-1
 1.715430508751738E5     7.751023269408491E-1    1.244038791159554E-1    2.267939376559431E-1   -1.253019485859537E-1    2.270351417568735E-1   -1.253998241779484E-1    7.747580644599368E-1    1.243422983328208E-1
 1.728519007913403E5     7.756062736475501E-1    1.240966801370331E-1    2.262788845574200E-1   -1.250124490099319E-1    2.265195689896135E-1   -1.251028630939442E-1    7.752743135647967E-1    1.240627817911338E-1
 1.741707370525927E5     7.761395346914449E-1    1.237988800628279E-1    2.257650201423619E-1   -1.247090214654073E-1    2.260084288795939E-1   -1.248083064805612E-1    7.757898480382689E-1    1.237627141934164E-1
 1.754996358533718E5     7.766401199217913E-1    1.235145170997950E-1    2.252519929404128E-1   -1.244063195161023E-1    2.254956190660843E-1   -1.245162729595183E-1    7.763182544847218E-1    1.234550783763059E-1
 1.768386739694722E5     7.771189605285922E-1    1.232189678048570E-1    2.247253010613677E-1   -1.241135472823999E-1    2.249762831399356E-1   -1.242175337488853E-1    7.768463233107556E-1    1.231677302089977E-1
 1.781879287624771E5     7.776554323494780E-1    1.229233309122009E-1    2.242111348706059E-1   -1.238212545109487E-1    2.244733756328597E-1   -1.239201395503844E-1    7.773623147322694E-1    1.228767089501787E-1
 1.795474781842276E5     7.781542043363865E-1    1.226268770075076E-1    2.236911575168052E-1   -1.235238579084253E-1    2.239402351341032E-1   -1.236246981064642E-1    7.778592311349952E-1    1.225807510272792E-1
 1.809174007813277E5     7.786646741808948E-1    1.223213219890892E-1    2.231865887457784E-1   -1.232280434965838E-1    2.234255042215823E-1   -1.233338576544200E-1    7.783643208597346E-1    1.222944831937839E-1
 1.822977756996804E5     7.792107087368131E-1    1.220330006922752E-1    2.226755431642039E-1   -1.229423979872755E-1    2.229131493311879E-1   -1.230415138634115E-1    7.788702967990361E-1    1.220015744491989E-1
 1.836886826890609E5     7.797154297046599E-1    1.217454065282028E-1    2.221503423836171E-1   -1.226481898487389E-1    2.223976817777042E-1   -1.227500015139239E-1    7.793725223388270E-1    1.216976654795203E-1
 1.850902021077247E5     7.802017864533697E-1    1.214475955329817E-1    2.216360233021281E-1   -1.223626429339893E-1    2.218860982844881E-1   -1.224665210380005E-1    7.798771439753318E-1    1.214105644419133E-1
 1.865024149270491E5     7.807048536178944E-1    1.211584167844268E-1    2.211320704988539E-1   -1.220724146589639E-1    2.213698608564547E-1   -1.221708834587228E-1    7.804025846977107E-1    1.211175979266450E-1
 1.879254027362132E5     7.812186539356192E-1    1.208800305095325E-1    2.206096345564517E-1   -1.217836059848624E-1    2.208502661012096E-1   -1.218818325275856E-1    7.809265605075530E-1    1.208399130819733E-1
 1.893592477469092E5     7.817406706804848E-1    1.205339028726539E-1    2.200863941419276E-1   -1.215019733647087E-1    2.203518530721936E-1   -1.215770667936222E-1    7.814219023571859E-1    1.205677671889963E-1
 1.908040327980933E5     7.822402209019980E-1    1.202845126566347E-1    2.195900669622859E-1   -1.212087583154802E-1    2.198280488272470E-1   -1.213092280427847E-1    7.819255569126333E-1    1.202627293533640E-1
 1.922598413607715E5     7.827188512100355E-1    1.199989359132466E-1    2.190741039107908E-1   -1.209171724657273E-1    2.193224445405839E-1   -1.210242837721589E-1    7.824491674366146E-1    1.199650869852331E-1
 1.937267575428232E5     7.832353128362719E-1    1.197019450992185E-1    2.185538152443086E-1   -1.206287835801119E-1    2.187930931683797E-1   -1.207300120074152E-1    7.829505258010215E-1    1.196780716585561E-1
 1.952048660938581E5     7.837481212011713E-1    1.194217448862311E-1    2.180443907226535E-1   -1.203494923234331E-1    2.182881652011800E-1   -1.204471797498953E-1    7.834692529187782E-1    1.193993985595269E-1
 1.966942524101142E5     7.842525943096756E-1    1.191299289135319E-1    2.175305502054046E-1   -1.200648953530898E-1    2.177751384784274E-1   -1.201643856711227E-1    7.840056712525960E-1    1.191144180926952E-1
 1.981950025393913E5     7.847614643674100E-1    1.188509443579751E-1    2.170135910068992E-1   -1.197804373348474E-1    2.172567628123796E-1   -1.198778537939961E-1    7.844803180957417E-1    1.188059709979726E-1
 1.997072031860212E5     7.853052059823580E-1    1.185746758281088E-1    2.165071505490830E-1   -1.194902062024111E-1    2.167485220157762E-1   -1.195942092302271E-1    7.850094900934913E-1    1.185363921948560E-1
 2.012309417158795E5     7.858065755551160E-1    1.182787559938686E-1    2.159894760011419E-1   -1.192041217661057E-1    2.162314924205706E-1   -1.193101441086050E-1    7.855060930257681E-1    1.182472251112709E-1
 2.027663061614301E5     7.863061619086070E-1    1.179991480739623E-1    2.154803323711438E-1   -1.189294762014061E-1    2.157304334025979E-1   -1.190298735309846E-1    7.860109696679146E-1    1.179732970231767E-1
 2.043133852268128E5     7.868009375452749E-1    1.177184726509734E-1    2.149713516443896E-1   -1.186431835122544E-1    2.152124201008299E-1   -1.187448150414766E-1    7.865202160644896E-1    1.176710502010795E-1
 2.058722682929675E5     7.873003953631896E-1    1.174410864915841E-1    2.144579835609913E-1   -1.183541436949340E-1    2.146936592895733E-1   -1.184578970408474E-1    7.870177637068280E-1    1.173758442243332E-1
 2.074430454227995E5     7.878184684140680E-1    1.171516010324777E-1    2.139503526665502E-1   -1.180795047453477E-1    2.141762112850116E-1   -1.181728023351636E-1    7.875071062902927E-1    1.170946415352339E-1
 2.090258073663807E5     7.883298053853777E-1    1.168667669312843E-1    2.134359015614248E-1   -1.177923135013278E-1    2.136690283062515E-1   -1.179003392640779E-1    7.880558925900396E-1    1.168136427572160E-1
 2.106206455661938E5     7.888403781492975E-1    1.165813930683173E-1    2.129292967330853E-1   -1.175173332064221E-1    2.131592203484592E-1   -1.176171236662179E-1    7.885691865779847E-1    1.165328151919734E-1
 2.122276521624151E5     7.893441829656649E-1    1.162938649520965E-1    2.124144769395891E-1   -1.172339897316064E-1    2.126469089046422E-1   -1.173303207704371E-1    7.890522159633995E-1    1.162575680323049E-1
 2.138469199982374E5     7.898425014382090E-1    1.160174071676581E-1    2.119055424663917E-1   -1.169565790966501E-1    2.121325866462273E-1   -1.170488596740664E-1    7.895400881035828E-1    1.159575193264052E-1
 2.154785426252357E5     7.903596321317216E-1    1.157273350030739E-1    2.113961842938497E-1   -1.166746526753341E-1    2.116143742151457E-1   -1.167643293423610E-1    7.900241980662845E-1    1.156721606695445E-1
 2.171226143087691E5     7.908743561393872E-1    1.154456148649150E-1    2.108808605310071E-1   -1.163966315810674E-1    2.111062377411256E-1   -1.164820691585985E-1    7.905443702400075E-1    1.153915199097593E-1
 2.187792300334291E5     7.913960689360665E-1    1.151692611992738E-1    2.103783660893506E-1   -1.161147408018701E-1    2.106035488302579E-1   -1.162056522161417E-1    7.910779498748719E-1    1.151085351196586E-1
 2.204484855085266E5     7.918504942178149E-1    1.148799642041457E-1    2.098606655422015E-1   -1.158320357753735E-1    2.101021965867771E-1   -1.159318338512701E-1    7.915906628349915E-1    1.148240185715402E-1
 2.221304771736209E5     7.923830193906330E-1    1.146073334002815E-1    2.093570549926120E-1   -1.155490526564946E-1    2.095963856073080E-1   -1.156433787864737E-1    7.920722556584086E-1    1.145348069106530E-1
 2.238253022040931E5     7.928876878041531E-1    1.143315932541100E-1    2.088465071703863E-1   -1.152725116215059E-1    2.090886729844183E-1   -1.153635735175224E-1    7.925902768073887E-1    1.142545693682061E-1
 2.255330585167579E5     7.933950711697602E-1    1.140551579694042E-1    2.083441260429695E-1   -1.149957300771256E-1    2.085712096566708E-1   -1.150854545715640E-1    7.930518552833348E-1    1.139662150338280E-1
 2.272538447755223E5     7.938873947055014E-1    1.137788257701889E-1    2.078311629515363E-1   -1.147035756624472E-1    2.080612964438374E-1   -1.147971067845451E-1    7.935712877813733E-1    1.136830455290125E-1
 2.289877603970853E5     7.943948458696789E-1    1.134900161115964E-1    2.073251951555472E-1   -1.144292458514442E-1    2.075571510424457E-1   -1.145224695620126E-1    7.940662618739771E-1    1.134092445591610E-1
 2.307349055566813E5     7.949025978650187E-1    1.131998043022209E-1    2.068172196397970E-1   -1.141538909261366E-1    2.070529110895781E-1   -1.142402925693879E-1    7.945696015307271E-1    1.131197758595841E-1
 2.324953811938693E5     7.953757180903009E-1    1.129090046951531E-1    2.063085009818885E-1   -1.138663914177662E-1    2.065383256061218E-1   -1.139587450034218E-1    7.950327598862981E-1    1.128399402822570E-1
 2.342692890183618E5     7.958934447056717E-1    1.126297949201845E-1    2.057972354475579E-1   -1.135874940164513E-1    2.060366445597997E-1   -1.136817137173069E-1    7.955444896009203E-1    1.125576187337780E-1
 2.360567315159030E5     7.964188392828565E-1    1.123407180425900E-1    2.052951344843424E-1   -1.133068404766019E-1    2.055288296247230E-1   -1.133939921886128E-1    7.960225249722072E-1    1.122647006283035E-1
 2.378578119541888E5     7.968844242348105E-1    1.120614971097648E-1    2.047877242236266E-1   -1.130269905577510E-1    2.050264397618748E-1   -1.131167590754549E-1    7.965132334327274E-1    1.119849946696525E-1
 2.396726343888348E5     7.973953974900199E-1    1.117801811436053E-1    2.042850190070789E-1   -1.127420128345188E-1    2.045166108365932E-1   -1.128381359491379E-1    7.969801048787596E-1    1.116924215544927E-1
 2.415013036693852E5     7.978731868142956E-1    1.114978424462333E-1    2.037700501772522E-1   -1.124579662964077E-1    2.040275294992721E-1   -1.125588480994739E-1    7.974878751168243E-1    1.114310880830822E-1
 2.433439254453724E5     7.983596466185547E-1    1.112230098612490E-1    2.032753804205769E-1   -1.121793286999064E-1    2.035162805590162E-1   -1.122741875825815E-1    7.980086978385036E-1    1.111560205018206E-1
 2.452006061724201E5     7.988571529307158E-1    1.109254543343671E-1    2.027838904069442E-1   -1.118971746074068E-1    2.030194045934180E-1   -1.119973877001856E-1    7.985063737589001E-1    1.108723361989146E-1
 2.470714531183934E5     7.993086587302713E-1    1.106370575797712E-1    2.022817396848932E-1   -1.116127571333746E-1    2.025136460553061E-1   -1.117164899371318E-1    7.990299361465346E-1    1.105980745016986E-1
 2.489565743695979E5     7.998416527702229E-1    1.103665243751656E-1    2.017718510625142E-1   -1.113328451063922E-1    2.020044279715481E-1   -1.114323603077412E-1    7.995082618799900E-1    1.103273662780388E-1
 2.508560788370214E5     8.003348681537706E-1    1.100686330477418E-1    2.012793891465624E-1   -1.110564356485322E-1    2.015088714446659E-1   -1.111544133121550E-1    8.000228199527943E-1    1.100533659525184E-1
 2.527700762626280E5     8.008118513303214E-1    1.097897056098902E-1    2.007770799212197E-1   -1.107718498250549E-1    2.010156418960191E-1   -1.108724791110440E-1    8.005180849694160E-1    1.097823841676008E-1
 2.546986772256976E5     8.013166624327919E-1    1.094924753665518E-1    2.002835572492091E-1   -1.104845191379097E-1    2.005135236061421E-1   -1.105911210301263E-1    8.010166450352483E-1    1.094991548387404E-1
 2.566419931492161E5     8.017743763148093E-1    1.091918906091140E-1    1.997866852298441E-1   -1.102000716866816E-1    2.000176980892527E-1   -1.103104649920117E-1    8.014981222493622E-1    1.092183851888914E-1
 2.586001363063102E5     8.022567123022296E-1    1.089096436507500E-1    1.992823514232130E-1   -1.099164829036275E-1    1.995226124558243E-1   -1.100315370659930E-1    8.019900842611781E-1    1.089310906996573E-1
 2.605732198267354E5     8.026989716124617E-1    1.086138558257429E-1    1.987929802683188E-1   -1.096365480618404E-1    1.990260409298678E-1   -1.097444625890411E-1    8.024908441696981E-1    1.086632726495934E-1
 2.625613577034118E5     8.032234264212126E-1    1.083493137222223E-1    1.983055363319197E-1   -1.093534269671050E-1    1.985384621085545E-1   -1.094667319269084E-1    8.029859332305282E-1    1.083746412569085E-1
 2.645646647990093E5     8.037160240186896E-1    1.080707715028774E-1    1.978119641997564E-1   -1.090673172184607E-1    1.980488093739511E-1   -1.091829719362301E-1    8.034489655916154E-1    1.080988223467453E-1
 2.665832568525859E5     8.041530613624727E-1    1.077664264221086E-1    1.973187862407644E-1   -1.087863989117796E-1    1.975520912122593E-1   -1.088962264814845E-1    8.039248730686656E-1    1.078094123290679E-1
 2.686172504862709E5     8.046130588673027E-1    1.074837528982902E-1    1.968318837478211E-1   -1.085004791571873E-1    1.970582797811032E-1   -1.086116085873989E-1    8.044023332198417E-1    1.075408141738770E-1
 2.706667632120051E5     8.051007442023006E-1    1.072065180853474E-1    1.963414087844740E-1   -1.082150539006263E-1    1.965663794430582E-1   -1.083341179390220E-1    8.049000351145794E-1    1.072520430507025E-1
 2.727319134383292E5     8.055776655875763E-1    1.069304710682832E-1    1.958548346490935E-1   -1.079270920333873E-1    1.960828479475571E-1   -1.080477243187606E-1    8.053924213784992E-1    1.069740605381218E-1
 2.748128204772244E5     8.060678333403524E-1    1.066516117857818E-1    1.953786107057258E-1   -1.076457060403737E-1    1.955953301240105E-1   -1.077640315631036E-1    8.058588077039577E-1    1.066909657056537E-1
 2.769096045510074E5     8.065487180339421E-1    1.063731121204519E-1    1.948999945047896E-1   -1.073662472885096E-1    1.951005343528571E-1   -1.074732429103922E-1    8.063422879336500E-1    1.064093411880080E-1
 2.790223867992730E5     8.070483741688315E-1    1.061000689809044E-1    1.944247152096104E-1   -1.070802398954822E-1    1.946284638578845E-1   -1.071991712405524E-1    8.068299243594521E-1    1.061135851544699E-1
 2.811512892858952E5     8.075428565862919E-1    1.058127239534021E-1    1.939398499274696E-1   -1.067990962432459E-1    1.941330945901500E-1   -1.069072126891765E-1    8.072936696927421E-1    1.058360403690140E-1
 2.832964350060779E5     8.079949578086938E-1    1.055303675463586E-1    1.934548459737746E-1   -1.065087947121090E-1    1.936589728300235E-1   -1.066271305588736E-1    8.077746209801504E-1    1.055488290968674E-1
 2.854579478934632E5     8.084503756356022E-1    1.052516997510979E-1    1.929729556257627E-1   -1.062247641156669E-1    1.931721768609888E-1   -1.063399801457061E-1    8.082646982485339E-1    1.052654634052266E-1
 2.876359528272883E5     8.089352543729807E-1    1.049612754558416E-1    1.925064779169934E-1   -1.059431191832433E-1    1.926939759609698E-1   -1.060572429346009E-1    8.087268939166715E-1    1.049855847857078E-1
 2.898305756396023E5     8.094072289739386E-1    1.046875739282094E-1    1.920337530635998E-1   -1.056578419235597E-1    1.922235799226182E-1   -1.057752621813983E-1    8.092154721403249E-1    1.046989960045849E-1
 2.920419431225354E5     8.098726091768544E-1    1.044157342278315E-1    1.915623241792430E-1   -1.053744418799293E-1    1.917505870179688E-1   -1.054893066021669E-1    8.096910994086156E-1    1.044203923521809E-1
 2.942701830356239E5     8.103518784058713E-1    1.041275500292660E-1    1.910991662517180E-1   -1.050903251466122E-1    1.912844706872973E-1   -1.052068454218017E-1    8.101811045368330E-1    1.041471017602293E-1
 2.965154241131938E5     8.108070441744359E-1    1.038416971537162E-1    1.906211918064151E-1   -1.048038738863833E-1    1.908111715800541E-1   -1.049224350754435E-1    8.106677236161923E-1    1.038711287288512E-1
 2.987777960717941E5     8.112861045894891E-1    1.035727510151030E-1    1.901610268263215E-1   -1.045239940320312E-1    1.903314671008264E-1   -1.046342176900591E-1    8.111210295676772E-1    1.035647713264577E-1
 3.010574296176943E5     8.117792946138209E-1    1.032952342989275E-1    1.896973440125030E-1   -1.042441687042504E-1    1.898697983768696E-1   -1.043531277072741E-1    8.115678199844473E-1    1.032901450260255E-1
 3.033544564544337E5     8.122272405211586E-1    1.030068239815503E-1    1.892294787747220E-1   -1.039578458186935E-1    1.894083324729089E-1   -1.040743497493461E-1    8.120326698664793E-1    1.029989452568479E-1
 3.056690092904338E5     8.127050067736104E-1    1.027303760214828E-1    1.887761999324126E-1   -1.036783859289607E-1    1.889497051717816E-1   -1.037905796299859E-1    8.125293757193530E-1    1.027346513051949E-1
 3.080012218466610E5     8.131690016624793E-1    1.024581098779115E-1    1.883186390820275E-1   -1.033925943867484E-1    1.884855354334264E-1   -1.035049112701465E-1    8.129661820526177E-1    1.024468811401646E-1
 3.103512288643551E5     8.136291195755589E-1    1.021735011302146E-1    1.878550088775624E-1   -1.031070648495113E-1    1.880193844470871E-1   -1.032191273840874E-1    8.134466868950340E-1    1.021593072567889E-1
 3.127191661128128E5     8.141285604457612E-1    1.018880892236181E-1    1.873977531829024E-1   -1.028300583255200E-1    1.875660698084256E-1   -1.029392453093161E-1    8.138833285072936E-1    1.018700021391455E-1
 3.151051703972316E5     8.145788370562971E-1    1.016232427047953E-1    1.869436647462920E-1   -1.025530703379546E-1    1.870975595524859E-1   -1.026511984718051E-1    8.143043713269021E-1    1.015892479465126E-1
 3.175093795666154E5     8.150017312448554E-1    1.013184337613816E-1    1.864856712120008E-1   -1.022696256140297E-1    1.866438296299937E-1   -1.023738011799358E-1    8.147734249287035E-1    1.013194507843220E-1
 3.199319325217355E5     8.154405232973944E-1    1.010290111005520E-1    1.860345855014490E-1   -1.019898053479284E-1    1.861826161617024E-1   -1.020908852007863E-1    8.152266849654806E-1    1.010238314635397E-1
 3.223729692231574E5     8.158893909534585E-1    1.007514821548087E-1    1.855749157968646E-1   -1.017052059466898E-1    1.857310245146819E-1   -1.018077752855208E-1    8.156819374984194E-1    1.007361475945232E-1
 3.248326306993267E5     8.163298594653873E-1    1.004649277507060E-1    1.851289909574702E-1   -1.014253262569326E-1    1.852825042859723E-1   -1.015247033299893E-1    8.161590514669079E-1    1.004680808625928E-1
 3.273110590547157E5     8.167624724515722E-1    1.001866235433513E-1    1.846814341525381E-1   -1.011541903833292E-1    1.848386469729203E-1   -1.012489103978292E-1    8.166048864947211E-1    1.001794170142043E-1
 3.298083974780366E5     8.172756702099733E-1    9.990812832513718E-2    1.842370257068631E-1   -1.008672151418743E-1    1.843937748253115E-1   -1.009681528118617E-1    8.170683640243119E-1    9.990123406654722E-2
 3.323247902505097E5     8.177074997407667E-1    9.962219287085783E-2    1.837906015130057E-1   -1.005968079061737E-1    1.839446170210631E-1   -1.006909017986727E-1    8.175058357862244E-1    9.962659586895098E-2
 3.348603827542018E5     8.181083373857106E-1    9.935514645442026E-2    1.833540523867217E-1   -1.003187498515380E-1    1.835012844751563E-1   -1.004164747382710E-1    8.179426637609920E-1    9.933916020840960E-2
 3.374153214804250E5     8.185647754144435E-1    9.906687980732200E-2    1.829118199746593E-1   -1.000412102753486E-1    1.830538245365335E-1   -1.001348457590817E-1    8.183595050852397E-1    9.905197807655954E-2
 3.399897540381991E5     8.190368732414534E-1    9.879893456293673E-2    1.824788048629632E-1   -9.976907775151092E-2    1.826142363402753E-1   -9.985394564235572E-2    8.188093693712916E-1    9.877068966710335E-2
 3.425838291627830E5     8.194929450243411E-1    9.851704781774676E-2    1.820370295091230E-1   -9.949414783853820E-2    1.821753724674532E-1   -9.957731972824764E-2    8.192319542851976E-1    9.849254137073739E-2
 3.451976967242625E5     8.199261739388979E-1    9.823530120031665E-2    1.815986204438982E-1   -9.921696062904002E-2    1.817361866961673E-1   -9.929998534974890E-2    8.196647372167444E-1    9.822250063723502E-2
 3.478315077362126E5     8.203803374987163E-1    9.797032595033950E-2    1.811627683046018E-1   -9.894755037129321E-2    1.813010550476548E-1   -9.902980814214477E-2    8.201461661039665E-1    9.793800171767310E-2
 3.504854143644205E5     8.207695638825651E-1    9.767264804560555E-2    1.807208486837775E-1   -9.866940525717936E-2    1.808586853713403E-1   -9.874977144988717E-2    8.205864792288240E-1    9.766319415777902E-2
 3.531595699356794E5     8.212414292869675E-1    9.741491455312830E-2    1.803001594744595E-1   -9.839977690772446E-2    1.804273551713393E-1   -9.847585319106712E-2    8.210322045277511E-1    9.738973189820610E-2
 3.558541289466428E5     8.216499425554831E-1    9.712199893370810E-2    1.798591125348822E-1   -9.813070410332712E-2    1.799931690985587E-1   -9.820359232001633E-2    8.214545238026006E-1    9.710882829480739E-2
 3.585692470727532E5     8.220738953710724E-1    9.684528050657258E-2    1.794319285145571E-1   -9.786182176642391E-2    1.795621599020782E-1   -9.792648444205189E-2    8.218832294959617E-1    9.682960958048743E-2
 3.613050811772345E5     8.225057105890353E-1    9.657327376811407E-2    1.789997278724616E-1   -9.759048666784613E-2    1.791256611605878E-1   -9.765418502109706E-2    8.223073709352553E-1    9.655556982078067E-2
 3.640617893201578E5     8.229294889845119E-1    9.628737217511192E-2    1.785705424314624E-1   -9.731802613610137E-2    1.787023610498164E-1   -9.738703812108371E-2    8.227212251169549E-1    9.627547824038063E-2
 3.668395307675686E5     8.233528697607500E-1    9.601783821051489E-2    1.781374763741213E-1   -9.704798884223374E-2    1.782744893112496E-1   -9.711284547042551E-2    8.231371800943724E-1    9.599891312674237E-2
 3.696384660006910E5     8.237709352560539E-1    9.575499878595981E-2    1.777134624646224E-1   -9.678553156261684E-2    1.778547810606169E-1   -9.684756883268522E-2    8.235895262101108E-1    9.573047848381799E-2
 3.724587567251991E5     8.241992682097227E-1    9.546889564746151E-2    1.772859485550281E-1   -9.651640276342888E-2    1.774311217504647E-1   -9.657875186744760E-2    8.239990181243526E-1    9.545823136578691E-2
 3.753005658805580E5     8.246437680217745E-1    9.519748063206955E-2    1.768638989032248E-1   -9.625167104206474E-2    1.770048351968927E-1   -9.630690811378224E-2    8.243952201420401E-1    9.520360356776525E-2
 3.781640576494411E5     8.250770789588172E-1    9.492973073692583E-2    1.764575483268930E-1   -9.599379506035777E-2    1.765824482976827E-1   -9.604218740223407E-2    8.248636571547480E-1    9.492207065118778E-2
 3.810493974672107E5     8.255313142681864E-1    9.467310709327949E-2    1.760332519565760E-1   -9.572995059129190E-2    1.761643588773032E-1   -9.577727767292482E-2    8.252808647486553E-1    9.465633145394045E-2
 3.839567520314787E5     8.259309380740908E-1    9.440370645749065E-2    1.756081260583809E-1   -9.546080541885513E-2    1.757480113498657E-1   -9.551247295369709E-2    8.257010070905373E-1    9.438092185945139E-2
 3.868862893117373E5     8.263181242311298E-1    9.413396476735705E-2    1.751942715487884E-1   -9.520210398140501E-2    1.753275659749950E-1   -9.524786541526950E-2    8.261276095944611E-1    9.410262816092341E-2
 3.898381785590618E5     8.267484921098547E-1    9.385950541808719E-2    1.747748015900072E-1   -9.494217056872870E-2    1.749164522038812E-1   -9.498546286535460E-2    8.265432656448362E-1    9.383872089803175E-2
 3.928125903158922E5     8.271541670631604E-1    9.358138819688321E-2    1.743501414652831E-1   -9.467858433113395E-2    1.744944054693302E-1   -9.472204247231913E-2    8.269359286857325E-1    9.357026808160053E-2
 3.958096964258819E5     8.275880536236390E-1    9.331219471375310E-2    1.739323067220904E-1   -9.441873989195522E-2    1.740805037750933E-1   -9.446405138921629E-2    8.273380595668862E-1    9.329305835064659E-2
 3.988296700438284E5     8.280054131543864E-1    9.305304433762124E-2    1.735306722325446E-1   -9.416077939649441E-2    1.736766557420323E-1   -9.420411186491674E-2    8.277570814501811E-1    9.303264187462916E-2
 4.018726856456762E5     8.284450209619824E-1    9.278704184346290E-2    1.731205860774604E-1   -9.390054002307975E-2    1.732617161432002E-1   -9.394581128921976E-2    8.281772856901995E-1    9.276140933449223E-2
 4.049389190385970E5     8.288302294625592E-1    9.252771501362043E-2    1.727083411563808E-1   -9.364768026644794E-2    1.728477860325675E-1   -9.367918373702772E-2    8.285731371382431E-1    9.250288814605495E-2
 4.080285473711492E5     8.292064050474449E-1    9.224569079478621E-2    1.722799185561446E-1   -9.338703447230333E-2    1.724315392254328E-1   -9.341903734307250E-2    8.289673669289770E-1    9.223201160507274E-2
 4.111417491435081E5     8.296378156827271E-1    9.199718341195601E-2    1.718656435890895E-1   -9.312361558390353E-2    1.720173692431693E-1   -9.316002383648180E-2    8.293687176628574E-1    9.197030579040891E-2
 4.142787042177814E5     8.300390882051845E-1    9.172107380132997E-2    1.714591539849995E-1   -9.286675938659378E-2    1.716120099683445E-1   -9.290500794103414E-2    8.297767960443635E-1    9.169515058383142E-2
 4.174395938283992E5     8.304888106975848E-1    9.145788109106129E-2    1.710586603032009E-1   -9.261504422611519E-2    1.712051898722841E-1   -9.264960107173834E-2    8.301777516920656E-1    9.143786140656393E-2
 4.206246005925882E5     8.308809055636323E-1    9.118621114747012E-2    1.706461009609600E-1   -9.236128062732746E-2    1.708035882499535E-1   -9.239645806119393E-2    8.305990802759097E-1    9.116815594107792E-2
 4.238339085209167E5     8.313090017513840E-1    9.092460726475991E-2    1.702301351785213E-1   -9.211042513458742E-2    1.703999698179278E-1   -9.213986913049373E-2    8.310379958528112E-1    9.092680160848692E-2
 4.270677030279291E5     8.317157863068487E-1    9.066445496143188E-2    1.698263098413184E-1   -9.185084232490565E-2    1.699871909521009E-1   -9.188790885108464E-2    8.314313144686756E-1    9.065708767898688E-2
 4.303261709428567E5     8.321174848806435E-1    9.039864057781635E-2    1.694189281858594E-1   -9.160058802884997E-2    1.695834974121234E-1   -9.163240038383172E-2    8.318218060554508E-1    9.038115760186435E-2
 4.336095005204146E5     8.325132391355440E-1    9.013037543193961E-2    1.690177289264374E-1   -9.134908065882641E-2    1.691857503916769E-1   -9.138253347558278E-2    8.322760756923344E-1    9.013558962962118E-2
 4.369178814516730E5     8.329193456958361E-1    8.987592267760919E-2    1.686018100436464E-1   -9.109229910882101E-2    1.687816163979053E-1   -9.113278493465363E-2    8.326778484042885E-1    8.986224768411488E-2
 4.402515048750198E5     8.333262093086835E-1    8.961049802409678E-2    1.682020060990166E-1   -9.083672506469409E-2    1.683754697346214E-1   -9.087275433141612E-2    8.331003460711723E-1    8.960475091599508E-2
 4.436105633872023E5     8.337151000065279E-1    8.934450071733525E-2    1.678061177659887E-1   -9.058772271386073E-2    1.679824792406848E-1   -9.062425538930162E-2    8.335063800073533E-1    8.934581583920073E-2
 4.469952510544541E5     8.340958718307413E-1    8.908245394330133E-2    1.673983134313964E-1   -9.033036327399685E-2    1.675754839484774E-1   -9.037375673071159E-2    8.339038309786095E-1    8.908649199974267E-2
 4.504057634237097E5     8.345164114171154E-1    8.881599397289648E-2    1.669963393368490E-1   -9.007805648703310E-2    1.671733568631729E-1   -9.012000510716607E-2    8.343029842657005E-1    8.882947431110601E-2
 4.538422975338975E5     8.349259439690616E-1    8.855624666636774E-2    1.665900414814291E-1   -8.982161604110972E-2    1.667761821513351E-1   -8.987101515921044E-2    8.346925690372531E-1    8.856412453347072E-2
 4.573050519273265E5     8.352910261380608E-1    8.829218016158880E-2    1.661949470599528E-1   -8.957467343598997E-2    1.663730817676596E-1   -8.961663061093796E-2    8.350744843278575E-1    8.830460971318917E-2
 4.607942266611566E5     8.356882013023696E-1    8.804024129422734E-2    1.657946264747591E-1   -8.932049916655722E-2    1.659776901736583E-1   -8.936857071670862E-2    8.354671793769965E-1    8.803189033596000E-2
 4.643100233189550E5     8.360826025752444E-1    8.777272713158596E-2    1.654027021569742E-1   -8.906974487048334E-2    1.655788919501584E-1   -8.911333874767056E-2    8.358700457488951E-1    8.777508589780349E-2
 4.678526450223470E5     8.365122723692927E-1    8.751311745955244E-2    1.650031013511070E-1   -8.881560501185311E-2    1.651864490917875E-1   -8.886644261937120E-2    8.362395969853341E-1    8.751744711724006E-2
 4.714222964427450E5     8.368457754547011E-1    8.723943986176602E-2    1.646040734177634E-1   -8.856416734639214E-2    1.647891549199239E-1   -8.861397687241021E-2    8.366559700577365E-1    8.725152706356773E-2
 4.750191838131770E5     8.372617867076708E-1    8.697741388822947E-2    1.642079013458013E-1   -8.831675727088401E-2    1.643937610756862E-1   -8.836614520055827E-2    8.370420299604526E-1    8.699808551026901E-2
 4.786435149402010E5     8.376561998942289E-1    8.672838357663898E-2    1.638163343370526E-1   -8.805788865216757E-2    1.639991784865703E-1   -8.811958410406576E-2    8.374408012013912E-1    8.672318283860578E-2
 4.822954992159092E5     8.380456623759363E-1    8.646040167938848E-2    1.634203468375343E-1   -8.781168513580578E-2    1.636017140040578E-1   -8.786406497961224E-2    8.377877503134266E-1    8.647271841411600E-2
 4.859753476300298E5     8.384006216278885E-1    8.619097868099822E-2    1.630266537580841E-1   -8.755467493654574E-2    1.632169685766754E-1   -8.761275496109236E-2    8.382024279220697E-1    8.621005828941190E-2
 4.896832727821107E5     8.388060647377402E-1    8.593221240485420E-2    1.626372022878041E-1   -8.730210132358397E-2    1.628204220620796E-1   -8.736063208493940E-2    8.385836914354295E-1    8.594820176988485E-2
 4.934194888938060E5     8.391971796508981E-1    8.567338800799824E-2    1.622542983243396E-1   -8.704589538617630E-2    1.624379770681006E-1   -8.710932064928706E-2    8.389795490257200E-1    8.568583395900584E-2
 4.971842118212518E5     8.395122413835563E-1    8.541600571332270E-2    1.618610419829863E-1   -8.679698930562030E-2    1.620550742289677E-1   -8.686185577585784E-2    8.393712863783651E-1    8.545152758154362E-2
 5.009776590675358E5     8.399312962432584E-1    8.514264047758358E-2    1.614785635594564E-1   -8.654319250641163E-2    1.616571726089533E-1   -8.660611193855375E-2    8.397245046489868E-1    8.517220296534352E-2
 5.048000497952673E5     8.403197102694154E-1    8.487437198053145E-2    1.610952572228259E-1   -8.629366033585001E-2    1.612793489663221E-1   -8.635843294704244E-2    8.401572761325959E-1    8.490359755910233E-2
 5.086516048392332E5     8.407349243590190E-1    8.462848858970459E-2    1.607211575766945E-1   -8.604718609218139E-2    1.608890675455259E-1   -8.610663510031588E-2    8.405097892425791E-1    8.464243759701359E-2
 5.125325467191607E5     8.410670506111769E-1    8.435772539848867E-2    1.603379693052887E-1   -8.579567630574898E-2    1.605113029559536E-1   -8.585974895298246E-2    8.408820018891900E-1    8.438272269643353E-2
 5.164430996525706E5     8.414291109053524E-1    8.409978697327328E-2    1.599556533642349E-1   -8.553752324065232E-2    1.601321358163440E-1   -8.561018461567278E-2    8.412244960010510E-1    8.413277299678489E-2
 5.203834895677360E5     8.418547411056838E-1    8.383340199307189E-2    1.595832113473908E-1   -8.529180750583254E-2    1.597536218298081E-1   -8.536131878229125E-2    8.416137447753088E-1    8.387945025315356E-2
 5.243539441167285E5     8.422058772163956E-1    8.356778461844955E-2    1.592000171973707E-1   -8.503961014106977E-2    1.593675836631101E-1   -8.510939367103972E-2    8.420031219127782E-1    8.359676120982824E-2
 5.283546926885745E5     8.425691478000685E-1    8.331519976692951E-2    1.588202230177608E-1   -8.478831957531349E-2    1.589893820904572E-1   -8.485345388467337E-2    8.423317872382732E-1    8.334213711997591E-2
 5.323859664225065E5     8.429885578318628E-1    8.304949520903361E-2    1.584488719864276E-1   -8.453744087114846E-2    1.586063576065889E-1   -8.460095107335572E-2    8.427017782076246E-1    8.308421107448603E-2
 5.364479982213206E5     8.433470418724471E-1    8.279369430851748E-2    1.580758746907597E-1   -8.428327426307142E-2    1.582360428630335E-1   -8.435149724822186E-2    8.430737877913271E-1    8.281843335725925E-2
 5.405410227648258E5     8.437615473332767E-1    8.252456431628570E-2    1.577073904790688E-1   -8.403894603991052E-2    1.578754227431389E-1   -8.411151726197245E-2    8.434781930883194E-1    8.256275187697742E-2
 5.446652765234077E5     8.440915740574433E-1    8.226742082866668E-2    1.573360311063887E-1   -8.378618621437543E-2    1.574975169713789E-1   -8.385682555675031E-2    8.438765866802401E-1    8.230614313273955E-2
 5.488209977716873E5     8.444422483501600E-1    8.200755413178921E-2    1.569573714902747E-1   -8.353236019808408E-2    1.571300923190287E-1   -8.361077033064157E-2    8.441994542479325E-1    8.204615328600741E-2
 5.530084266022880E5     8.447883466040110E-1    8.175565854093472E-2    1.566004419290315E-1   -8.327900327884925E-2    1.567702427014774E-1   -8.336324543508548E-2    8.445748083374370E-1    8.180049624719832E-2
 5.572278049397101E5     8.451725510327309E-1    8.148795640502170E-2    1.562414841143336E-1   -8.303717110168558E-2    1.564023068626365E-1   -8.311440228008424E-2    8.449172031584845E-1    8.152656535834718E-2
 5.614793765543010E5     8.455129839031998E-1    8.123276274377059E-2    1.558783857201216E-1   -8.279262489102533E-2    1.560486854575013E-1   -8.287214974346109E-2    8.452908991591993E-1    8.127175374382550E-2
 5.657633870763436E5     8.458546879660862E-1    8.096738472081282E-2    1.555182699838024E-1   -8.254036353159319E-2    1.556835884249915E-1   -8.262551086446847E-2    8.456616803433161E-1    8.099566495268040E-2
 5.700800840102463E5     8.462357863533787E-1    8.072394482333996E-2    1.551518721665456E-1   -8.228826852228760E-2    1.553232053169764E-1   -8.237825702845510E-2    8.460201678328033E-1    8.075178363879604E-2
 5.744297167488408E5     8.465925902166693E-1    8.046329647458823E-2    1.547954330844744E-1   -8.204094960436011E-2    1.549586665840181E-1   -8.213056218518833E-2    8.463456796803334E-1    8.050637808637359E-2
 5.788125365877954E5     8.469334291650997E-1    8.020034431695137E-2    1.544368014712018E-1   -8.180035884705068E-2    1.546078844382168E-1   -8.188646762598480E-2    8.467068389674464E-1    8.025446272092458E-2
 5.832287967401261E5     8.472900440365723E-1    7.995190085620832E-2    1.540758962276347E-1   -8.154987498633683E-2    1.542512379872417E-1   -8.164331119338175E-2    8.470607779082496E-1    8.000452981244750E-2
 5.876787523508312E5     8.476498749352241E-1    7.969600323742300E-2    1.537214437225382E-1   -8.130426319182693E-2    1.538896749257878E-1   -8.139164339119660E-2    8.474071638021226E-1    7.973328372400036E-2
 5.921626605116295E5     8.480091902792318E-1    7.941762461227642E-2    1.533806722292681E-1   -8.107011379099310E-2    1.535428959296936E-1   -8.115321378167661E-2    8.477402181935890E-1    7.948160688807558E-2
 5.966807802758140E5     8.483651663310515E-1    7.918413437561089E-2    1.530372769564187E-1   -8.082953943844476E-2    1.531916051116755E-1   -8.090687034535433E-2    8.481125717945182E-1    7.924856263490523E-2
 6.012333726732214E5     8.486774686190877E-1    7.892330563370133E-2    1.526846684945892E-1   -8.058685702623081E-2    1.528502249433316E-1   -8.067160650905492E-2    8.484255490389601E-1    7.899703026742971E-2
 6.058207007253073E5     8.490291930873637E-1    7.867934278845894E-2    1.523359289711001E-1   -8.034247185673307E-2    1.524990671089841E-1   -8.043213474885279E-2    8.487470172425621E-1    7.875402220845784E-2
 6.104430294603459E5     8.493584648476993E-1    7.843101167867622E-2    1.519945593290108E-1   -8.010477977470040E-2    1.521644227793139E-1   -8.020105687966296E-2    8.490938911725945E-1    7.850063678109641E-2
 6.151006259287392E5     8.496644105013113E-1    7.820172437348681E-2    1.516505595517050E-1   -7.986589527192318E-2    1.518164892670360E-1   -7.996320085958412E-2    8.494913893918126E-1    7.824116062683997E-2
 6.197937592184512E5     8.500187049792607E-1    7.794245677599738E-2    1.513103144722828E-1   -7.963047064506013E-2    1.514682594480236E-1   -7.972571204579368E-2    8.497924990055604E-1    7.799567943119411E-2
 6.245227004705463E5     8.503683239090594E-1    7.769052182656323E-2    1.509695252087589E-1   -7.939569467692452E-2    1.511317737538460E-1   -7.948389850538712E-2    8.501078844652099E-1    7.776062615922771E-2
 6.292877228948588E5     8.506866202993878E-1    7.744685188998721E-2    1.506327833509685E-1   -7.916783491770252E-2    1.507817064337539E-1   -7.925064198426447E-2    8.504495852333053E-1    7.751108296047438E-2
 6.340891017857760E5     8.510213429517471E-1    7.720424709562276E-2    1.502975607004935E-1   -7.893723231670595E-2    1.504398581384317E-1   -7.902057472808131E-2    8.507421823123426E-1    7.727174488085356E-2
 6.389271145381465E5     8.513307496415533E-1    7.695822696547208E-2    1.499584271470804E-1   -7.869855473985272E-2    1.501087643023178E-1   -7.879069152802140E-2    8.511194567941900E-1    7.702002602724931E-2
 6.438020406633007E5     8.516614031999501E-1    7.671467000215453E-2    1.496239264654057E-1   -7.846740360907908E-2    1.497692134434024E-1   -7.855682011182133E-2    8.514528889313501E-1    7.679095744555643E-2
 6.487141618052023E5     8.520196763645426E-1    7.646991174763511E-2    1.492948177830182E-1   -7.824262645669343E-2    1.494351011083799E-1   -7.832728622184969E-2    8.517772284151282E-1    7.653758981288740E-2
 6.536637617567203E5     8.523361276946797E-1    7.623603652596166E-2    1.489522219395029E-1   -7.801183279630573E-2    1.490989292613219E-1   -7.809822991191465E-2    8.521313412947316E-1    7.629188488747495E-2
 6.586511264760230E5     8.526651363261658E-1    7.601055847938001E-2    1.486162729471818E-1   -7.777636602822276E-2    1.487579724356257E-1   -7.785978554855964E-2    8.524409196548981E-1    7.606481350960383E-2
 6.636765441031042E5     8.529912398677397E-1    7.575977208545663E-2    1.482847815585401E-1   -7.755459165760169E-2    1.484302420828854E-1   -7.764572515155790E-2    8.527968195813448E-1    7.581511451815670E-2
 6.687403049764220E5     8.533322175562653E-1    7.551541752052526E-2    1.479543385909678E-1   -7.732726082131212E-2    1.480996970932316E-1   -7.742450026902258E-2    8.531135364743111E-1    7.558226924502011E-2
 6.738427016496789E5     8.536470158168872E-1    7.529256356097037E-2    1.476165686710549E-1   -7.709821560851972E-2    1.477687240632366E-1   -7.719582098066632E-2    8.534216723989607E-1    7.535766842338032E-2
 6.789840289087215E5     8.539636353836320E-1    7.505605100742702E-2    1.472855047671317E-1   -7.686764524568407E-2    1.474389614183441E-1   -7.697732573405533E-2    8.537713231797964E-1    7.511453418502528E-2
 6.841645837885707E5     8.543287445977942E-1    7.481838804530111E-2    1.469609939542401E-1   -7.665659640573265E-2    1.471112360240052E-1   -7.675697298396135E-2    8.541315697627094E-1    7.488275653740041E-2
 6.893846655905881E5     8.546594303652305E-1    7.457534071354438E-2    1.466314830211291E-1   -7.643211647905065E-2    1.467815069086969E-1   -7.654079763812452E-2    8.544441156166358E-1    7.464436521613363E-2
 6.946445758997592E5     8.549376706080140E-1    7.435993311286068E-2    1.463043226876008E-1   -7.621990921831222E-2    1.464508013693595E-1   -7.632023023535556E-2    8.547663776008552E-1    7.440239324431744E-2
 6.999446186021230E5     8.552767115569662E-1    7.412266790400880E-2    1.459743359771103E-1   -7.599266998978774E-2    1.461215127546151E-1   -7.610149955726289E-2    8.550828875948391E-1    7.417086795141158E-2
 7.052850999023273E5     8.556133113872761E-1    7.388148790493032E-2    1.456480581430777E-1   -7.577675914394952E-2    1.457909991982680E-1   -7.587726749239124E-2    8.553954122351490E-1    7.395362213996114E-2
 7.106663283413178E5     8.559511252735604E-1    7.364159326523342E-2    1.453231506421230E-1   -7.557461498048609E-2    1.454677650101565E-1   -7.566012238956761E-2    8.557222378370184E-1    7.373485371374787E-2
 7.160886148141696E5     8.562698753738976E-1    7.340585044889313E-2    1.449907529901866E-1   -7.535338980773577E-2    1.451383052459357E-1   -7.544892610041631E-2    8.560246065091711E-1    7.351604893390949E-2
 7.215522725880400E5     8.566066943937435E-1    7.318147956493302E-2    1.446657094601115E-1   -7.513793557208027E-2    1.448111324865732E-1   -7.522862508394065E-2    8.563137661430851E-1    7.328993258025150E-2
 7.270576173202734E5     8.569401449215830E-1    7.294834619463572E-2    1.443355939318308E-1   -7.491623380360778E-2    1.444875616770576E-1   -7.501889075122598E-2    8.566514744880839E-1    7.306716992469264E-2
 7.326049670766364E5     8.572444259216112E-1    7.270492962783469E-2    1.440147640400798E-1   -7.469969827425815E-2    1.441618704982983E-1   -7.480648568587304E-2    8.570091769028226E-1    7.282176008647541E-2
 7.381946423496918E5     8.575562576310106E-1    7.248817110842526E-2    1.436903729454991E-1   -7.449408949792888E-2    1.438283534119528E-1   -7.458423996358632E-2    8.573018878894565E-1    7.259937457653932E-2
 7.438269660773217E5     8.578617376137592E-1    7.228356708140704E-2    1.433639842118342E-1   -7.428015938567153E-2    1.435002243419714E-1   -7.437396828182968E-2    8.576143435241249E-1    7.237265990427695E-2
 7.495022636613748E5     8.582069528087580E-1    7.204068107064929E-2    1.430428506623964E-1   -7.406820923410835E-2    1.431697226712622E-1   -7.416032812812368E-2    8.579765595306377E-1    7.212911586025872E-2
 7.552208629864733E5     8.585133092370448E-1    7.181974845925963E-2    1.427204285590385E-1   -7.385276585005622E-2    1.428508174224667E-1   -7.394908707514629E-2    8.582792462674828E-1    7.191107241945358E-2
 7.609830944389519E5     8.588354487044606E-1    7.157706186740610E-2    1.423939577766734E-1   -7.363626578007040E-2    1.425275218671649E-1   -7.373747842694837E-2    8.585956307292331E-1    7.169973610913086E-2
 7.667892909259528E5     8.591736567218025E-1    7.135270905887102E-2    1.420675571990547E-1   -7.342584662303418E-2    1.422042675154924E-1   -7.353013730837835E-2    8.589082558628339E-1    7.147388394807468E-2
 7.726397878946491E5     8.594648048331971E-1    7.114446993405098E-2    1.417444841902988E-1   -7.321296063398601E-2    1.418779824814652E-1   -7.331350116068114E-2    8.592094163678982E-1    7.127181597836287E-2
 7.785349233516312E5     8.597626225558225E-1    7.092532702437786E-2    1.414154552368148E-1   -7.299590520567524E-2    1.415527022039277E-1   -7.309554884844227E-2    8.595367353079612E-1    7.103209434616076E-2
 7.844750378824320E5     8.600631305810871E-1    7.070640109026589E-2    1.410945808632670E-1   -7.277706423733073E-2    1.412283071651935E-1   -7.288420527864899E-2    8.598419720405908E-1    7.081285806033379E-2
 7.904604746712097E5     8.603771114113724E-1    7.046169988374257E-2    1.407744586807931E-1   -7.257016814446741E-2    1.409056806222856E-1   -7.267695504006222E-2    8.601556495727750E-1    7.059707657087232E-2
 7.964915795205662E5     8.607346793754235E-1    7.023035370470188E-2    1.404544560064994E-1   -7.236058389314985E-2    1.405895238804787E-1   -7.246512230271408E-2    8.604980985616102E-1    7.035901705757472E-2
 8.025687008715309E5     8.610243002773184E-1    6.999690203838015E-2    1.401302598192944E-1   -7.214417187142935E-2    1.402731310230290E-1   -7.225557645501156E-2    8.608108883698725E-1    7.014750839165834E-2
 8.086921898236905E5     8.613589223944336E-1    6.977871509297727E-2    1.398141927433268E-1   -7.193986146861719E-2    1.399489428596553E-1   -7.203660113530211E-2    8.611607582151627E-1    6.990500076113720E-2
 8.148624001554718E5     8.616823883347126E-1    6.955397838106257E-2    1.394966814951785E-1   -7.172395690189133E-2    1.396233328551461E-1   -7.182163724631213E-2    8.614705360328354E-1    6.966195621544789E-2
 8.210796883445872E5     8.619828635313956E-1    6.929477189475028E-2    1.391711426215484E-1   -7.150411406953398E-2    1.393060527240265E-1   -7.161334154347573E-2    8.617470198777766E-1    6.944659718506475E-2
 8.273444135886204E5     8.623191594985626E-1    6.907542514901742E-2    1.388641416340007E-1   -7.129712821953718E-2    1.389856108655352E-1   -7.140198492427335E-2    8.620691080533734E-1    6.920419587882871E-2
 8.336569378257846E5     8.626053703570642E-1    6.887364673847518E-2    1.385526864727065E-1   -7.109302109818048E-2    1.386767821340792E-1   -7.118731573579937E-2    8.623947330601690E-1    6.897548626036654E-2
 8.400176257558319E5     8.629270372341070E-1    6.862888390419800E-2    1.382360941804831E-1   -7.087013699192561E-2    1.383641399636474E-1   -7.097433192652020E-2    8.627108495245357E-1    6.875860311278169E-2
 8.464268448611222E5     8.632166586013230E-1    6.841608549703938E-2    1.379222632724508E-1   -7.065423115132199E-2    1.380477925595947E-1   -7.075915282329058E-2    8.629940521029170E-1    6.851812959497711E-2
 8.528849654278599E5     8.635511224009388E-1    6.817539437468624E-2    1.376092341329781E-1   -7.043943874662088E-2    1.377328863161873E-1   -7.055267292258044E-2    8.632955952052039E-1    6.828813136227777E-2
 8.593923605674774E5     8.638622817079584E-1    6.792108819205797E-2    1.373004144783239E-1   -7.022447998069671E-2    1.374230213876441E-1   -7.033349796798558E-2    8.635891570555929E-1    6.805980838170442E-2
 8.659494062381978E5     8.641583875768954E-1    6.768474792088097E-2    1.369888064880776E-1   -7.000281824814987E-2    1.371080354666887E-1   -7.012062272507071E-2    8.639055446178251E-1    6.782855924483026E-2
 8.725564812667536E5     8.644635137705592E-1    6.743101703916166E-2    1.366833280832863E-1   -6.979449844111241E-2    1.367984228834726E-1   -6.989616247940836E-2    8.641758124754951E-1    6.761742661795023E-2
 8.792139673702718E5     8.647523244462099E-1    6.722026685047196E-2    1.363769269659256E-1   -6.958899270191463E-2    1.364919030602059E-1   -6.969076260004611E-2    8.644919412836011E-1    6.741379284543007E-2
 8.859222491783336E5     8.650429919420323E-1    6.701614649183742E-2    1.360707722350016E-1   -6.936932882083723E-2    1.361827878765528E-1   -6.947039942635991E-2    8.647790942050403E-1    6.717751877515120E-2
 8.926817142551860E5     8.653434175472794E-1    6.678436201101330E-2    1.357708490518788E-1   -6.915461199611385E-2    1.358845992405565E-1   -6.925591734832803E-2    8.650518985545667E-1    6.694454048445153E-2
 8.994927531221397E5     8.655979008075603E-1    6.653782641712701E-2    1.354583706741207E-1   -6.894237253498131E-2    1.355820329454324E-1   -6.904932690154229E-2    8.653955648283044E-1    6.670693630246112E-2
 9.063557592801275E5     8.658916687593848E-1    6.632123460074239E-2    1.351595833479514E-1   -6.872333182140909E-2    1.352773823373676E-1   -6.883556321376168E-2    8.656548430056035E-1    6.649622046283990E-2
 9.132711292324457E5     8.661922281154307E-1    6.609445246474421E-2    1.348680103947495E-1   -6.851910270679300E-2    1.349844612691557E-1   -6.862561107878715E-2    8.659669067188557E-1    6.625329156206800E-2
 9.202392625076511E5     8.664683073317738E-1    6.587561562529054E-2    1.345701027354720E-1   -6.829822713946992E-2    1.346836231777421E-1   -6.841518801260428E-2    8.662692819496295E-1    6.603442462361571E-2
 9.272605616826499E5     8.667469653013846E-1    6.564686273053605E-2    1.342769260060911E-1   -6.809308242738384E-2    1.343930655723352E-1   -6.820933773143502E-2    8.665688238097289E-1    6.579590093874568E-2
 9.343354324059531E5     8.670746905404875E-1    6.539733738690399E-2    1.339840770670034E-1   -6.788098584631812E-2    1.340932721417137E-1   -6.799354412587470E-2    8.668402290829775E-1    6.557699321482974E-2
 9.414642834211199E5     8.673715079879882E-1    6.518150695908319E-2    1.336936345803136E-1   -6.766989277770694E-2    1.337944285274986E-1   -6.778268718102939E-2    8.671230005590984E-1    6.533457904060347E-2
 9.486475265903610E5     8.676434805755814E-1    6.495490540894802E-2    1.333985659545615E-1   -6.745868143817281E-2    1.335043429951807E-1   -6.757319630390457E-2    8.673937206478258E-1    6.510969385786927E-2
 9.558855769183410E5     8.679376533509143E-1    6.472614326585666E-2    1.331140704231719E-1   -6.725041280218579E-2    1.332105855181649E-1   -6.736190984321332E-2    8.676522831563476E-1    6.490556649997570E-2
 9.631788525761530E5     8.682119318558735E-1    6.450234916497244E-2    1.328224539086436E-1   -6.703910992413739E-2    1.329265759807168E-1   -6.716263065187465E-2    8.679600840726943E-1    6.468427542001068E-2
 9.705277749254764E5     8.684643404870331E-1    6.431253783207945E-2    1.325297083526349E-1   -6.683659591269486E-2    1.326340256331221E-1   -6.695309669907994E-2    8.682246921653101E-1    6.446875192732396E-2
 9.779327685429282E5     8.687272756206420E-1    6.408648842162060E-2    1.322493247438151E-1   -6.663103862326636E-2    1.323462431360530E-1   -6.674311039912319E-2    8.685448052045268E-1    6.425428422003245E-2
 9.853942612445805E5     8.690362458283369E-1    6.386678060827318E-2    1.319727203136420E-1   -6.642234764539591E-2    1.320623406044367E-1   -6.654136666348007E-2    8.688160996868770E-1    6.401401085458430E-2
 9.929126841106854E5     8.693143155418990E-1    6.360792763049898E-2    1.316871074112861E-1   -6.622622655246109E-2    1.317816361609954E-1   -6.634023689300353E-2    8.691274791538260E-1    6.379892825157049E-2
 1.000488471510578E6     8.696018830780956E-1    6.340157654051250E-2    1.314032198175297E-1   -6.603037522382152E-2    1.314997376914005E-1   -6.614030357870943E-2    8.694050019226872E-1    6.356147524402868E-2
 1.008122061127771E6     8.698759212841350E-1    6.318650247927764E-2    1.311224427862032E-1   -6.583289481346306E-2    1.312141266726857E-1   -6.593823783990140E-2    8.696965923607430E-1    6.334874144907453E-2
 1.015813893985245E6     8.701505542368169E-1    6.297001942928572E-2    1.308407510685238E-1   -6.562836544804532E-2    1.309353922403582E-1   -6.574280349936272E-2    8.699546702941378E-1    6.317053529908548E-2
 1.023564414470923E6     8.704322481090495E-1    6.272805000993537E-2    1.305578173346975E-1   -6.543241150539593E-2    1.306515329383674E-1   -6.554146795970547E-2    8.702052699942535E-1    6.294734378238534E-2
 1.031374070363347E6     8.706916383172417E-1    6.253122390415911E-2    1.302805863244913E-1   -6.523685928232636E-2    1.303721123441076E-1   -6.534509052848139E-2    8.704485086239712E-1    6.274153470829000E-2
 1.039243312857548E6     8.709736430408996E-1    6.230752076405412E-2    1.300031056790829E-1   -6.504747368997846E-2    1.300859263612666E-1   -6.514920882677658E-2    8.707208133078612E-1    6.252809845448179E-2
 1.047172596591111E6     8.712218052593939E-1    6.209900756148474E-2    1.297234645990301E-1   -6.485363190162176E-2    1.298044469329007E-1   -6.495438263490691E-2    8.710307392508626E-1    6.226601990429308E-2
 1.055162379670449E6     8.714804232794380E-1    6.188741344393230E-2    1.294424562363433E-1   -6.464904549842496E-2    1.295337665280207E-1   -6.476113849943660E-2    8.713288866838713E-1    6.205410376134384E-2
 1.063213123697260E6     8.717708480985396E-1    6.170417679622391E-2    1.291652914722704E-1   -6.446462165545623E-2    1.292536827984291E-1   -6.457611602658260E-2    8.715977462957043E-1    6.185592987818505E-2
 1.071325293795198E6     8.720233290267890E-1    6.148865753770205E-2    1.288911751001734E-1   -6.426633931542958E-2    1.289794489244543E-1   -6.437824340707614E-2    8.718914032722506E-1    6.163771719636763E-2
 1.079499358636750E6     8.723067848342470E-1    6.128796781134735E-2    1.286148979822188E-1   -6.407671613130787E-2    1.286995530723362E-1   -6.418192152095736E-2    8.721481453793162E-1    6.144539218806968E-2
 1.087735790470306E6     8.725728247238267E-1    6.109895375220797E-2    1.283404976600707E-1   -6.387878695626757E-2    1.284178747993810E-1   -6.399047727983448E-2    8.723855074493041E-1    6.124517468796434E-2
 1.096035065147453E6     8.728009949472483E-1    6.089600524007347E-2    1.280587136290164E-1   -6.369388673295424E-2    1.281425081986531E-1   -6.380081035050293E-2    8.726703757775208E-1    6.105578533456180E-2
 1.104397662150453E6     8.730701681686813E-1    6.067749897258425E-2    1.277842925638416E-1   -6.349803511087738E-2    1.278624672086634E-1   -6.361802396609409E-2    8.729523314581136E-1    6.083055674132927E-2
 1.112824064619953E6     8.733371381784251E-1    6.049170585536978E-2    1.275069463820505E-1   -6.331613092590709E-2    1.275839409918340E-1   -6.342727818904098E-2    8.732177635239773E-1    6.058889624658287E-2
 1.121314759382903E6     8.736203323231004E-1    6.028073236057513E-2    1.272313370765415E-1   -6.312783622778291E-2    1.273073312332247E-1   -6.324015274052211E-2    8.734727205835804E-1    6.038791319405734E-2
 1.129870236980669E6     8.738959257782435E-1    6.007322797936194E-2    1.269563589184348E-1   -6.294281120138973E-2    1.270284183195602E-1   -6.305051095303207E-2    8.737611118170154E-1    6.019647441499263E-2
 1.138490991697383E6     8.741582596915271E-1    5.986740756962026E-2    1.266805272608498E-1   -6.276254019052785E-2    1.267496420015651E-1   -6.286250248954434E-2    8.740260372733135E-1    5.998530884600733E-2
 1.147177521588496E6     8.744212517447082E-1    5.967813164363712E-2    1.264056586264503E-1   -6.256172681277047E-2    1.264793094582377E-1   -6.267373349606531E-2    8.743057842430855E-1    5.973701036075441E-2
 1.155930328509552E6     8.746868647347910E-1    5.947862586108507E-2    1.261276441804453E-1   -6.237544751277718E-2    1.262003661135851E-1   -6.248583907362053E-2    8.745637325698836E-1    5.957904357721625E-2
 1.164749918145190E6     8.749595402694395E-1    5.923445163872212E-2    1.258528141317810E-1   -6.219411970894089E-2    1.259255772410833E-1   -6.229759066315028E-2    8.748436052909448E-1    5.937281260473557E-2
 1.173636800038349E6     8.752150091954256E-1    5.902810445606915E-2    1.255712036530245E-1   -6.200898714103344E-2    1.256453155666682E-1   -6.211123212132674E-2    8.751046741955191E-1    5.914227493866665E-2
 1.182591487619709E6     8.754838709290087E-1    5.881774555084220E-2    1.252993035029048E-1   -6.181880330540062E-2    1.253702472852598E-1   -6.192041997400315E-2    8.753687507358098E-1    5.895639669530684E-2
 1.191614498237359E6     8.757361170745636E-1    5.861494544962974E-2    1.250203023546484E-1   -6.162721633937458E-2    1.250933507764682E-1   -6.173141989669448E-2    8.756357147535190E-1    5.874849842112436E-2
 1.200706353186678E6     8.759944636182809E-1    5.841274278494729E-2    1.247538830493075E-1   -6.143871501522169E-2    1.248133312793616E-1   -6.154384442845987E-2    8.759047926021267E-1    5.853104654138336E-2
 1.209867577740467E6     8.762774877227857E-1    5.819511995191728E-2    1.244746430882887E-1   -6.125645005138045E-2    1.245448496304255E-1   -6.135342479271273E-2    8.761477244397958E-1    5.835958262718473E-2
 1.219098701179276E6     8.765650524655100E-1    5.799589441481821E-2    1.242081120307526E-1   -6.106298641780733E-2    1.242716327168048E-1   -6.116079323060742E-2    8.764341734575519E-1    5.815922249772252E-2
 1.228400256821998E6     8.768059792235433E-1    5.780100460284646E-2    1.239365514218429E-1   -6.087369206856568E-2    1.239959373808125E-1   -6.097388587042416E-2    8.766905742026733E-1    5.793160024681943E-2
 1.237772782056674E6     8.771043302048025E-1    5.758674053103596E-2    1.236671589591643E-1   -6.068251203988036E-2    1.237202263111230E-1   -6.078624112012534E-2    8.769402552575779E-1    5.771676796106433E-2
 1.247216818371540E6     8.773527130980869E-1    5.738042174881577E-2    1.233978367273138E-1   -6.049116182607042E-2    1.234602312281072E-1   -6.059384167772480E-2    8.772387832046898E-1    5.753265370491072E-2
 1.256732911386322E6     8.776072766458509E-1    5.716402213213382E-2    1.231259533554285E-1   -6.030295868532037E-2    1.231929737422040E-1   -6.040060247580949E-2    8.774987049245379E-1    5.732364742392924E-2
 1.266321610883739E6     8.778628740274922E-1    5.697759749059735E-2    1.228566907556177E-1   -6.011402385781592E-2    1.229231701034024E-1   -6.020871934457259E-2    8.777466852546627E-1    5.713765613508417E-2
 1.275983470841281E6     8.781255363665939E-1    5.677399415077787E-2    1.225930875698601E-1   -5.992599261862221E-2    1.226495241518720E-1   -6.001944911730733E-2    8.780326512548687E-1    5.690665545404825E-2
 1.285719049463211E6     8.783911635677633E-1    5.659679795510197E-2    1.223296063626722E-1   -5.972896743782823E-2    1.223816493895146E-1   -5.982726346237627E-2    8.782643538351369E-1    5.667441364924770E-2
 1.295528909212810E6     8.786496742464565E-1    5.633162852135554E-2    1.220626195201939E-1   -5.954305377741665E-2    1.221207734209529E-1   -5.963974919138618E-2    8.785088843881961E-1    5.648480585291947E-2
 1.305413616844883E6     8.788981367504645E-1    5.613934756617869E-2    1.217975315787093E-1   -5.934890888433074E-2    1.218609238219875E-1   -5.944599999938673E-2    8.787704192068910E-1    5.627394256047802E-2
 1.315373743438491E6     8.791511980476504E-1    5.591923939277822E-2    1.215402174915343E-1   -5.916281484398915E-2    1.216010061476088E-1   -5.925454766758169E-2    8.790274585005452E-1    5.606556599847325E-2
 1.325409864429950E6     8.793902765254364E-1    5.576112047318069E-2    1.212861570445836E-1   -5.896800149883059E-2    1.213362602163889E-1   -5.905916576859851E-2    8.792729209540929E-1    5.585521932815249E-2
 1.335522559646084E6     8.796408559485518E-1    5.550523976750233E-2    1.210267718325720E-1   -5.878283875933635E-2    1.210815629448141E-1   -5.887162868168717E-2    8.795063719567630E-1    5.565775269745967E-2
 1.345712413337699E6     8.798827813345607E-1    5.532254949637827E-2    1.207739462941544E-1   -5.859419015781470E-2    1.208247729730785E-1   -5.867989575568446E-2    8.797517009702869E-1    5.541066890817682E-2
 1.355980014213373E6     8.801263052715604E-1    5.513204552118901E-2    1.205185750804925E-1   -5.840462229732853E-2    1.205707761157705E-1   -5.848872829955270E-2    8.800310588386221E-1    5.519698138097128E-2
 1.366325955473440E6     8.803835610527563E-1    5.490473534518567E-2    1.202705373486867E-1   -5.821464012259066E-2    1.203212793431418E-1   -5.830123280750170E-2    8.802886695139955E-1    5.503136618230265E-2
 1.376750834844268E6     8.806298259047849E-1    5.467097349913921E-2    1.200186457662538E-1   -5.802391004227973E-2    1.200691825021937E-1   -5.811269435284708E-2    8.805116175886248E-1    5.483885796488561E-2
 1.387255254612807E6     8.808947229552996E-1    5.448499251962216E-2    1.197705762854847E-1   -5.784007683952476E-2    1.198250676896424E-1   -5.792538114980239E-2    8.808073197644727E-1    5.463974075996755E-2
 1.397839821661363E6     8.811059807608150E-1    5.430101671017214E-2    1.195196243915566E-1   -5.765349707588753E-2    1.195712692421716E-1   -5.773528137480702E-2    8.810254885386352E-1    5.440867057245169E-2
 1.408505147502673E6     8.813671439124029E-1    5.408705868416241E-2    1.192687342941232E-1   -5.746899121036086E-2    1.193189631710246E-1   -5.755003569159532E-2    8.812316831693332E-1    5.420280289624356E-2
 1.419251848315235E6     8.815949533154293E-1    5.388950651023067E-2    1.190282386289599E-1   -5.728878745739618E-2    1.190659145804361E-1   -5.736826408904297E-2    8.814774262623812E-1    5.399543263498453E-2
 1.430080544978898E6     8.818467363574204E-1    5.369282132267891E-2    1.187872743000853E-1   -5.709597485540923E-2    1.188299087013733E-1   -5.718430812610609E-2    8.817077794796224E-1    5.378111500890172E-2
 1.440991863110751E6     8.820333851913505E-1    5.347065142212282E-2    1.185323454671550E-1   -5.691538836737073E-2    1.185911631564842E-1   -5.700573745482557E-2    8.819615399540606E-1    5.358164457043182E-2
 1.451986433101243E6     8.822749325888906E-1    5.328243364288782E-2    1.182972106135989E-1   -5.673394972388911E-2    1.183449427021458E-1   -5.682398788500522E-2    8.822101074204171E-1    5.340920540640953E-2
 1.463064890150622E6     8.825328955569999E-1    5.309967139024667E-2    1.180510495204618E-1   -5.656142132495037E-2    1.180984812503903E-1   -5.664363797750781E-2    8.824422378363712E-1    5.321703402828635E-2
 1.474227874305625E6     8.827514944051343E-1    5.289290701071792E-2    1.178090073348442E-1   -5.637959087953716E-2    1.178598542497848E-1   -5.646129352719152E-2    8.826818489778461E-1    5.301346017997036E-2
 1.485476030496454E6     8.830008426338005E-1    5.267468640523661E-2    1.175675158089716E-1   -5.620282562517727E-2    1.176149022968117E-1   -5.628791285849796E-2    8.829156416747240E-1    5.279873611120452E-2
 1.496810008574050E6     8.832246661045443E-1    5.248529714201543E-2    1.173301188948088E-1   -5.602326422209656E-2    1.173786058955457E-1   -5.611022751990997E-2    8.831513549620555E-1    5.261151800893014E-2
 1.508230463347619E6     8.834744112947508E-1    5.228762729144622E-2    1.170858702608411E-1   -5.585735188523239E-2    1.171392487153573E-1   -5.593096195895258E-2    8.834287897758345E-1    5.243651395483063E-2
 1.519738054622472E6     8.837112368870124E-1    5.210684382198952E-2    1.168538787678969E-1   -5.567800938002456E-2    1.168992045994010E-1   -5.576162046108175E-2    8.836242948416441E-1    5.222766249359674E-2
 1.531333447238147E6     8.839355450230292E-1    5.191595070428219E-2    1.166103488269239E-1   -5.550289611890061E-2    1.166576612523266E-1   -5.558576118043985E-2    8.838748351070995E-1    5.204056624328986E-2
 1.543017311106810E6     8.841593798675371E-1    5.171244143240474E-2    1.163738601503295E-1   -5.533031174563397E-2    1.164224131454002E-1   -5.541031488546114E-2    8.840930201338952E-1    5.185472363053294E-2
 1.554790321251977E6     8.843797406400075E-1    5.151456559295702E-2    1.161305023283815E-1   -5.516421533830290E-2    1.161814717940554E-1   -5.523650116429463E-2    8.843521422977152E-1    5.165438844583753E-2
 1.566653157847488E6     8.846386850525272E-1    5.132574779665090E-2    1.158909910837506E-1   -5.499244702339924E-2    1.159403826458596E-1   -5.506695115466673E-2    8.845737930653647E-1    5.145813758770100E-2
 1.578606506256824E6     8.848515341360141E-1    5.111727940232458E-2    1.156479879027837E-1   -5.482195207082385E-2    1.156993248325815E-1   -5.489304477405348E-2    8.848000602361622E-1    5.125985255411280E-2
 1.590651057072690E6     8.850996088951032E-1    5.093339907674040E-2    1.154090690211623E-1   -5.464936587307810E-2    1.154598288119745E-1   -5.472240863371219E-2    8.850277792041514E-1    5.107035273691169E-2
 1.602787506156919E6     8.853476971550631E-1    5.076145442438902E-2    1.151717644670405E-1   -5.448237596416547E-2    1.152127688022249E-1   -5.454709006626654E-2    8.852289986272197E-1    5.086904317648075E-2
 1.615016554680682E6     8.855678770176489E-1    5.055476745895494E-2    1.149242064131378E-1   -5.430653812578692E-2    1.149817866779246E-1   -5.437719528425985E-2    8.854799377970420E-1    5.066844401952424E-2
 1.627338909164981E6     8.858002426886240E-1    5.035290448932674E-2    1.146908819282604E-1   -5.413741722798756E-2    1.147419427877767E-1   -5.420755613836951E-2    8.857339880351491E-1    5.048302566469265E-2
 1.639755281521474E6     8.860165466872096E-1    5.016556425999984E-2    1.144499536632981E-1   -5.396449324049245E-2    1.144998361493494E-1   -5.403423650412235E-2    8.859752951547093E-1    5.028978780716704E-2
 1.652266389093622E6     8.862719332837807E-1    4.996756106283153E-2    1.142205968379559E-1   -5.379590260148924E-2    1.142598845144189E-1   -5.386484297850515E-2    8.862061129327780E-1    5.010473556571567E-2
 1.664872954698102E6     8.864701009314150E-1    4.979479213973207E-2    1.139778093160525E-1   -5.362416719243911E-2    1.140218967614188E-1   -5.368909053462301E-2    8.864362241861800E-1    4.990452979277592E-2
 1.677575706666590E6     8.867161920644577E-1    4.958974568409594E-2    1.137364707787813E-1   -5.345374327668887E-2    1.137782627581055E-1   -5.352111889199025E-2    8.866539881013272E-1    4.970045722959845E-2
 1.690375378887833E6     8.869503149868985E-1    4.940006774440228E-2    1.135003170172740E-1   -5.328063813915957E-2    1.135468589619718E-1   -5.334777453294479E-2    8.868759145213185E-1    4.950531192976446E-2
 1.703272710850043E6     8.871781068934602E-1    4.920128490829732E-2    1.132605092892100E-1   -5.311518212362660E-2    1.133054955624513E-1   -5.317483437554066E-2    8.871169166509206E-1    4.932464157149710E-2
 1.716268447683636E6     8.874287030001456E-1    4.901631569534376E-2    1.130263001976707E-1   -5.293416358355963E-2    1.130660271533182E-1   -5.300134022719472E-2    8.873193330430762E-1    4.912989579108160E-2
 1.729363340204262E6     8.876490283321684E-1    4.881644873438783E-2    1.127933819577909E-1   -5.276395844221960E-2    1.128380594358395E-1   -5.282876373559790E-2    8.875809672983781E-1    4.893871969673693E-2
 1.742558144956193E6     8.878610771470455E-1    4.863361726045626E-2    1.125591844709261E-1   -5.258982276311722E-2    1.126011230646145E-1   -5.265599411431352E-2    8.878148409271738E-1    4.873882872032432E-2
 1.755853624256030E6     8.880545230689715E-1    4.841823128361171E-2    1.123243390747348E-1   -5.241901680549740E-2    1.123740038423943E-1   -5.248518497311165E-2    8.880476569198050E-1    4.854240562067187E-2
 1.769250546236744E6     8.883208414869215E-1    4.821577330332757E-2    1.120935190277638E-1   -5.224816499609422E-2    1.121440199954797E-1   -5.230905127189676E-2    8.882584826091213E-1    4.832706314992527E-2
 1.782749684892061E6     8.885249335864760E-1    4.801607581904576E-2    1.118613275814375E-1   -5.207693312238607E-2    1.119070494898822E-1   -5.213613176458905E-2    8.884869774289701E-1    4.813259902837910E-2
 1.796351820121167E6     8.887601621436862E-1    4.782839028409375E-2    1.116335120262233E-1   -5.189937593702164E-2    1.116781783914952E-1   -5.195504775580478E-2    8.886723707648244E-1    4.794152266071001E-2
 1.810057737773773E6     8.889479988632802E-1    4.762789640898391E-2    1.114022380213108E-1   -5.173001528192751E-2    1.114482942607854E-1   -5.178260112659321E-2    8.888945886416096E-1    4.773849584638984E-2
 1.823868229695514E6     8.892165913560237E-1    4.744304540150097E-2    1.111778907770486E-1   -5.155510450304037E-2    1.112276648845283E-1   -5.161412895725785E-2    8.891017514081552E-1    4.755315283580454E-2
 1.837784093773698E6     8.893790786765404E-1    4.722321036957747E-2    1.109577751093508E-1   -5.138363323567875E-2    1.109934187071491E-1   -5.143689742410918E-2    8.893370840657080E-1    4.735391504809449E-2
 1.851806133983411E6     8.895852168252513E-1    4.704649455740851E-2    1.107336095899713E-1   -5.121050660854033E-2    1.107740715772818E-1   -5.126630251700351E-2    8.895661719840693E-1    4.715821467329968E-2
 1.865935160433950E6     8.898199969741428E-1    4.684398229346747E-2    1.105154012705588E-1   -5.103929881242301E-2    1.105512150542501E-1   -5.109361772191410E-2    8.897689641744372E-1    4.697161913336959E-2
 1.880171989415638E6     8.900322641751046E-1    4.665923659821290E-2    1.102900994191961E-1   -5.086647824920973E-2    1.103253939209134E-1   -5.091787763228822E-2    8.899634113878296E-1    4.676014198768953E-2
 1.894517443446981E6     8.902684408677222E-1    4.646953625305283E-2    1.100699966879359E-1   -5.069214806456067E-2    1.101033261149367E-1   -5.074833991217042E-2    8.901626183512998E-1    4.656112765212576E-2
 1.908972351322182E6     8.904888411310555E-1    4.626373421414440E-2    1.098566235013495E-1   -5.052906018873411E-2    1.098834964881984E-1   -5.057616536201009E-2    8.903879768959460E-1    4.636814017949301E-2
 1.923537548159045E6     8.906777377826862E-1    4.607760129684173E-2    1.096497877680433E-1   -5.035964271306142E-2    1.096732280024506E-1   -5.040609139803130E-2    8.905842744510595E-1    4.618312280737588E-2
 1.938213875447196E6     8.908909267388042E-1    4.587287199539828E-2    1.094240203653952E-1   -5.019646612900547E-2    1.094517445718375E-1   -5.023877985180786E-2    8.908144500050408E-1    4.597478236040976E-2
 1.953002181096708E6     8.910589249711813E-1    4.567161169250614E-2    1.092045825180638E-1   -5.002749075017920E-2    1.092409913439464E-1   -5.007043933143909E-2    8.910142261488012E-1    4.578598351421744E-2
 1.967903319487111E6     8.912676007094683E-1    4.547038575443793E-2    1.089939063539490E-1   -4.986171350661224E-2    1.090295104591208E-1   -4.991028617367201E-2    8.912505837767409E-1    4.559634980480526E-2
 1.982918151516703E6     8.914783207217816E-1    4.529758718849582E-2    1.087785563848773E-1   -4.969464223384384E-2    1.088109051505824E-1   -4.974514299316034E-2    8.914646308068523E-1    4.540526139462215E-2
 1.998047544652348E6     8.917215020769187E-1    4.511188364160573E-2    1.085633217419579E-1   -4.953133710931810E-2    1.085966198840986E-1   -4.957742661704261E-2    8.916547915271693E-1    4.521718171499174E-2
 2.013292372979546E6     8.918988265482752E-1    4.491506474946796E-2    1.083535624077068E-1   -4.936922994064074E-2    1.083834122988673E-1   -4.941590204664902E-2    8.918809956560568E-1    4.501918807263348E-2
 2.028653517252947E6     8.920782229445149E-1    4.472213193660420E-2    1.081420016524607E-1   -4.921152063875894E-2    1.081723012006139E-1   -4.925119880214154E-2    8.920925913052751E-1    4.482947640448064E-2
 2.044131864947255E6     8.922666878299713E-1    4.453400913367675E-2    1.079238528184003E-1   -4.905023020080432E-2    1.079557854554736E-1   -4.908988255573770E-2    8.922815192549285E-1    4.464358779997901E-2
 2.059728310308467E6     8.924735391133043E-1    4.434708457287772E-2    1.077078193629806E-1   -4.888754657166237E-2    1.077421089464956E-1   -4.892709589200724E-2    8.924693505516537E-1    4.444823534827821E-2
 2.075443754405562E6     8.927002462095909E-1    4.416611874719602E-2    1.074987925604539E-1   -4.873111150062104E-2    1.075312241895868E-1   -4.876338091156562E-2    8.926821892700990E-1    4.427311865970539E-2
 2.091279105182548E6     8.929052545494357E-1    4.397640561553553E-2    1.072901916528919E-1   -4.856968285081995E-2    1.073216574040911E-1   -4.860762669848323E-2    8.928786024501834E-1    4.408239233213632E-2
 2.107235277510921E6     8.930641525623108E-1    4.380089194105708E-2    1.070780916903287E-1   -4.841099189307033E-2    1.071019559240137E-1   -4.844510765887914E-2    8.930684720238231E-1    4.388851172837513E-2
 2.123313193242529E6     8.932555754797962E-1    4.361542839330405E-2    1.068680972105122E-1   -4.825104717602719E-2    1.068896728566805E-1   -4.828537904872352E-2    8.932806539366415E-1    4.371770037643762E-2
 2.139513781262815E6     8.934402317356026E-1    4.342910911333611E-2    1.066571171591997E-1   -4.809765427585087E-2    1.066789394235802E-1   -4.812820574249640E-2    8.935011033230353E-1    4.352458248520025E-2
 2.155837977544490E6     8.937239065204918E-1    4.324557316193935E-2    1.064416300963046E-1   -4.794311644501700E-2    1.064626540881391E-1   -4.796233912628883E-2    8.936610903101118E-1    4.334528157527406E-2
 2.172286725201612E6     8.939425171467752E-1    4.307686986876130E-2    1.062346634945559E-1   -4.778544769270555E-2    1.062503367822641E-1   -4.780680578598336E-2    8.938808391114851E-1    4.316649611236258E-2
 2.188860974544063E6     8.940928798169416E-1    4.289744091336285E-2    1.060214855440730E-1   -4.762691141409420E-2    1.060396284664304E-1   -4.764389698724614E-2    8.940861812262779E-1    4.296785453568650E-2
 2.205561683132472E6     8.942978121657695E-1    4.271292042520410E-2    1.058093199883207E-1   -4.747440376628396E-2    1.058280085407732E-1   -4.748914235571315E-2    8.942849672946760E-1    4.277229728453631E-2
 2.222389815833514E6     8.945070607830724E-1    4.251484197377511E-2    1.055956670970309E-1   -4.731196846242938E-2    1.056174563165477E-1   -4.732697830763864E-2    8.945239980614453E-1    4.259847171207973E-2
 2.239346344875663E6     8.947148506683263E-1    4.234311019900956E-2    1.053840246204068E-1   -4.715688790996024E-2    1.054080185640966E-1   -4.716467030393751E-2    8.947352413224813E-1    4.240404729985776E-2
 2.256432249905369E6     8.948906145542791E-1    4.217473189683390E-2    1.051704244973244E-1   -4.699847249241901E-2    1.051903303899225E-1   -4.699216911311833E-2    8.949077789247614E-1    4.220686383942385E-2
 2.273648518043640E6     8.951278561362538E-1    4.198587246893751E-2    1.049599858569385E-1   -4.683961201889968E-2    1.049799018514052E-1   -4.683255699405661E-2    8.951319234940771E-1    4.201816037720723E-2
 2.290996143943099E6     8.953199246496442E-1    4.180670448623049E-2    1.047504885517872E-1   -4.669028833288005E-2    1.047722499430476E-1   -4.666517935017756E-2    8.953159922738401E-1    4.183634971383243E-2
 2.308476129845417E6     8.955447363270733E-1    4.163514311023989E-2    1.045465177545085E-1   -4.653593785762557E-2    1.045663643241144E-1   -4.650482919570743E-2    8.955198937697988E-1    4.162906813656821E-2
 2.326089485639235E6     8.957290741817402E-1    4.144882107947524E-2    1.043295306451890E-1   -4.637168395478290E-2    1.043646547423417E-1   -4.634282192627923E-2    8.956956938630767E-1    4.145223090593371E-2
 2.343837228918507E6     8.959520494690253E-1    4.128014421292941E-2    1.041231920167778E-1   -4.621122095368151E-2    1.041592965218499E-1   -4.617313685024962E-2    8.958701365963131E-1    4.127192635684021E-2
 2.361720385041283E6     8.961457924242294E-1    4.107728612339411E-2    1.039143806024836E-1   -4.605707736095412E-2    1.039599203933627E-1   -4.601078133792623E-2    8.960876795006660E-1    4.107248751853989E-2
 2.379739987188969E6     8.963273755567965E-1    4.092016306134218E-2    1.037109508014868E-1   -4.589377746339085E-2    1.037629854313918E-1   -4.584510671753804E-2    8.962417522290697E-1    4.089715002337034E-2
 2.397897076425990E6     8.965364709705558E-1    4.070751314592964E-2    1.035028121923294E-1   -4.573111749769555E-2    1.035636594180157E-1   -4.568540386469152E-2    8.964309186937477E-1    4.070525591164482E-2
 2.416192701759947E6     8.967208422716030E-1    4.051168807056661E-2    1.032986490730363E-1   -4.556838751644218E-2    1.033716695070066E-1   -4.552696400747567E-2    8.966538418632514E-1    4.052269542077019E-2
 2.434627920202243E6     8.968974290642086E-1    4.034433196104268E-2    1.030934098912335E-1   -4.540107874095053E-2    1.031751080637914E-1   -4.536631329999895E-2    8.968073297919904E-1    4.031940151953396E-2
 2.453203796829114E6     8.971090413165884E-1    4.015135784930131E-2    1.028948793745007E-1   -4.524013635922998E-2    1.029815268351726E-1   -4.521301601182929E-2    8.969981576926656E-1    4.012613200234579E-2
 2.471921404843189E6     8.973430333231153E-1    3.995341720938658E-2    1.026991813901709E-1   -4.507963075988767E-2    1.027861279687974E-1   -4.505410365683861E-2    8.971981561855156E-1    3.996736703244404E-2
 2.490781825635486E6     8.975255402468763E-1    3.975009850624678E-2    1.025041726190720E-1   -4.492365460201898E-2    1.025939136859040E-1   -4.490432164093131E-2    8.973936379130454E-1    3.976343574556408E-2
 2.509786148847881E6     8.978396886062406E-1    3.763587240337739E-2    1.029291307487534E-1   -4.431717252690692E-2    1.023392657415033E-1   -4.562894674856777E-2    8.979663729441969E-1    3.980483524167727E-2
 2.528935472436085E6     8.980840795332466E-1    3.766246228239981E-2    1.028032057644980E-1   -4.401547492138595E-2    1.021263048737959E-1   -4.550033534465990E-2    8.981152431813103E-1    3.960659691801643E-2
 2.548230902733043E6     8.983439065093572E-1    3.766828344088351E-2    1.026215888942072E-1   -4.385385837883099E-2    1.019145739860702E-1   -4.536853674850528E-2    8.983079140906495E-1    3.944466673856827E-2
 2.567673554512876E6     8.985293517739628E-1    3.739457261553103E-2    1.024392038274710E-1   -4.367752588455295E-2    1.017288556559707E-1   -4.519051407760018E-2    8.984790434715132E-1    3.925342904547614E-2
 2.587264551055275E6     8.987227336627186E-1    3.727279898406479E-2    1.022625514935578E-1   -4.351337195768504E-2    1.015355586733108E-1   -4.504179485929930E-2    8.986400519275268E-1    3.890168596890928E-2
 2.607005024210399E6     8.988980185318742E-1    3.711764196939904E-2    1.020737859088514E-1   -4.335335121730177E-2    1.013928227201868E-1   -4.481790921064519E-2    8.988225639049661E-1    3.885600849534959E-2
 2.626896114464281E6     8.991296441522438E-1    3.691719748482073E-2    1.018751177201837E-1   -4.323112349376241E-2    1.012157868733381E-1   -4.467172695053098E-2    8.990091342141248E-1    3.884160550091129E-2
 2.646938971004693E6     8.992114537601421E-1    3.647632612941176E-2    1.016891196880890E-1   -4.307323935091997E-2    1.010317829704357E-1   -4.450425716675006E-2    8.991776539478635E-1    3.847610603306596E-2
 2.667134751787555E6     8.994190026993889E-1    3.640497262021333E-2    1.014735072964409E-1   -4.295065791241449E-2    1.008753516381230E-1   -4.432175582452296E-2    8.993569635293318E-1    3.841230936781700E-2
 2.687484623603833E6     8.995932932741364E-1    3.605803216598728E-2    1.012983133901564E-1   -4.278958561243342E-2    1.007016855095558E-1   -4.415806524934208E-2    8.995982859566161E-1    3.833793579973242E-2
 2.707989762146940E6     8.997703218649016E-1    3.594695780895927E-2    1.010985367168162E-1   -4.265708989606124E-2    1.005289492481400E-1   -4.399781942852922E-2    8.997466193241104E-1    3.806113120748097E-2
 2.728651352080688E6     8.999768028408924E-1    3.590884298870794E-2    1.009230456620225E-1   -4.250168515785057E-2    1.003535107827218E-1   -4.382703607567895E-2    8.999545178995646E-1    3.783694012402230E-2
 2.749470587107692E6     9.001725040076517E-1    3.576507801716264E-2    1.007439329130369E-1   -4.233031173484334E-2    1.001740948337140E-1   -4.366530078109795E-2    9.001210456285880E-1    3.762853084521547E-2
 2.770448670038360E6     9.003354564984221E-1    3.559602048183134E-2    1.005419787572325E-1   -4.220545012164691E-2    9.999291663583430E-2   -4.351257695614517E-2    9.003103215238348E-1    3.756529509698205E-2
 2.791586812860380E6     9.005311818316556E-1    3.540569902603142E-2    1.003568059387666E-1   -4.204939584950377E-2    9.982295535643722E-2   -4.334305975298742E-2    9.004457419479156E-1    3.723634558933280E-2
 2.812886236808732E6     9.007929479399099E-1    3.536060678417608E-2    1.001855159846972E-1   -4.189642820191372E-2    9.963951357959536E-2   -4.319669043512383E-2    9.006510863850123E-1    3.702989418676377E-2
 2.834348172436268E6     9.009199567416087E-1    3.509801281381694E-2    9.999477595384379E-2   -4.174509875938227E-2    9.946095477076299E-2   -4.304234251640270E-2    9.008622217290623E-1    3.688138219253685E-2
 2.855973859684773E6     9.010969755585528E-1    3.481390990077606E-2    9.979980005823058E-2   -4.162381680928731E-2    9.928137747596887E-2   -4.289018856235345E-2    9.010287741962686E-1    3.665513900373406E-2
 2.877764547956619E6     9.012901133628909E-1    3.456041400262263E-2    9.963694037066181E-2   -4.144768601092758E-2    9.908667144380258E-2   -4.274021782329745E-2    9.011547744039577E-1    3.626364679859626E-2
 2.899721496186967E6     9.014862281583628E-1    3.451507332962730E-2    9.944176149818443E-2   -4.131451126015107E-2    9.893636152860773E-2   -4.256061900788908E-2    9.013590675195794E-1    3.622844021558802E-2
 2.921845972916440E6     9.016705136166062E-1    3.439562665851652E-2    9.926021400540759E-2   -4.115734709427208E-2    9.875567743554381E-2   -4.240419548730855E-2    9.015390347048163E-1    3.603816178039941E-2
 2.944139256364495E6     9.018470630363442E-1    3.426066732189801E-2    9.908625489915032E-2   -4.100225068957082E-2    9.857988509264651E-2   -4.225113981624411E-2    9.017239604702710E-1    3.588623224896065E-2
 2.966602634503201E6     9.019995722681645E-1    3.398687897940965E-2    9.888160152332089E-2   -4.087519696875064E-2    9.840318201658234E-2   -4.210212815268427E-2    9.019570312197914E-1    3.581232462998167E-2
 2.989237405131679E6     9.022108901575541E-1    3.387752292875111E-2    9.868984287913153E-2   -4.075006714389182E-2    9.823817013044313E-2   -4.193016330834276E-2    9.021614420711016E-1    3.574322294907117E-2
 3.012044875951098E6     9.022905954905519E-1    3.421797245804006E-2    9.853853488486813E-2   -4.085741557722524E-2    9.824274086513322E-2   -4.131929298886950E-2    9.023856310517847E-1    3.542969243067227E-2
 3.035026364640187E6     9.025353788587560E-1    3.414087456504660E-2    9.837641785014825E-2   -4.069836271498820E-2    9.804983943418868E-2   -4.118665284335069E-2    9.024966720499692E-1    3.510002952168029E-2
 3.058183198931389E6     9.027151574523661E-1    3.403431792601859E-2    9.819345417395246E-2   -4.055507245975094E-2    9.788516537301455E-2   -4.102720586980176E-2    9.027481561062198E-1    3.494713520257372E-2
 3.081516716687564E6     9.028512785151377E-1    3.385011976183189E-2    9.801921217668708E-2   -4.039037396109605E-2    9.771090252623753E-2   -4.088636047624584E-2    9.029363246923311E-1    3.480773150842752E-2
 3.105028265979277E6     9.030734989695550E-1    3.369781085818425E-2    9.785991257507666E-2   -4.023183157748729E-2    9.754258323083483E-2   -4.072319611746287E-2    9.030539846353285E-1    3.444887658074135E-2
 3.128719205162701E6     9.031788768099680E-1    3.343962116190639E-2    9.767074278933105E-2   -4.009940842408501E-2    9.736084890258802E-2   -4.058516833947540E-2    9.032284228919457E-1    3.425012558819065E-2
 3.152590902958065E6     9.033359751950523E-1    3.307932996518935E-2    9.749372913220164E-2   -3.996426262774284E-2    9.718337011230718E-2   -4.044221749620774E-2    9.033701249433140E-1    3.407436006883671E-2
 3.176644738528751E6     9.035429672085367E-1    3.300475526589188E-2    9.734064832904073E-2   -3.979168799711835E-2    9.701360422929084E-2   -4.028840844432144E-2    9.035476643122088E-1    3.384306041998560E-2
 3.200882101560967E6     9.037057979009057E-1    3.294568720727851E-2    9.716585592903459E-2   -3.963294163633085E-2    9.682999797665943E-2   -4.015916773511397E-2    9.036412361456154E-1    3.353621637550692E-2
 3.225304392344028E6     9.039191283238722E-1    3.283947883524187E-2    9.698806407148250E-2   -3.951239587928979E-2    9.667289813663237E-2   -4.000727831171216E-2    9.038527882659627E-1    3.331779625112215E-2
 3.249913021851289E6     9.040889135957458E-1    3.258639347666066E-2    9.682449514981362E-2   -3.935196595739393E-2    9.649788925004098E-2   -3.986091342526443E-2    9.040442307934128E-1    3.330749724248516E-2
 3.274709411821612E6     9.042102310984650E-1    3.206891459158789E-2    9.663889718488256E-2   -3.923832069528781E-2    9.633887202586237E-2   -3.969900904767806E-2    9.041702385170485E-1    3.299857840247220E-2
 3.299694994841541E6     9.043545059130527E-1    3.195961679285320E-2    9.647478303108811E-2   -3.909436891649275E-2    9.616115349205527E-2   -3.957051819857294E-2    9.042826713769280E-1    3.267402074474516E-2
 3.324871214428060E6     9.046081896901014E-1    3.180576658844855E-2    9.631831464442925E-2   -3.886158080203778E-2    9.593650458611995E-2   -3.951650534778834E-2    9.045508090630304E-1    3.282341950743534E-2
 3.350239525111979E6     9.047343869230219E-1    3.158676192268416E-2    9.614822392679978E-2   -3.871608476528626E-2    9.577138686858649E-2   -3.936595852870165E-2    9.046611388301471E-1    3.252519365165057E-2
 3.375801392522001E6     9.049055457915556E-1    3.147116842772622E-2    9.597754391332362E-2   -3.858695502227349E-2    9.559148466631173E-2   -3.922802598129760E-2    9.048280740733101E-1    3.239110129964502E-2
 3.401558293469354E6     9.050509421018933E-1    3.127147939218209E-2    9.579399677067640E-2   -3.853547230361194E-2    9.548265617522944E-2   -3.900192014423591E-2    9.050132017270134E-1    3.216309704010811E-2
 3.427511716033138E6     9.052652655946930E-1    3.109734766866866E-2    9.563386403735580E-2   -3.839582042365103E-2    9.531547622852553E-2   -3.886729027774105E-2    9.051179370251039E-1    3.186298489177251E-2
 3.453663159646295E6     9.054008068127880E-1    3.084436875706352E-2    9.546606978747479E-2   -3.825230232128134E-2    9.516440029736713E-2   -3.871142026607184E-2    9.053583032470872E-1    3.178485375998657E-2
 3.480014135182226E6     9.055766502252937E-1    3.087343217171218E-2    9.531544178507384E-2   -3.808455233812874E-2    9.498795813630660E-2   -3.858055467368420E-2    9.054960996078697E-1    3.154386104328720E-2
 3.506566165042107E6     9.057482016099030E-1    3.080597444618693E-2    9.514020402923289E-2   -3.800908441958915E-2    9.488176326423346E-2   -3.838109552972218E-2    9.057060796850445E-1    3.141540686350409E-2
 3.533320783242811E6     9.058779352649725E-1    3.051498516337074E-2    9.496396495105813E-2   -3.786433249831784E-2    9.471536454645807E-2   -3.823493967725571E-2    9.059797261377739E-1    3.149506692267225E-2
 3.560279535505542E6     9.060480702230641E-1    3.028369216515716E-2    9.480608941632993E-2   -3.772757074699509E-2    9.456190550950196E-2   -3.810226187753041E-2    9.060771625396019E-1    3.117062001389800E-2
 3.587443979345170E6     9.062403887475813E-1    3.018555107767762E-2    9.463454224354362E-2   -3.759421296841661E-2    9.438836482915895E-2   -3.795849146566739E-2    9.062121022855919E-1    3.091669447283714E-2
 3.614815684160168E6     9.064231943782305E-1    3.006630420699430E-2    9.447376562733203E-2   -3.744196586163828E-2    9.422584501933334E-2   -3.782237064906521E-2    9.063895831838350E-1    3.063044851402356E-2
 3.642396231323309E6     9.065882138727875E-1    2.975658580331464E-2    9.431265202077938E-2   -3.731201913096523E-2    9.405071379494466E-2   -3.769296711536654E-2    9.064828903748565E-1    3.029330122014460E-2
 3.670187214273024E6     9.068112531145052E-1    2.904417125818163E-2    9.413411199393078E-2   -3.683270713629968E-2    9.367739726316934E-2   -3.802393151297537E-2    9.065196858564258E-1    3.028288517432997E-2
 3.698190238605455E6     9.069421170303185E-1    2.875837111595641E-2    9.397386207800075E-2   -3.669531107385549E-2    9.348784991092536E-2   -3.789646521127536E-2    9.066759768597732E-1    2.998797259264790E-2
 3.726406922167240E6     9.071240101097879E-1    2.857889608680317E-2    9.382732784041202E-2   -3.654303078239547E-2    9.335606363751690E-2   -3.775020832722864E-2    9.069317035246107E-1    2.999570591175587E-2
 3.754838895148946E6     9.072760005181293E-1    2.847463735639445E-2    9.365678971240166E-2   -3.640821735009268E-2    9.319986031955053E-2   -3.760105734353412E-2    9.070828676198940E-1    2.975452446120459E-2
 3.783487800179276E6     9.073605259753317E-1    2.838163109435105E-2    9.351795093090425E-2   -3.634718389743887E-2    9.305327315415825E-2   -3.730307461434941E-2    9.071206923702073E-1    2.935195807832446E-2
 3.812355292419964E6     9.075775979336942E-1    2.831951973598109E-2    9.337116510825494E-2   -3.620459966411305E-2    9.289626431772174E-2   -3.717205509605640E-2    9.074007150864133E-1    2.937520010022019E-2
 3.841443039661395E6     9.076869294659582E-1    2.814602766566055E-2    9.320918671546634E-2   -3.604478869797260E-2    9.274418844460788E-2   -3.702600685428980E-2    9.075754263495937E-1    2.926998125470070E-2
 3.870752722418987E6     9.078556027340238E-1    2.803331341086962E-2    9.305190150064174E-2   -3.591396380502625E-2    9.258544190041144E-2   -3.688657755361714E-2    9.076952908187294E-1    2.906486481818961E-2
 3.900286034030236E6     9.079861113383828E-1    2.791503522521403E-2    9.291134993780839E-2   -3.575599431739052E-2    9.241544622643795E-2   -3.675928829212230E-2    9.078834779803977E-1    2.883061896701413E-2
 3.930044680752580E6     9.081815572048390E-1    2.769134411629097E-2    9.276364457720959E-2   -3.561235317354774E-2    9.224788028327294E-2   -3.663198284854978E-2    9.080158908635120E-1    2.861330877116603E-2
 3.960030381861967E6     9.083396827981972E-1    2.737084413726254E-2    9.260177686632205E-2   -3.548551661848302E-2    9.210884086054888E-2   -3.647806868974533E-2    9.081854172479440E-1    2.840744876580374E-2
 3.990244869752173E6     9.084647238413553E-1    2.716540931062948E-2    9.241144879989532E-2   -3.538042973090737E-2    9.194262870938665E-2   -3.635397106505719E-2    9.083400387106835E-1    2.825230324610574E-2
 4.020689890034929E6     9.085803255304750E-1    2.726160250370816E-2    9.227194342823480E-2   -3.541910772792827E-2    9.192552543075100E-2   -3.594944539422366E-2    9.085498307628250E-1    2.799311087654437E-2
 4.051367201640718E6     9.087608385036073E-1    2.713669081434643E-2    9.210056647229767E-2   -3.530558697778920E-2    9.176227807635953E-2   -3.583449366477797E-2    9.086541302420013E-1    2.776067828463646E-2
 4.082278576920427E6     9.089010012076110E-1    2.696267072418794E-2    9.195908719273838E-2   -3.515162090326787E-2    9.160533058811919E-2   -3.569618019411284E-2    9.088799078205253E-1    2.771103511769739E-2
 4.113425801747740E6     9.090692729229017E-1    2.688921787066604E-2    9.180020905705415E-2   -3.501412458855260E-2    9.145083959029310E-2   -3.557676613799932E-2    9.090066314281602E-1    2.739787941946911E-2
 4.144810675622302E6     9.091860831247630E-1    2.659866916636561E-2    9.164734235922478E-2   -3.488405893280019E-2    9.130400399589646E-2   -3.543064527360208E-2    9.092031413575646E-1    2.734580681781326E-2
 4.176435011773718E6     9.093501793329802E-1    2.654391921677536E-2    9.150380871224763E-2   -3.474564313362882E-2    9.116056430363544E-2   -3.528419184280620E-2    9.093720191086574E-1    2.719253723185822E-2
 4.208300637266261E6     9.095172346790535E-1    2.622178306048562E-2    9.132606053851526E-2   -3.462954800362876E-2    9.099209522487353E-2   -3.516513299806844E-2    9.093777952466617E-1    2.670447072705290E-2
 4.240409393104453E6     9.096592062692546E-1    2.607920839413531E-2    9.119540793888317E-2   -3.447312723088419E-2    9.085223058336017E-2   -3.501968966884507E-2    9.096711717243703E-1    2.685177095778164E-2
 4.272763134339464E6     9.098211044495128E-1    2.595888623332631E-2    9.105848177086102E-2   -3.433650598806663E-2    9.069118436489801E-2   -3.489838444114756E-2    9.097801017447122E-1    2.651415990673969E-2
 4.305363730176185E6     9.099567355905054E-1    2.568994096765330E-2    9.089550301699621E-2   -3.422121395879530E-2    9.053075907392102E-2   -3.477002655870079E-2    9.099191663303126E-1    2.628808879562671E-2
 4.338213064081349E6     9.100858113786203E-1    2.530971814683151E-2    9.075173597552713E-2   -3.401150445370581E-2    9.033694117203966E-2   -3.471585734126744E-2    9.100317359507404E-1    2.608493240038135E-2
 4.371313033892244E6     9.102195586600369E-1    2.506244627866709E-2    9.058872780344648E-2   -3.388830823471960E-2    9.017955797863225E-2   -3.459094810684677E-2    9.102377639109162E-1    2.603111075845417E-2
 4.404665551926396E6     9.103616637433296E-1    2.497511066170069E-2    9.043813774309653E-2   -3.374840322999070E-2    9.002081316779097E-2   -3.446141751665537E-2    9.103338726580411E-1    2.570943866841822E-2
 4.438272545092077E6     9.105248164467982E-1    2.479952886252667E-2    9.029562888402407E-2   -3.361360360695185E-2    8.987178325787720E-2   -3.433193069225961E-2    9.105713274057557E-1    2.567190668396236E-2
 4.472135954999580E6     9.106591083392679E-1    2.461839528458988E-2    9.014237089667680E-2   -3.348323329925505E-2    8.973799855655511E-2   -3.418576611680869E-2    9.106453129216461E-1    2.529724799536906E-2
 4.506257738073424E6     9.108191031492445E-1    2.450981523437844E-2    8.999345413594276E-2   -3.333845961476112E-2    8.956847093372061E-2   -3.407501316488964E-2    9.107134711972434E-1    2.491786413837698E-2
 4.540639865665382E6     9.109770725423034E-1    2.445796669113470E-2    8.985146825144744E-2   -3.328505752909949E-2    8.949338759560324E-2   -3.384553751530452E-2    9.109483883119128E-1    2.484561008650792E-2
 4.575284324168356E6     9.111373752715766E-1    2.418440010447203E-2    8.968834758903615E-2   -3.316683685948126E-2    8.936038340532496E-2   -3.370250197602438E-2    9.112056544792017E-1    2.480696341728161E-2
 4.610193115131186E6     9.112805342648265E-1    2.368062737033141E-2    8.951793148634321E-2   -3.285957981002479E-2    8.907102293692308E-2   -3.385061805482827E-2    9.112528285360922E-1    2.461966153216944E-2
 4.645368255374223E6     9.114118504023238E-1    2.346608451872070E-2    8.937483672284349E-2   -3.272669019684894E-2    8.891689929286987E-2   -3.373856272998587E-2    9.113749864219021E-1    2.438589541213359E-2
 4.680811777105891E6     9.115286317631430E-1    2.328884138038403E-2    8.923122871203000E-2   -3.258011617881158E-2    8.877837342604869E-2   -3.360864028687502E-2    9.115543390591120E-1    2.414804023034121E-2
 4.716525728040087E6     9.116750263965769E-1    2.306735177636510E-2    8.909097696734877E-2   -3.245964903617245E-2    8.864513555126975E-2   -3.346108243805696E-2    9.117473075740560E-1    2.418673494608395E-2
 4.752512171514469E6     9.118322183080969E-1    2.288492390038995E-2    8.895263152218270E-2   -3.232016666910152E-2    8.849256669980848E-2   -3.334743971595156E-2    9.119198202622043E-1    2.418282501628291E-2
 4.788773186609713E6     9.119676616359464E-1    2.269496387763041E-2    8.880523473451903E-2   -3.220212089684605E-2    8.833985031276124E-2   -3.322982709679109E-2    9.119554344331505E-1    2.360607332544044E-2
 4.825310868269563E6     9.122151029354132E-1    2.236168824473740E-2    8.863247589931779E-2   -3.198624724209691E-2    8.816877371120842E-2   -3.328957329614237E-2    9.121330589519063E-1    2.363136910353011E-2
 4.862127327421905E6     9.123348181353009E-1    2.210209622074217E-2    8.849414178929865E-2   -3.185391422171363E-2    8.803217354014428E-2   -3.314563967797378E-2    9.123402936876061E-1    2.358477073441119E-2
 4.899224691100715E6     9.124863111022865E-1    2.189523896330512E-2    8.834987615264545E-2   -3.172517905244978E-2    8.788554685014587E-2   -3.303298545244616E-2    9.124746233261511E-1    2.319496822807865E-2
 4.936605102568937E6     9.126037979608511E-1    2.172047728666434E-2    8.820806203835098E-2   -3.159111226676400E-2    8.776734922676335E-2   -3.287203104115607E-2    9.126000669193214E-1    2.319712400698051E-2
 4.974270721442348E6     9.127434813671094E-1    2.158955873344941E-2    8.806870052674307E-2   -3.144335627609121E-2    8.762756187951165E-2   -3.273925061193477E-2    9.127617756168953E-1    2.301203234927965E-2
 5.012223723814265E6     9.129099348202235E-1    2.139239571591258E-2    8.793483899965650E-2   -3.131574126065348E-2    8.747116931774047E-2   -3.263907570945274E-2    9.128685891950300E-1    2.270856408887344E-2
 5.050466302381308E6     9.130366971406065E-1    2.120810831776716E-2    8.779704233229889E-2   -3.117571815547320E-2    8.733643596038600E-2   -3.251534366054920E-2    9.130390723342467E-1    2.261945691579237E-2
 5.089000666570071E6     9.131567921570795E-1    2.097135039936794E-2    8.765564438313068E-2   -3.105507015821601E-2    8.719756161270119E-2   -3.238436824164583E-2    9.131392914182763E-1    2.240223235421372E-2
 5.127829042664761E6     9.132909061253194E-1    2.079972991709768E-2    8.752406908439363E-2   -3.092716618350013E-2    8.706621396459605E-2   -3.224997486067240E-2    9.133231054560897E-1    2.231001733311037E-2
 5.166953673935857E6     9.134519270778865E-1    2.061446338234933E-2    8.738675056843349E-2   -3.078970169288269E-2    8.692505026523877E-2   -3.212917974367729E-2    9.134351539112087E-1    2.202197908410092E-2
 5.206376820769652E6     9.135821910907111E-1    2.044500263843920E-2    8.723068228776554E-2   -3.067108395825304E-2    8.678371975992796E-2   -3.200708100288106E-2    9.135565795030542E-1    2.168629348746536E-2
 5.246100760798878E6     9.137119837490038E-1    2.023216345801040E-2    8.709087803945578E-2   -3.056063887059404E-2    8.663892721102151E-2   -3.190523407097849E-2    9.136655819885847E-1    2.144485416776494E-2
 5.286127789034322E6     9.138975362370169E-1    2.003121256891485E-2    8.694723718344453E-2   -3.043896393204944E-2    8.650086446729695E-2   -3.177016757219597E-2    9.138045779827780E-1    2.134701097135671E-2
 5.326460217997355E6     9.139481253222556E-1    2.056238105337787E-2    8.684547363655445E-2   -3.068961282101133E-2    8.662573409644939E-2   -3.106386241091618E-2    9.140267753503099E-1    2.089194143082046E-2
 5.367100377853584E6     9.140634307897516E-1    2.035587110154805E-2    8.671303098017788E-2   -3.055294886311894E-2    8.649238249536573E-2   -3.093526738629906E-2    9.141885438136534E-1    2.081160990288947E-2
 5.408050616547454E6     9.142208019423709E-1    2.021137438777606E-2    8.657927999480079E-2   -3.043401521318202E-2    8.634805504672367E-2   -3.082642267381468E-2    9.143529884896855E-1    2.066023375911073E-2
 5.449313299937895E6     9.142983732473030E-1    1.994589047921558E-2    8.644146822347919E-2   -3.029908322257047E-2    8.622480978730972E-2   -3.069130099595523E-2    9.144816710786401E-1    2.050965148798925E-2
 5.490890811935049E6     9.144357090504720E-1    1.904922669350777E-2    8.626199560166746E-2   -2.979093922167688E-2    8.583457216536448E-2   -3.113985077758478E-2    9.145477720749680E-1    2.041563600285445E-2
 5.532785554637930E6     9.145917914926844E-1    1.884827776892486E-2    8.612126919754361E-2   -2.966970992473417E-2    8.570069082748473E-2   -3.100334811242811E-2    9.146548723378736E-1    2.041282964641571E-2
 5.574999948473252E6     9.147080315204809E-1    1.933181236388508E-2    8.603530046347377E-2   -2.991712181327029E-2    8.581179661763463E-2   -3.032383245491635E-2    9.148488158074826E-1    1.979020383222104E-2
 5.617536432335250E6     9.148373641294726E-1    1.916530528817483E-2    8.589484049655161E-2   -2.979548668180682E-2    8.569080439130580E-2   -3.018695132122850E-2    9.149966344125779E-1    1.962710758318858E-2
 5.660397463726575E6     9.150170823799212E-1    1.898301929325986E-2    8.577490890090156E-2   -2.966058637066551E-2    8.556162882701351E-2   -3.007117116891840E-2    9.151482834663373E-1    1.950894648093147E-2
 5.703585518900323E6     9.151928887517619E-1    1.803657787861846E-2    8.559196551271173E-2   -2.916820080224337E-2    8.517497244619210E-2   -3.050967532603660E-2    9.151610723144962E-1    1.952095182978134E-2
 5.747103093003022E6     9.153438040734813E-1    1.785559035584248E-2    8.545589522484334E-2   -2.904689833455947E-2    8.504504702798589E-2   -3.039674583470181E-2    9.153325358032749E-1    1.920494826182979E-2
 5.790952700218840E6     9.154154260739257E-1    1.762920674618710E-2    8.532095867818505E-2   -2.891529188274224E-2    8.491341389286521E-2   -3.027251321848544E-2    9.154059049790103E-1    1.896818670527537E-2
 5.835136873914825E6     9.155118329560712E-1    1.814444361673678E-2    8.525556885473101E-2   -2.915775167417950E-2    8.502923708980209E-2   -2.959463596320990E-2    9.156572431989104E-1    1.856025416377414E-2
 5.879658166787256E6     9.156420847305931E-1    1.797902194251003E-2    8.510757997036603E-2   -2.903945938270807E-2    8.490247055001367E-2   -2.945048641930352E-2    9.157328334522795E-1    1.834459607971693E-2
 5.924519151009166E6     9.157386990450150E-1    1.776632472033057E-2    8.497995047311517E-2   -2.890292191178636E-2    8.478882695370048E-2   -2.931173284392292E-2    9.158915920786280E-1    1.831632841530685E-2
 5.969722418378883E6     9.158872755689340E-1    1.757777132536690E-2    8.485979381635493E-2   -2.877943690490702E-2    8.465938068547736E-2   -2.919246901013805E-2    9.160727068468255E-1    1.803117195872524E-2
 6.015270580469812E6     9.160008322152627E-1    1.736798345470950E-2    8.472423936505277E-2   -2.867025818316944E-2    8.452260571052483E-2   -2.907873309083694E-2    9.161351644655673E-1    1.785914698964950E-2
 6.061166268781302E6     9.161121756986811E-1    1.717224666027017E-2    8.458527077850214E-2   -2.855237210640349E-2    8.439692949767579E-2   -2.896107127647674E-2    9.163071867732642E-1    1.736753142630533E-2
 6.107412134890671E6     9.162238946351452E-1    1.689328163841900E-2    8.445758292718228E-2   -2.838229056096617E-2    8.423157987422168E-2   -2.885555021923145E-2    9.164059815139085E-1    1.733905177551990E-2
 6.154010850606443E6     9.163671379174017E-1    1.668216626437871E-2    8.433657531322707E-2   -2.824995393657665E-2    8.410162620694855E-2   -2.872609517835802E-2    9.165285547586156E-1    1.714629807179925E-2
 6.200965108122637E6     9.164896460944728E-1    1.648848172117750E-2    8.420816114506711E-2   -2.813308463392224E-2    8.397485142165104E-2   -2.861168743536027E-2    9.166434248334333E-1    1.694785406224145E-2
 6.248277620174343E6     9.165863399108790E-1    1.625799507406744E-2    8.407635328141075E-2   -2.801856106815981E-2    8.385055595848367E-2   -2.847010960732426E-2    9.167851776138430E-1    1.674060409259303E-2
 6.295951120194497E6     9.167487824277563E-1    1.608991626855861E-2    8.395702857811109E-2   -2.787762411245981E-2    8.372636833153492E-2   -2.835097075854230E-2    9.168922823144726E-1    1.656544292389054E-2
 6.343988362471664E6     9.168925032738400E-1    1.593917172146381E-2    8.382837771540987E-2   -2.779490738527243E-2    8.364877468671468E-2   -2.819153594699179E-2    9.170242499423072E-1    1.632494315654027E-2
 6.392392122309345E6     9.170299375003507E-1    1.572824972655452E-2    8.370809367461306E-2   -2.767104096712755E-2    8.352910937892784E-2   -2.806876922325598E-2    9.171495287195822E-1    1.613353669326657E-2
 6.441165196186168E6     9.171434762474274E-1    1.551856854473371E-2    8.357322181069811E-2   -2.755560857726097E-2    8.340040022974179E-2   -2.794833797273545E-2    9.172739059474907E-1    1.594765848381436E-2
 6.490310401917514E6     9.172485449963341E-1    1.531676308828541E-2    8.345598968092130E-2   -2.743261502736827E-2    8.328665131407560E-2   -2.782137510729286E-2    9.174071173279384E-1    1.574119614342889E-2
 6.539830578818345E6     9.173894594302030E-1    1.510976027277063E-2    8.332663682328779E-2   -2.731615721566987E-2    8.316025551920805E-2   -2.770418164201803E-2    9.175207026553246E-1    1.534224093250538E-2
 6.589728587867169E6     9.174825371154268E-1    1.490491170171067E-2    8.320324516130585E-2   -2.718470983810663E-2    8.304315923470056E-2   -2.757407036030638E-2    9.176646819223832E-1    1.530894972503794E-2
 6.640007311871376E6     9.176203507226166E-1    1.469109426786371E-2    8.308072963284960E-2   -2.707782327035251E-2    8.291042131607511E-2   -2.745025162255800E-2    9.177368203794324E-1    1.511739405287867E-2
 6.690669655633785E6     9.177141248928508E-1    1.446842617206195E-2    8.295022538513683E-2   -2.695396350124206E-2    8.279290367232757E-2   -2.732913160879727E-2    9.178581078705090E-1    1.487812931709437E-2
 6.741718546120445E6     9.178394054973341E-1    1.427925320258971E-2    8.283838576444597E-2   -2.680974118142525E-2    8.267281324235400E-2   -2.720686097487477E-2    9.179564680899278E-1    1.468513060118635E-2
 6.793156932629797E6     9.179300333694325E-1    1.407233620835334E-2    8.271381215139008E-2   -2.669727280106169E-2    8.255288279626638E-2   -2.707521591614371E-2    9.180859195531338E-1    1.457116385899277E-2
 6.844987786962981E6     9.180054004781641E-1    1.388511512576495E-2    8.257987886341892E-2   -2.658019124421050E-2    8.243344570485538E-2   -2.696553817581561E-2    9.182225655295947E-1    1.441425888322641E-2
 6.897214103595586E6     9.181205196469869E-1    1.345295656441621E-2    8.246104491518740E-2   -2.635539701272080E-2    8.220978532152710E-2   -2.694294937807242E-2    9.183013541960079E-1    1.420098978466791E-2
 6.949838899850640E6     9.182079944820705E-1    1.322823790796577E-2    8.234635352320312E-2   -2.623056223507286E-2    8.208285378523035E-2   -2.681749689189428E-2    9.184485039299038E-1    1.403534849759202E-2
 7.002865216072913E6     9.183214962818709E-1    1.259763982103066E-2    8.219714701180332E-2   -2.593913321655546E-2    8.182973181019532E-2   -2.699731054620015E-2    9.184948483455448E-1    1.389259821403419E-2
 7.056296115804635E6     9.184487158051299E-1    1.239372406248949E-2    8.207528270976931E-2   -2.582165983682472E-2    8.171161065908590E-2   -2.688374486878316E-2    9.185915048582538E-1    1.364971730204507E-2
 7.110134685962399E6     9.186287873404604E-1    1.218698489737677E-2    8.195385973498218E-2   -2.570092386456926E-2    8.158852561253846E-2   -2.676439921593279E-2    9.186771013580765E-1    1.341455747885468E-2
 7.164384037015557E6     9.187941310525486E-1    1.193255076728633E-2    8.183441250905121E-2   -2.558367470817038E-2    8.147043170587887E-2   -2.664816532250762E-2    9.187937121261952E-1    1.320183051500736E-2
 7.219047303165923E6     9.188869924663402E-1    1.173047523981112E-2    8.172114186381509E-2   -2.546210241240979E-2    8.135933599288774E-2   -2.652639720667330E-2    9.189113470044148E-1    1.300086742181444E-2
 7.274127642528819E6     9.190231692101350E-1    1.151894650831104E-2    8.160553171064698E-2   -2.533460198592268E-2    8.124519062945706E-2   -2.640258342779786E-2    9.190562134126377E-1    1.275424048391298E-2
 7.329628237315600E6     9.191832939088610E-1    1.107179482350279E-2    8.145996322322964E-2   -2.513727388606464E-2    8.110624811154538E-2   -2.648362694527094E-2    9.192005721123346E-1    1.257964690020750E-2
 7.385552294017412E6     9.192872060549694E-1    1.087169128443454E-2    8.133746049075016E-2   -2.502137362156256E-2    8.098687530977716E-2   -2.636710960379671E-2    9.192914299504852E-1    1.235392516026233E-2
 7.441903043590503E6     9.193376728808412E-1    1.135397261718229E-2    8.128083413630158E-2   -2.521913017909800E-2    8.108438757095535E-2   -2.566145337710899E-2    9.194633465133712E-1    1.202743532017530E-2
 7.498683741642874E6     9.194693030799619E-1    1.116287199201195E-2    8.117437373988171E-2   -2.509628287901714E-2    8.097120702641716E-2   -2.553982128406760E-2    9.195811608272139E-1    1.180655933979559E-2
 7.555897668622349E6     9.195635822185995E-1    1.042145566834592E-2    8.102327540346468E-2   -2.473907862928526E-2    8.067034708546225E-2   -2.580930166783114E-2    9.196563760860991E-1    1.168613016013067E-2
 7.613548130006171E6     9.196816126429671E-1    1.017816763178726E-2    8.090424920172055E-2   -2.461000065840240E-2    8.055423382727192E-2   -2.568847269666923E-2    9.198022234669549E-1    1.147401302792451E-2
 7.671638456491867E6     9.200546135036201E-1    9.476216639797743E-3    8.070032575928265E-2   -2.432744046333224E-2    8.046403509705784E-2   -2.608847407530223E-2    9.198696164846600E-1    1.125723368175528E-2
 7.730172004189732E6     9.201797632091058E-1    9.260588658061680E-3    8.058957179277752E-2   -2.421222296859842E-2    8.035215905955392E-2   -2.597117966931124E-2    9.199371158940354E-1    1.102407048940691E-2
 7.789152154816771E6     9.203531052161217E-1    9.031057621665105E-3    8.047516045758332E-2   -2.408888266136061E-2    8.024010668695225E-2   -2.585505171166620E-2    9.200413938351524E-1    1.081128234202903E-2
 7.848582315891974E6     9.201722971099854E-1    9.281003543566126E-3    8.045017517486977E-2   -2.413326864020905E-2    8.009731540001126E-2   -2.520913408459181E-2    9.202231725778718E-1    1.059468941717365E-2
 7.908465920933248E6     9.202476497934012E-1    9.042328999238519E-3    8.033385250479036E-2   -2.401641027101186E-2    7.998252751480772E-2   -2.509612237601134E-2    9.203304614554634E-1    1.035491844792418E-2
 7.968806429655775E6     9.203534004856352E-1    8.822301682387771E-3    8.021978713257555E-2   -2.389226878653202E-2    7.987589273379737E-2   -2.498007514553091E-2    9.204379678392580E-1    1.012856336267955E-2
 8.029607328171868E6     9.204832057921554E-1    8.622321643365639E-3    8.010996174141839E-2   -2.377369326908853E-2    7.976150134597294E-2   -2.485412745885715E-2    9.205831783995901E-1    9.884225289279059E-3
 8.090872129192449E6     9.205617598843315E-1    8.406779795374759E-3    7.999732258111943E-2   -2.365667165495909E-2    7.965013912043691E-2   -2.473686012964102E-2    9.206743118420982E-1    9.667732732636129E-3
 8.152604372229892E6     9.207001875206205E-1    8.140206130231082E-3    7.988926479785956E-2   -2.353737819718219E-2    7.954185246015988E-2   -2.462024435041309E-2    9.207551354154037E-1    9.428916025966979E-3
 8.214807623802581E6     9.207911066476886E-1    7.917855740333235E-3    7.978015739786433E-2   -2.341983172315641E-2    7.943127230746376E-2   -2.450012504085947E-2    9.208582226800911E-1    9.240410585410292E-3
 8.277485477640945E6     9.208882592237974E-1    7.661471033937806E-3    7.966409661757000E-2   -2.329945657299266E-2    7.931779066605954E-2   -2.438337935980925E-2    9.209036970251698E-1    8.965542130542096E-3
 8.340641554895067E6     9.210035428786080E-1    7.438805297815492E-3    7.955249030503782E-2   -2.317835707124930E-2    7.921298831264703E-2   -2.426633067460308E-2    9.210926878910004E-1    8.733833396653538E-3
 8.404279504343957E6     9.211230519949418E-1    7.226735908296623E-3    7.945164979843000E-2   -2.305972483430514E-2    7.910306736411439E-2   -2.414918683213112E-2    9.211874002045308E-1    8.533178600826823E-3
 8.468403002606256E6     9.212037534372448E-1    6.982941627447309E-3    7.933584314889566E-2   -2.294297520103011E-2    7.899400863849682E-2   -2.403590728090627E-2    9.213035673323317E-1    8.265771176111563E-3
 8.533015754352720E6     9.212733320561703E-1    6.992892295150408E-3    7.925794067996972E-2   -2.292357493001021E-2    7.895791607977105E-2   -2.369869729572518E-2    9.214186694629229E-1    8.009140483656186E-3
 8.598121492520234E6     9.213802924736759E-1    6.728933462199945E-3    7.914883199738837E-2   -2.280427770242751E-2    7.885086785637836E-2   -2.357998655447106E-2    9.215447256852491E-1    7.815414753218482E-3
 8.663723978527457E6     9.218028168380349E-1    5.776209563904140E-3    7.892484873096768E-2   -2.242985677701611E-2    7.871303954561792E-2   -2.423154504535936E-2    9.215923417037690E-1    7.607524270766350E-3
 8.729827002492212E6     9.218917477674635E-1    5.570775693664865E-3    7.880962395962633E-2   -2.230972747956688E-2    7.860261413941234E-2   -2.411486977520391E-2    9.216952521591867E-1    7.364472519788444E-3
 8.796434383450346E6     9.220316595740785E-1    5.304164945796688E-3    7.870732279319871E-2   -2.219780074536646E-2    7.850123652604106E-2   -2.400339123037415E-2    9.218288670496136E-1    7.117225925670078E-3
 8.863549969576446E6     9.219550429205878E-1    5.329576654316238E-3    7.866309851154300E-2   -2.216316415958533E-2    7.833986667731779E-2   -2.355256247350449E-2    9.218959867521956E-1    6.898419852576836E-3
 8.931177638406139E6     9.220267833371603E-1    5.075048706753070E-3    7.855345606025027E-2   -2.204770774660010E-2    7.823422225442288E-2   -2.343567202130348E-2    9.220354113186122E-1    6.676098088102799E-3
 8.999321297060097E6     9.221378965035798E-1    4.827176037077018E-3    7.844783489399858E-2   -2.193123933304029E-2    7.812677911634804E-2   -2.332344138011658E-2    9.220927304654503E-1    6.409619086355881E-3
 9.067984882469844E6     9.222467754420979E-1    4.597664054256442E-3    7.835445648614790E-2   -2.181279380831509E-2    7.802352620283035E-2   -2.320451854962612E-2    9.222299677520331E-1    6.173701220757521E-3
 9.137172361605095E6     9.223463230643848E-1    4.349204983989025E-3    7.824650401065548E-2   -2.169736699395766E-2    7.791816455490071E-2   -2.308918879641191E-2    9.223548475595409E-1    5.948271568063795E-3
 9.206887731702998E6     9.223892260355796E-1    4.727245283329007E-3    7.821576168140869E-2   -2.181427258672097E-2    7.796459812093079E-2   -2.240988892406435E-2    9.224482943517001E-1    5.673052310116781E-3
 9.277135020499127E6     9.225226296219426E-1    4.464477317815411E-3    7.811873179569384E-2   -2.170511545408743E-2    7.786676027819264E-2   -2.229681707988897E-2    9.225820788609234E-1    5.398481913450067E-3
 9.347918286460072E6     9.226222828341619E-1    4.235764535972686E-3    7.801460922780312E-2   -2.158214166245871E-2    7.775888609484116E-2   -2.217422077496165E-2    9.227029854868307E-1    5.179209330231321E-3
 9.419241619017981E6     9.227035378551166E-1    3.995795962972254E-3    7.790795944013287E-2   -2.146446370377590E-2    7.766106581568399E-2   -2.206166611764962E-2    9.228342162247254E-1    4.906372904297952E-3
 9.491109138806809E6     9.227403440743199E-1    3.740219426096298E-3    7.780534780459707E-2   -2.134430854179513E-2    7.755738878392415E-2   -2.194419993752050E-2    9.228908362517402E-1    4.684334642687924E-3
 9.563524997900363E6     9.228326925166942E-1    3.461787103373773E-3    7.770677193698748E-2   -2.122615029524271E-2    7.745693731901492E-2   -2.182492799310564E-2    9.229527083408727E-1    4.452511053828827E-3
 9.636493380052259E6     9.229351142813409E-1    3.258959328503032E-3    7.759741885288245E-2   -2.110454551854394E-2    7.736072079796856E-2   -2.171310773632709E-2    9.231267833474945E-1    4.192947692209990E-3
 9.710018500937525E6     9.230502629818595E-1    2.998432304864668E-3    7.750207938610651E-2   -2.099490397757446E-2    7.725716659295299E-2   -2.159590323466043E-2    9.232226572724048E-1    3.941375674164548E-3
 9.784104608396223E6     9.232102112121228E-1    2.308318251945948E-3    7.735433997673005E-2   -2.071334344109841E-2    7.702484275325862E-2   -2.183604211105035E-2    9.233070702810697E-1    3.756974032387746E-3
 9.858755982678859E6     9.233246643566485E-1    2.050272310458102E-3    7.725578550889216E-2   -2.059435110278384E-2    7.692429186416282E-2   -2.172412571406089E-2    9.233631607460885E-1    3.500338563629821E-3
 9.933976936693633E6     9.234227540491681E-1    1.809913482633143E-3    7.715683322709177E-2   -2.047481162156854E-2    7.682642394870004E-2   -2.160863381127887E-2    9.235139232486446E-1    3.262383974437054E-3
 1.000977181625571E7     9.235233906420164E-1    1.540740141750743E-3    7.705439679822040E-2   -2.036271015568517E-2    7.672939326176105E-2   -2.149213558458967E-2    9.236114768537885E-1    3.013942576197985E-3
 1.008614500033817E7     9.235924067291729E-1    1.303642288390222E-3    7.695530153051278E-2   -2.024466690723659E-2    7.662844022762816E-2   -2.137748063116585E-2    9.236932790174196E-1    2.772178536837925E-3
 1.016310090132507E7     9.237350042361810E-1    1.069352889138977E-3    7.686121231452014E-2   -2.012998061827946E-2    7.653228987305706E-2   -2.126146339655179E-2    9.237598718647229E-1    2.513484678054999E-3
 1.024064396526634E7     9.237137657972260E-1    1.209158194205302E-3    7.680660744530966E-2   -2.016978391565272E-2    7.656524374242071E-2   -2.078814549815944E-2    9.238641253075797E-1    2.221320307134515E-3
 1.031877867213467E7     9.238741199406171E-1    9.454593394260646E-4    7.671018581838589E-2   -2.005518683260028E-2    7.646548032938344E-2   -2.067078270365416E-2    9.239586768702026E-1    1.952091244915870E-3
 1.039750953608436E7     9.239731141511410E-1    6.929790092083491E-4    7.660776362908839E-2   -1.994064487307217E-2    7.636970508385359E-2   -2.055734842145760E-2    9.241096473614254E-1    1.704086174211250E-3
 1.047684110571204E7     9.240590641879556E-1    4.376548838737316E-4    7.651574435499472E-2   -1.982269406572637E-2    7.627304321405831E-2   -2.043496821929996E-2    9.241990213918564E-1    1.447089415413713E-3
 1.055677796431950E7     9.241243110639724E-1    1.819264614752686E-4    7.641732205089033E-2   -1.970528686765391E-2    7.618187107024681E-2   -2.032150028151561E-2    9.243158257851134E-1    1.174705100957575E-3
 1.063732473017859E7     9.245753997110329E-1   -9.975580496503812E-4    7.617483182128414E-2   -1.928991607259382E-2    7.600532359652845E-2   -2.115206975480672E-2    9.243310235877429E-1    9.708882239234267E-4
 1.071848605679777E7     9.246572657418786E-1   -1.261501302087693E-3    7.607795371196972E-2   -1.917278054440480E-2    7.591260529890653E-2   -2.104450518258023E-2    9.244099404941801E-1    6.789023953215562E-4
 1.080026663319129E7     9.245517257484851E-1   -1.250266808738420E-3    7.604673640249428E-2   -1.912967374309113E-2    7.574722063553530E-2   -2.057314617325817E-2    9.245409394394615E-1    4.433172942062595E-4
 1.088267118414987E7     9.246783463899276E-1   -1.531026555759500E-3    7.594836135450442E-2   -1.901472326676533E-2    7.565876046535079E-2   -2.045879689863529E-2    9.246531536104844E-1    1.796356147080006E-4
 1.096570447051370E7     9.249543852439930E-1   -2.063676496236793E-3    7.579092576912948E-2   -1.882471788062483E-2    7.563002186617694E-2   -2.069931412961402E-2    9.247029818194689E-1   -8.253470699921654E-5
 1.104937128944762E7     9.250319271427238E-1   -2.340970659463442E-3    7.569633329601591E-2   -1.870880564888561E-2    7.554243654124483E-2   -2.059307839342147E-2    9.248165842352731E-1   -3.491438162197453E-4
 1.113367647471805E7     9.251491096667056E-1   -2.597429637361795E-3    7.560567251537709E-2   -1.859443075374370E-2    7.544532300709082E-2   -2.047598673333885E-2    9.248886295184140E-1   -5.991698772203340E-4
 1.121862489697252E7     9.249926392285528E-1   -1.693739907869014E-3    7.568352402751898E-2   -1.893045942498664E-2    7.559172460161477E-2   -1.922020839708749E-2    9.250251931466603E-1   -9.856620166728270E-4
 1.130422146402085E7     9.250848510608781E-1   -1.947849225970163E-3    7.558890366237574E-2   -1.880972510168416E-2    7.549703757324684E-2   -1.910820677626655E-2    9.251001935992408E-1   -1.298580954383320E-3
 1.139047112111875E7     9.251629407427872E-1   -2.216599806906256E-3    7.549452290140157E-2   -1.869021211834121E-2    7.540809320996940E-2   -1.898451172672588E-2    9.251817643435902E-1   -1.542666437876603E-3
 1.147737885125368E7     9.252809980493608E-1   -2.494126837471630E-3    7.540733905136837E-2   -1.857718955161619E-2    7.531302027230319E-2   -1.886990377253405E-2    9.253260817366483E-1   -1.814090133874596E-3
 1.156494967543242E7     9.253809635147340E-1   -2.765343942654295E-3    7.531646840668894E-2   -1.845998226927480E-2    7.521944318976097E-2   -1.875257401808681E-2    9.253231560430080E-1   -2.068061728726044E-3
 1.165318865297152E7     9.253853856753353E-1   -3.112362404149878E-3    7.522543115691455E-2   -1.829612448345538E-2    7.508907352212568E-2   -1.867033756906725E-2    9.254208314302681E-1   -2.300993354886585E-3
 1.174210088178934E7     9.257988890539143E-1   -4.517588488361340E-3    7.495878174548669E-2   -1.778551267085676E-2    7.481061352588710E-2   -1.967549371856769E-2    9.255134590549483E-1   -2.500513484538003E-3
 1.183169149870061E7     9.259090067920848E-1   -4.814790099334217E-3    7.486687972361349E-2   -1.767475686169261E-2    7.472454451558704E-2   -1.956809045435545E-2    9.256021653213841E-1   -2.766454639710513E-3
 1.192196567971337E7     9.259496954120142E-1   -5.084229028921828E-3    7.477632322829769E-2   -1.755517426045106E-2    7.464107183781452E-2   -1.945462502617027E-2    9.257163682255788E-1   -3.020825474700384E-3
 1.201292864032780E7     9.260469688372018E-1   -5.367088045054258E-3    7.468261342744971E-2   -1.743895283406695E-2    7.455059125050774E-2   -1.934213616748122E-2    9.257928676256434E-1   -3.301355275355043E-3
 1.210458563583766E7     9.261083341491180E-1   -5.672937257495957E-3    7.459271274544342E-2   -1.732420131359895E-2    7.445941870497404E-2   -1.922819787770449E-2    9.258621737056270E-1   -3.602141225500804E-3
 1.219694196163385E7     9.261849288919098E-1   -5.961873345370653E-3    7.450262347314732E-2   -1.721095131904271E-2    7.437177765080816E-2   -1.911806343679671E-2    9.259474205507771E-1   -3.899503909269154E-3
 1.229000295351040E7     9.259411605293779E-1   -5.478841259401451E-3    7.455696668723114E-2   -1.730181226279836E-2    7.428197164747606E-2   -1.814382353918585E-2    9.260617606904928E-1   -4.206164836764610E-3
 1.238377398797275E7     9.260853037594964E-1   -5.778279475105790E-3    7.447087522368062E-2   -1.718756990111759E-2    7.419744563794516E-2   -1.802891456623586E-2    9.261853984628046E-1   -4.480999706112068E-3
 1.247826048254829E7     9.261430578427816E-1   -6.090267217533525E-3    7.438540653648705E-2   -1.707064462043340E-2    7.410680716253248E-2   -1.790879496281506E-2    9.262505815751133E-1   -4.742074329703175E-3
 1.257346789609938E7     9.264029809362566E-1   -5.837805186035309E-3    7.434213990269789E-2   -1.721789592553851E-2    7.428741211404521E-2   -1.745625981939308E-2    9.263420858924796E-1   -5.156135312772528E-3
 1.266940172913885E7     9.264765314085605E-1   -6.120325318312845E-3    7.425774894553577E-2   -1.709704340667994E-2    7.420071337582085E-2   -1.733187725797014E-2    9.264287898165579E-1   -5.432324274392506E-3
 1.276606752414753E7     9.265525759793631E-1   -6.444863244200595E-3    7.417331626179509E-2   -1.698069026420643E-2    7.411718557815958E-2   -1.721607667430382E-2    9.265207995969349E-1   -5.731511849568489E-3
 1.286347086589479E7     9.266436470872609E-1   -6.722454108040716E-3    7.408470827267684E-2   -1.686665223889430E-2    7.403403764636970E-2   -1.709848069096811E-2    9.265700088709320E-1   -6.044560134753564E-3
 1.296161738176090E7     9.267159579184332E-1   -7.010301599258545E-3    7.400166323698927E-2   -1.674618317397699E-2    7.394592980059622E-2   -1.698167621857112E-2    9.266484793520845E-1   -6.327270228257579E-3
 1.306051274206230E7     9.267621599829489E-1   -7.314336704768109E-3    7.391082888029119E-2   -1.663253095223903E-2    7.386301152270201E-2   -1.686752106156728E-2    9.267193392304800E-1   -6.621336327334353E-3
 1.316016266037924E7     9.268556520004712E-1   -7.594255361494911E-3    7.382816534005189E-2   -1.651315323560528E-2    7.377937887604499E-2   -1.674806957448368E-2    9.268146686199064E-1   -6.891462796800356E-3
 1.326057289388563E7     9.269001311976938E-1   -8.045645005557505E-3    7.374038849496393E-2   -1.631167127615710E-2    7.361585089055526E-2   -1.668953398431292E-2    9.269171005732791E-1   -7.135890488558312E-3
 1.336174924368203E7     9.269635233286218E-1   -8.334323909057801E-3    7.366084433409499E-2   -1.619254158548355E-2    7.353081236826808E-2   -1.656980005678357E-2    9.269981072100676E-1   -7.449065300270601E-3
 1.346369755513046E7     9.270893004877280E-1   -8.508894229278528E-3    7.358030717690857E-2   -1.616325159622331E-2    7.353031347635693E-2   -1.639624069192468E-2    9.270410512717199E-1   -7.783521035893333E-3
 1.356642371819227E7     9.271882652553751E-1   -8.810873703838613E-3    7.349934655652221E-2   -1.604396931301619E-2    7.345291726787581E-2   -1.628135211489953E-2    9.271657209608412E-1   -8.087175993294270E-3
 1.366993366776852E7     9.272928230036087E-1   -9.139083687101307E-3    7.341951402120844E-2   -1.592943720394841E-2    7.336712846535519E-2   -1.616064423986119E-2    9.272040479765626E-1   -8.414303997377378E-3
 1.377423338404255E7     9.273414096744149E-1   -9.436992913217503E-3    7.333624799434618E-2   -1.581100108671162E-2    7.328336148141341E-2   -1.604598289058269E-2    9.272738273889615E-1   -8.717593291764896E-3
 1.387932889282586E7     9.273631963803107E-1   -1.049533015687009E-2    7.315926427697478E-2   -1.536063008567328E-2    7.287594421840372E-2   -1.654919072760238E-2    9.273909236082697E-1   -8.864007114218132E-3
 1.398522626590596E7     9.277297654418175E-1   -1.132485577092122E-2    7.296502871131749E-2   -1.513516392689897E-2    7.287826489210041E-2   -1.705517135049393E-2    9.274699858143686E-1   -9.164558858407309E-3
 1.409193162139728E7     9.278149536054763E-1   -1.165840640398744E-2    7.288646361907310E-2   -1.501839377079734E-2    7.279917671642963E-2   -1.694446411476597E-2    9.275584756356435E-1   -9.465319280883336E-3
 1.419945112409473E7     9.276289701582461E-1   -1.148199258810455E-2    7.291623562664726E-2   -1.501266563310775E-2    7.263555008491700E-2   -1.620655847011222E-2    9.276574204450347E-1   -9.773470450277039E-3
 1.430779098582953E7     9.276944624725670E-1   -1.176904269466988E-2    7.283317462364164E-2   -1.489327786611730E-2    7.255706659986964E-2   -1.608977574904520E-2    9.277499665693051E-1   -1.008729769618099E-2
 1.441695746582855E7     9.277956990359819E-1   -1.209820987927464E-2    7.275551008824260E-2   -1.477788073243526E-2    7.247673926072382E-2   -1.597353537128584E-2    9.278256939100028E-1   -1.042107102763641E-2
 1.452695687107559E7     9.278859863391046E-1   -1.243131238674199E-2    7.267663747929125E-2   -1.466283275448120E-2    7.239897616306194E-2   -1.585793187759569E-2    9.278871772079723E-1   -1.072153499299455E-2
 1.463779555667585E7     9.279379487481537E-1   -1.272406174961105E-2    7.259550925893513E-2   -1.454690312993978E-2    7.231710857569718E-2   -1.574153334782208E-2    9.279731332096025E-1   -1.101740162292345E-2
 1.474947992622320E7     9.280090466363036E-1   -1.304959304845533E-2    7.251549919074789E-2   -1.443023936887323E-2    7.224385431913126E-2   -1.562626679777387E-2    9.280758817681338E-1   -1.132345456591800E-2
 1.486201643216998E7     9.280625397314165E-1   -1.297381823008598E-2    7.250932127493312E-2   -1.444200896809379E-2    7.229161319784311E-2   -1.508816246129416E-2    9.281761365347125E-1   -1.167568148301529E-2
 1.497541157619987E7     9.281334702181516E-1   -1.371400076920354E-2    7.236201892543814E-2   -1.418888217052148E-2    7.208732402902353E-2   -1.539103977284749E-2    9.282480086519032E-1   -1.195255675806847E-2
 1.508967190960350E7     9.281808879684795E-1   -1.405814109367791E-2    7.228242673712104E-2   -1.407432320704176E-2    7.201593205099738E-2   -1.527299950867446E-2    9.283461830498762E-1   -1.229130376405438E-2
 1.520480403365694E7     9.283039445211323E-1   -1.436926821875098E-2    7.220491234712786E-2   -1.395498394530914E-2    7.193543771155862E-2   -1.516103906898103E-2    9.283973461831315E-1   -1.260781579548838E-2
 1.532081460000315E7     9.283482856828670E-1   -1.469449431712647E-2    7.212606871845419E-2   -1.384217345459716E-2    7.185605772946259E-2   -1.504336974327917E-2    9.284489681408548E-1   -1.295095615767602E-2
 1.543771031103615E7     9.285133096302830E-1   -1.502031786798488E-2    7.205460496178082E-2   -1.372114792641252E-2    7.178122811132903E-2   -1.492766600322477E-2    9.285518406867946E-1   -1.328822769278796E-2
 1.555549792028828E7     9.285417440066045E-1   -1.535035515090727E-2    7.197662292094970E-2   -1.360412147785483E-2    7.170525398063585E-2   -1.481187953996474E-2    9.286092509064283E-1   -1.360804752967307E-2
 1.567418423282054E7     9.285294269954960E-1   -1.529098969258886E-2    7.197321344087963E-2   -1.361215053997814E-2    7.175500431333544E-2   -1.427004050661505E-2    9.286832295274249E-1   -1.397998264735729E-2
 1.579377610561541E7     9.286332091748395E-1   -1.561948600620443E-2    7.189099248304069E-2   -1.349403884391615E-2    7.167815157473183E-2   -1.414705624094680E-2    9.287308222458830E-1   -1.429391600906436E-2
 1.591428044797338E7     9.286744468462826E-1   -1.596298631090443E-2    7.181774856488057E-2   -1.337752718907859E-2    7.160289598615496E-2   -1.403412790952339E-2    9.287960906785493E-1   -1.466086091850078E-2
 1.603570422191187E7     9.287513303530497E-1   -1.630365679600178E-2    7.174308961909848E-2   -1.326003088512414E-2    7.152889403146491E-2   -1.391194541911031E-2    9.288502009474751E-1   -1.497289829873181E-2
 1.615805444256752E7     9.288471937697074E-1   -1.662223067386395E-2    7.166941779141715E-2   -1.313673547855033E-2    7.145575114424081E-2   -1.379339731472578E-2    9.289434119169387E-1   -1.529791551220332E-2
 1.628133817860163E7     9.288925217731737E-1   -1.698557721808509E-2    7.159751963545757E-2   -1.301890251005852E-2    7.138364941961274E-2   -1.367310042159272E-2    9.290312377367236E-1   -1.565321737987958E-2
 1.640556255260818E7     9.289763910771490E-1   -1.749630379745828E-2    7.149777849044017E-2   -1.284313137275031E-2    7.124771872737040E-2   -1.370981247110898E-2    9.291003672513040E-1   -1.596565566486030E-2
 1.653073474152580E7     9.290361357015302E-1   -1.786044543099227E-2    7.142561968512409E-2   -1.272633509650302E-2    7.117681390951464E-2   -1.358876053427738E-2    9.291691195179979E-1   -1.630672301046679E-2
 1.665686197705204E7     9.291290618286898E-1   -1.822533732156421E-2    7.135424771846362E-2   -1.260582572517241E-2    7.110666638579252E-2   -1.347033223990205E-2    9.292165555224573E-1   -1.666009510285930E-2
 1.678395154606132E7     9.291971075296859E-1   -1.856621583596183E-2    7.128202116972920E-2   -1.248641860003568E-2    7.103075721042687E-2   -1.335317082186996E-2    9.292534026761058E-1   -1.701096210623024E-2
 1.691201079102603E7     9.293126554866177E-1   -1.918141414272102E-2    7.116374961337538E-2   -1.229747418094612E-2    7.090815037380538E-2   -1.350970881580434E-2    9.293282343722863E-1   -1.735197426560972E-2
 1.704104711044038E7     9.293702472733720E-1   -1.952651831816674E-2    7.109102896868225E-2   -1.217973910891617E-2    7.083898382445467E-2   -1.339138039582401E-2    9.294078372909162E-1   -1.770493844864321E-2
 1.717106795924834E7     9.294529575388009E-1   -1.989874793889656E-2    7.102278599066283E-2   -1.205769531838672E-2    7.077047000144739E-2   -1.327157870621931E-2    9.295045900927724E-1   -1.803354395585478E-2
 1.730208084927390E7     9.298043921314311E-1   -2.071278404073758E-2    7.084322909566518E-2   -1.184823935971831E-2    7.081439483041377E-2   -1.381019659988459E-2    9.295582998812552E-1   -1.838417506747398E-2
 1.743409334965526E7     9.295618734587174E-1   -2.062383959114068E-2    7.088379794892906E-2   -1.181860956530980E-2    7.063469237843278E-2   -1.303967705832321E-2    9.296497224603508E-1   -1.873020876834864E-2
 1.756711308728221E7     9.296337096401482E-1   -2.101434900693321E-2    7.081178980095999E-2   -1.170100569801762E-2    7.056283542506388E-2   -1.292096464865269E-2    9.296843833888299E-1   -1.909893977101331E-2
 1.770114774723655E7     9.296835627187752E-1   -2.135073669592175E-2    7.074521406976310E-2   -1.157728808271921E-2    7.049665398373302E-2   -1.279825134044353E-2    9.297826538077693E-1   -1.944053872724127E-2
 1.783620507323623E7     9.298212204701799E-1   -2.097459026297373E-2    7.080187707392370E-2   -1.174988066120373E-2    7.073825888764654E-2   -1.199168092797710E-2    9.297801371264593E-1   -1.993981943667893E-2
 1.797229286808272E7     9.297947503855720E-1   -2.148317211399780E-2    7.071650628034475E-2   -1.155167451021041E-2    7.058982606858938E-2   -1.194084308096738E-2    9.298885910202039E-1   -2.021923949939595E-2
 1.810941899411174E7     9.298847156889410E-1   -2.169238153434894E-2    7.065929362395346E-2   -1.150802424512409E-2    7.060393166648896E-2   -1.174667450938951E-2    9.299136375104131E-1   -2.066768084076919E-2
 1.824759137364766E7     9.300026688955227E-1   -2.208184079594345E-2    7.059572443655592E-2   -1.138843273436744E-2    7.053548358259645E-2   -1.162638225714814E-2    9.299427860634112E-1   -2.107017737517734E-2
 1.838681798946100E7     9.300731031384424E-1   -2.243196104513387E-2    7.052950273008354E-2   -1.126479659327418E-2    7.046918961069926E-2   -1.150201873083517E-2    9.300289330225904E-1   -2.139866252643007E-2
 1.852710688522972E7     9.301400319951855E-1   -2.381569239050437E-2    7.029401341475189E-2   -1.081772876873269E-2    7.010460414274058E-2   -1.233335637779607E-2    9.301110851304903E-1   -2.165733560770215E-2
 1.866846616600409E7     9.301129068584044E-1   -2.395518041398805E-2    7.027370732922816E-2   -1.073218052514401E-2    7.003221215092109E-2   -1.195125969037527E-2    9.301593819373235E-1   -2.202632476862427E-2
 1.881090399867451E7     9.302136287277416E-1   -2.363410119176175E-2    7.032472130446635E-2   -1.086008752133398E-2    7.023674195411014E-2   -1.116541062869941E-2    9.302036682513787E-1   -2.251569238601371E-2
 1.895442861244394E7     9.302140175966157E-1   -2.404804811023887E-2    7.025644904847200E-2   -1.073658579170595E-2    7.017272337870187E-2   -1.104289400111407E-2    9.302735952763679E-1   -2.288072395550198E-2
 1.909904829930285E7     9.302735877102963E-1   -2.441921683427557E-2    7.019361042347290E-2   -1.061312193533320E-2    7.010859689833875E-2   -1.091410087772032E-2    9.303277101104149E-1   -2.323783561997925E-2
 1.924477141450845E7     9.303582935544016E-1   -2.482897289504979E-2    7.013370625021263E-2   -1.049377487618119E-2    7.004605790597850E-2   -1.079155719965403E-2    9.303921715945198E-1   -2.366263187820725E-2
 1.939160637706759E7     9.304007065315487E-1   -2.523256222712921E-2    7.006710912913375E-2   -1.036844053134907E-2    6.998055754648742E-2   -1.067010023333479E-2    9.304581230794428E-1   -2.403794073961927E-2
 1.953956167022271E7     9.304620309341999E-1   -2.562448337673662E-2    7.000575438470932E-2   -1.024486988757090E-2    6.991927077471938E-2   -1.054519414034865E-2    9.305092001176120E-1   -2.440886134788850E-2
 1.968864584194249E7     9.305326549041022E-1   -2.609880901096659E-2    6.993319280995132E-2   -1.008072191082299E-2    6.980812280116126E-2   -1.046595199745280E-2    9.305426826293597E-1   -2.481423946378848E-2
 1.983886750541528E7     9.306484666494960E-1   -2.732394602630860E-2    6.971477213581823E-2   -9.717957034181726E-3    6.953789443245950E-2   -1.123997533058183E-2    9.306015366307581E-1   -2.511921336813583E-2
 1.999023533954688E7     9.307136190229404E-1   -2.772516127920664E-2    6.964946560390009E-2   -9.596741074620290E-3    6.947760859716240E-2   -1.112139549555779E-2    9.306759718528760E-1   -2.550196655594691E-2
 2.014275808946211E7     9.307704939713063E-1   -2.813917819222548E-2    6.958890798393887E-2   -9.473613299480859E-3    6.941451182278227E-2   -1.100079828611273E-2    9.307362035384145E-1   -2.593231862830405E-2
 2.029644456700960E7     9.308140503921225E-1   -2.858185518678873E-2    6.952855049578395E-2   -9.353542896415051E-3    6.935778781516241E-2   -1.087828990564032E-2    9.308128077208877E-1   -2.628849288658735E-2
 2.045130365127147E7     9.308531621824444E-1   -2.896506910371568E-2    6.946811202657284E-2   -9.223570003050716E-3    6.929875583679065E-2   -1.075601946452615E-2    9.308502608015018E-1   -2.669024323440240E-2
 2.060734428907584E7     9.309539032401071E-1   -2.937315195855621E-2    6.940779841271633E-2   -9.104557287570389E-3    6.923835381268716E-2   -1.063045257006364E-2    9.308737927590930E-1   -2.708385751508789E-2
 2.076457549551392E7     9.309906800794003E-1   -2.979256084535025E-2    6.934529825519652E-2   -8.979775007111786E-3    6.918084476336267E-2   -1.050552539076458E-2    9.309308618681816E-1   -2.749060345914191E-2
 2.092300635446098E7     9.310262987395627E-1   -3.022282361722517E-2    6.928544628316338E-2   -8.857587842016889E-3    6.912221348173687E-2   -1.038118244770905E-2    9.309904310315451E-1   -2.788681366126089E-2
 2.108264601910070E7     9.310508134751144E-1   -3.065194998945236E-2    6.922524988519324E-2   -8.729528764877249E-3    6.906426018751999E-2   -1.026005617087303E-2    9.310465249488130E-1   -2.830640852553560E-2
 2.124350371245464E7     9.310912309594780E-1   -3.010057542372637E-2    6.934639938194467E-2   -8.900109656456136E-3    6.928868915466121E-2   -9.143300413568306E-3    9.310534487744332E-1   -2.886549207707220E-2
 2.140558872791451E7     9.311128095299176E-1   -3.052300113562397E-2    6.928758564803505E-2   -8.779464877506801E-3    6.923210521328678E-2   -9.013486098612153E-3    9.311199807278577E-1   -2.924854541736659E-2
 2.156891042977939E7     9.310655169217145E-1   -3.144805635897049E-2    6.914105405296729E-2   -8.444008490791050E-3    6.892324771431808E-2   -9.317296629842894E-3    9.312101917475850E-1   -2.957935414180525E-2
 2.173347825379676E7     9.311177401654847E-1   -3.189203789682499E-2    6.908653433524529E-2   -8.318420886501348E-3    6.886536685704361E-2   -9.193145532364763E-3    9.312543220728945E-1   -3.002194758674980E-2
 2.189930170770744E7     9.311605503704339E-1   -3.231691774095555E-2    6.902605571689818E-2   -8.189619218725913E-3    6.880757470861276E-2   -9.069980511369511E-3    9.312959590292861E-1   -3.043390963918927E-2
 2.206639037179505E7     9.311860129137471E-1   -3.272646647336241E-2    6.897126009607671E-2   -8.062223597529906E-3    6.875222414232761E-2   -8.939778149846379E-3    9.313346544948963E-1   -3.085942141543801E-2
 2.223475389943947E7     9.313697981017508E-1   -3.266318138688071E-2    6.900806848052139E-2   -8.143140290362410E-3    6.894718901163703E-2   -8.380838501024520E-3    9.313533469587767E-1   -3.139481801151831E-2
 2.240440201767448E7     9.314347089782394E-1   -3.309566936233423E-2    6.895437118888095E-2   -8.016194998475404E-3    6.888970104267687E-2   -8.251652989942371E-3    9.313961713063719E-1   -3.181265763884136E-2
 2.257534452774993E7     9.314648924178263E-1   -3.353940582198313E-2    6.889977282744622E-2   -7.883311465230925E-3    6.883755844914169E-2   -8.123460682214558E-3    9.314245651076559E-1   -3.225668493110446E-2
 2.274759130569773E7     9.315251460570898E-1   -3.401997767902479E-2    6.884457562093453E-2   -7.761279659569484E-3    6.878104853609965E-2   -7.994847347853603E-3    9.314806977952225E-1   -3.269528323984022E-2
 2.292115230290256E7     9.315521102888586E-1   -3.447103169179837E-2    6.879219388593012E-2   -7.629312574807464E-3    6.873251729984646E-2   -7.865300237693228E-3    9.315499706556147E-1   -3.312475708848019E-2
 2.309603754667697E7     9.315849281031510E-1   -3.489840716635587E-2    6.873891598069666E-2   -7.502187315462034E-3    6.867881858276478E-2   -7.736250788873455E-3    9.315840103429550E-1   -3.356237372492551E-2
 2.327225714084021E7     9.316188162219563E-1   -3.539244674544970E-2    6.868411944993061E-2   -7.372504159069246E-3    6.862302079442864E-2   -7.608274243320622E-3    9.316238646820263E-1   -3.400944980895253E-2
 2.344982126630262E7     9.315434893758170E-1   -3.619915832248291E-2    6.856836648320783E-2   -7.086994384392143E-3    6.838306935511959E-2   -7.748436263713151E-3    9.317364055158401E-1   -3.432722626611154E-2
 2.362874018165328E7     9.315632564083542E-1   -3.667640740253417E-2    6.851316906114821E-2   -6.956083774408728E-3    6.832581439959842E-2   -7.622090808520642E-3    9.317348665336188E-1   -3.479526194359766E-2
 2.380902422375290E7     9.316485435102849E-1   -3.752720474575690E-2    6.838218785313169E-2   -6.738564412323506E-3    6.818351308427668E-2   -7.962507064503120E-3    9.317994458754085E-1   -3.523056200376808E-2
 2.399068380833123E7     9.316971199073284E-1   -3.802202310650093E-2    6.833125111186221E-2   -6.610335244931557E-3    6.813126013273775E-2   -7.834262115742400E-3    9.318248675933880E-1   -3.568090469024168E-2
 2.417372943058824E7     9.317046276183129E-1   -3.804391193806608E-2    6.835996451406269E-2   -6.567164473549810E-3    6.816896179359107E-2   -7.231756745921160E-3    9.318718964520558E-1   -3.614980277095910E-2
 2.435817166580120E7     9.317295950234905E-1   -3.849592000575131E-2    6.830924268820061E-2   -6.438375486823539E-3    6.812003351205893E-2   -7.100186876265100E-3    9.319295190911338E-1   -3.661056942264975E-2
 2.454402116993507E7     9.318363637302064E-1   -3.938804043771259E-2    6.817895932697357E-2   -6.223033149050709E-3    6.798266446842428E-2   -7.446996169244947E-3    9.319724654959993E-1   -3.708190009822432E-2
 2.473128868025839E7     9.318563023800475E-1   -3.985486935974000E-2    6.812796654191453E-2   -6.093045258804152E-3    6.793223781978749E-2   -7.315618891415498E-3    9.319943155251924E-1   -3.752946457893130E-2
 2.491998501596375E7     9.318790429504373E-1   -4.034152619790096E-2    6.807786218864054E-2   -5.962875447567491E-3    6.788085523682963E-2   -7.187284182038997E-3    9.320370775831360E-1   -3.799662003512212E-2
 2.511012107879237E7     9.319543340695172E-1   -4.008555293668188E-2    6.817105565960348E-2   -6.064314542361502E-3    6.810567451620439E-2   -6.304622629573606E-3    9.319921892790869E-1   -3.859085701674823E-2
 2.530170785366461E7     9.319738804348768E-1   -4.056937503847056E-2    6.811805327283721E-2   -5.933328069231403E-3    6.805401615532734E-2   -6.166934099508531E-3    9.320205099848788E-1   -3.907606790309240E-2
 2.549475640931404E7     9.320203890729409E-1   -4.107457752043427E-2    6.806372138307343E-2   -5.798401114607742E-3    6.800030548513479E-2   -6.032544178238493E-3    9.320560614990805E-1   -3.953985824339435E-2
 2.568927789892715E7     9.320624298121938E-1   -4.155817216214507E-2    6.801630714055105E-2   -5.660498852235192E-3    6.795188735080340E-2   -5.897004072046358E-3    9.320900119365427E-1   -4.001079395021916E-2
 2.588528356078789E7     9.320412858298651E-1   -4.216058513545165E-2    6.794326634499444E-2   -5.450069052640944E-3    6.781690884392334E-2   -5.843325617578618E-3    9.321540618484430E-1   -4.047021185821314E-2
 2.608278471892660E7     9.321218854401537E-1   -4.253466688145224E-2    6.792197786761466E-2   -5.380532792054970E-3    6.785562080617187E-2   -5.613599838304218E-3    9.321531770545277E-1   -4.100095630246864E-2
 2.628179278377446E7     9.321591427030493E-1   -4.300550072306875E-2    6.788093733373350E-2   -5.239458064706898E-3    6.781456510218170E-2   -5.475495633420677E-3    9.321669915992109E-1   -4.148028683761833E-2
 2.648231925282269E7     9.320931006659734E-1   -4.386479047355927E-2    6.777262193562421E-2   -4.955598298475198E-3    6.759195029695741E-2   -5.622032033926264E-3    9.322792478326301E-1   -4.186136566426880E-2
 2.668437571128672E7     9.321200500048680E-1   -4.439329881091834E-2    6.773242828424968E-2   -4.821964639146104E-3    6.754849048801466E-2   -5.486519364914077E-3    9.323054625500015E-1   -4.234709225461779E-2
 2.688797383277575E7     9.321646734312965E-1   -4.489204072331947E-2    6.769032858802522E-2   -4.687417166165536E-3    6.750531721030856E-2   -5.352742608756133E-3    9.323101748963591E-1   -4.286785978730060E-2
 2.709312537996687E7     9.322247349995583E-1   -4.520699877239710E-2    6.769137912847024E-2   -4.626777411433173E-3    6.756985830551686E-2   -5.016053013833009E-3    9.323494606357359E-1   -4.341408320197167E-2
 2.729984220528475E7     9.322500305308775E-1   -4.571380431185870E-2    6.765026785600467E-2   -4.492771493074909E-3    6.752845693668427E-2   -4.883984957768044E-3    9.323577005685414E-1   -4.392420190973211E-2
 2.750813625158667E7     9.322740432047367E-1   -4.621333809337132E-2    6.760811797710405E-2   -4.352522523642780E-3    6.748762420011370E-2   -4.744927525229459E-3    9.324026406279721E-1   -4.441946341855741E-2
 2.771801955285188E7     9.323819995533912E-1   -4.754725230149475E-2    6.740960644479736E-2   -4.059630659423078E-3    6.730014578694789E-2   -5.571805792539937E-3    9.324354009340343E-1   -4.486764125178422E-2
 2.792950423487763E7     9.322630045463164E-1   -4.761559832522796E-2    6.745029363321713E-2   -3.977771381049856E-3    6.725265906959051E-2   -4.850749881041750E-3    9.324668708384722E-1   -4.538742287570936E-2
 2.814260251597910E7     9.323015715497526E-1   -4.819796503488031E-2    6.740934743661015E-2   -3.841880869710756E-3    6.721319655445870E-2   -4.714792397021237E-3    9.324989949221276E-1   -4.591431110906105E-2
 2.835732670769557E7     9.323304405901742E-1   -4.872079422278804E-2    6.737220266465624E-2   -3.707095552882084E-3    6.717495747258456E-2   -4.579639571319430E-3    9.325350641965595E-1   -4.641437577688617E-2
 2.857368921550186E7     9.324465412118960E-1   -4.876344782821757E-2    6.743500944250708E-2   -3.744265203425215E-3    6.736547117446574E-2   -3.974746781792643E-3    9.324931439714839E-1   -4.706025304593771E-2
 2.879170253952448E7     9.324570878819679E-1   -4.930541865431673E-2    6.740002498224887E-2   -3.603522694110914E-3    6.732407996903321E-2   -3.840073254907221E-3    9.325033113412994E-1   -4.761279313019361E-2
 2.901137927526460E7     9.324897407987628E-1   -4.985307206403482E-2    6.735778949686183E-2   -3.465603855200531E-3    6.728708457651379E-2   -3.699382931026214E-3    9.325267575195242E-1   -4.811073019843271E-2
 2.923273211432508E7     9.325249750305050E-1   -5.040772342942207E-2    6.732062603094706E-2   -3.329084940937765E-3    6.724720227957588E-2   -3.560417136072125E-3    9.325381752014795E-1   -4.866030025200355E-2
 2.945577384514398E7     9.325348639752031E-1   -5.093498559878742E-2    6.728247808479673E-2   -3.189025702335165E-3    6.720744550083291E-2   -3.422288108821078E-3    9.325553019659636E-1   -4.921256780582974E-2
 2.968051735373363E7     9.325635126380124E-1   -5.150225380308835E-2    6.724515186965117E-2   -3.049407624374808E-3    6.716934697188329E-2   -3.282453252142869E-3    9.325658490748554E-1   -4.974052585579482E-2
 2.990697562442441E7     9.324599172245008E-1   -5.233368184646171E-2    6.715809618867198E-2   -2.809733878716720E-3    6.700552841313516E-2   -3.315291615585450E-3    9.326376028452555E-1   -5.020656074300739E-2
 3.013516174061584E7     9.325003181614021E-1   -5.274948900620749E-2    6.714197121722551E-2   -2.702225516834906E-3    6.701659532739601E-2   -3.091061555157346E-3    9.326541584412728E-1   -5.078910778405339E-2
 3.036508888553168E7     9.324645052739926E-1   -5.342813308952664E-2    6.708207506063660E-2   -2.526010472441502E-3    6.693234596826267E-2   -3.035750164925943E-3    9.326691967177057E-1   -5.130825941311670E-2
 3.059677034298190E7     9.325156670166803E-1   -5.399301344520163E-2    6.705055837628367E-2   -2.386280902064044E-3    6.689583157673518E-2   -2.894239331346965E-3    9.326984442332658E-1   -5.188559500709584E-2
 3.083021949813037E7     9.327893013397306E-1   -5.558466929408980E-2    6.684461442293060E-2   -2.138993314176198E-3    6.696237967294738E-2   -4.060379701800506E-3    9.327106942487604E-1   -5.240584645482254E-2
 3.106544983826748E7     9.328089656189906E-1   -5.616990640532701E-2    6.681088659986543E-2   -2.000005304964106E-3    6.693087328088977E-2   -3.923279673723330E-3    9.327211680163922E-1   -5.292721320369762E-2
 3.130247495359022E7     9.326294281197686E-1   -5.552257384595231E-2    6.699574511182831E-2   -2.058323469768556E-3    6.691568180401926E-2   -2.292367365603123E-3    9.326681985002172E-1   -5.364430338705604E-2
 3.154130853798668E7     9.326275984093869E-1   -5.611874821036840E-2    6.695985904299866E-2   -1.917256778844084E-3    6.688250564250388E-2   -2.152435742511687E-3    9.326658470383163E-1   -5.423363692347214E-2
 3.178196438982744E7     9.326207995692199E-1   -5.669769900605606E-2    6.692627190326367E-2   -1.772041074819901E-3    6.685110752669138E-2   -2.009254550661601E-3    9.326887447173881E-1   -5.480591690958233E-2
 3.202445641276293E7     9.325814722710667E-1   -5.740609265750730E-2    6.686428961437611E-2   -1.565831108600052E-3    6.673930118584366E-2   -1.961181880183185E-3    9.327173982054274E-1   -5.535028220216587E-2
 3.226879861652631E7     9.326624987683679E-1   -5.790457749235872E-2    6.686130711668183E-2   -1.484753677342257E-3    6.678316004935574E-2   -1.722479930540223E-3    9.326822246290122E-1   -5.598562212148029E-2
 3.251500511774320E7     9.325879666884243E-1   -5.947356388707294E-2    6.665276760108028E-2   -1.155597887695496E-3    6.656887732995689E-2   -2.650734975195895E-3    9.327764994974991E-1   -5.641737516913604E-2
 3.276309014074709E7     9.326073641667343E-1   -6.006115962382155E-2    6.662076771990821E-2   -1.009422607730779E-3    6.653719858752261E-2   -2.507183572034122E-3    9.327794436029732E-1   -5.700180413080711E-2
 3.301306801840112E7     9.326094040333042E-1   -6.070549099443984E-2    6.658768181342362E-2   -8.703288695990430E-4    6.650809505058757E-2   -2.365724868063961E-3    9.327844132746371E-1   -5.758409402682815E-2
 3.326495319292643E7     9.326444177017633E-1   -6.130237113560731E-2    6.656111561974108E-2   -7.246690893352567E-4    6.647771443330402E-2   -2.222038986242039E-3    9.327790239403566E-1   -5.820196304747999E-2
 3.351876021673609E7     9.326683781447066E-1   -6.098396550561263E-2    6.670335944987826E-2   -7.597844646103217E-4    6.662209312572773E-2   -9.997668213012282E-4    9.327015192498795E-1   -5.896273656674289E-2
 3.377450375327612E7     9.326462453544800E-1   -6.159741119829754E-2    6.667102822340149E-2   -6.175107157611042E-4    6.659136188572050E-2   -8.475011049401790E-4    9.327164722279935E-1   -5.955697441011112E-2
 3.403219857787284E7     9.325623679305508E-1   -6.243954091559244E-2    6.658653813296031E-2   -3.773572264515088E-4    6.643654168789231E-2   -8.853591513211208E-4    9.327529788969874E-1   -6.008224328733099E-2
 3.429185957858586E7     9.325538080535125E-1   -6.307756450374499E-2    6.655555115554512E-2   -2.325626909725487E-4    6.640436916274749E-2   -7.363936857356862E-4    9.327437634994209E-1   -6.072610083576661E-2
 3.455350175706909E7     9.325392668431368E-1   -6.368866420280202E-2    6.652251373810120E-2   -8.974629315229078E-5    6.637025290225215E-2   -5.913226937335515E-4    9.327473340911194E-1   -6.129712186732138E-2
 3.481714022943672E7     9.325488835961917E-1   -6.507873434959456E-2    6.636902305977953E-2    1.373867895065905E-4    6.629522142315454E-2   -1.348488198199872E-3    9.327647353902798E-1   -6.188987736358487E-2
 3.508279022713681E7     9.325286213062696E-1   -6.574120368936896E-2    6.632747899013072E-2    2.835611663853468E-4    6.625698352415899E-2   -1.198688898488851E-3    9.327440429550629E-1   -6.249362073162339E-2
 3.535046709783159E7     9.325160029541248E-1   -6.637277809925123E-2    6.628878858000713E-2    4.364972879466835E-4    6.621640882106480E-2   -1.049943743705724E-3    9.327292996711046E-1   -6.314065218555616E-2
 3.562018630628331E7     9.324732578765660E-1   -6.704183551691796E-2    6.624158996250486E-2    5.931148725787109E-4    6.617389441195080E-2   -8.887120932564439E-4    9.327014032163039E-1   -6.377019964292201E-2
 3.589196343524875E7     9.324191998237416E-1   -6.766512550206409E-2    6.619608148444156E-2    7.693935954623378E-4    6.613067743232888E-2   -7.123599035378958E-4    9.326740668425628E-1   -6.437259353013444E-2
 3.616581418637872E7     9.324147767000928E-1   -6.826838783284758E-2    6.617696850608178E-2    9.641982188018808E-4    6.611367970097017E-2   -5.203537241251475E-4    9.326722152315501E-1   -6.496663764110028E-2
 3.644175438112541E7     9.324294061030383E-1   -6.892534289209479E-2    6.618012006821515E-2    1.138241832902267E-3    6.611941250772575E-2   -3.431140932996367E-4    9.326841469389903E-1   -6.560649312842834E-2
 3.671979996165685E7     9.323729136366019E-1   -6.911638927027655E-2    6.624231901650417E-2    1.273774003798543E-3    6.606884813014494E-2    4.103332317084679E-4    9.326874239090659E-1   -6.629491838786282E-2
 3.699996699177712E7     9.323713889348492E-1   -6.978126117116040E-2    6.623670932097238E-2    1.423090858989543E-3    6.606476564788322E-2    5.627940986363180E-4    9.326916677040864E-1   -6.693889895080106E-2
 3.728227165785540E7     9.323633667604949E-1   -7.047050205510828E-2    6.622625505259888E-2    1.573670146078666E-3    6.605403587520109E-2    7.123763800007878E-4    9.326942317107333E-1   -6.759735351713959E-2
 3.756673026976037E7     9.323528815778137E-1   -7.116344135807895E-2    6.621048232878235E-2    1.722514421768043E-3    6.603746143165559E-2    8.627212403684276E-4    9.326766080941361E-1   -6.825530747429098E-2
 3.785335926180276E7     9.325082834703475E-1   -7.136043490163976E-2    6.629797538491473E-2    1.745434218959166E-3    6.621700491944217E-2    1.515100490615071E-3    9.325719354251975E-1   -6.907204203660738E-2
 3.814217519368506E7     9.325208963532294E-1   -7.206117068625158E-2    6.628012899542290E-2    1.897726869165221E-3    6.620243812908921E-2    1.666033353425001E-3    9.325643143917011E-1   -6.974014717261734E-2
 3.843319475145779E7     9.324950821391453E-1   -7.277539828108934E-2    6.626557847395007E-2    2.052475294053291E-3    6.618393623013145E-2    1.825301224368927E-3    9.325496017920646E-1   -7.042093759867207E-2
 3.872643474848381E7     9.324809574494358E-1   -7.346689817464327E-2    6.624993901595377E-2    2.209874260254994E-3    6.616794383990816E-2    1.982469629021894E-3    9.325373854687348E-1   -7.109817358565988E-2
 3.902191212640966E7     9.324711097064452E-1   -7.419156172321718E-2    6.623045983066986E-2    2.369919494204855E-3    6.615189936926907E-2    2.138369233981483E-3    9.325207029236579E-1   -7.177336283661477E-2
 3.931964395614420E7     9.324644769601717E-1   -7.490446131692106E-2    6.621617038176894E-2    2.524873419120058E-3    6.613531885613300E-2    2.295505867527268E-3    9.325143212821245E-1   -7.244925807483527E-2
 3.961964743884522E7     9.323582825864076E-1   -7.571353949855242E-2    6.616589259827740E-2    2.744889691901930E-3    6.604689506439862E-2    2.352529717592648E-3    9.325363939670959E-1   -7.310914211665678E-2
 3.992193990691278E7     9.323349722961801E-1   -7.646648202411925E-2    6.614828599319077E-2    2.901962126414187E-3    6.603142059489123E-2    2.512754154659349E-3    9.325023411692940E-1   -7.381219842886574E-2
 4.022653882499073E7     9.321930783286607E-1   -7.755249063377395E-2    6.606400676116717E-2    3.127221971754098E-3    6.590217802966171E-2    2.268562825593993E-3    9.325208344096102E-1   -7.443397200096055E-2
 4.053346179097611E7     9.321625273292909E-1   -7.830417891126808E-2    6.604940778386045E-2    3.287571450361730E-3    6.588983006551941E-2    2.426092781983021E-3    9.324980923682676E-1   -7.517878584791132E-2
 4.084272653703488E7     9.321327595356250E-1   -7.903103615760829E-2    6.603404347169600E-2    3.450382459023620E-3    6.587603204666984E-2    2.585899933855495E-3    9.324699998723627E-1   -7.588997728547568E-2
 4.115435093062763E7     9.320767669905128E-1   -8.003602190289856E-2    6.598671783279803E-2    3.623081015424463E-3    6.587246547672823E-2    2.423017863836949E-3    9.324422284744270E-1   -7.660440376821312E-2
 4.146835297554084E7     9.320426424835282E-1   -8.079850842011228E-2    6.597098696466694E-2    3.786223009155464E-3    6.586091689721733E-2    2.584687982687133E-3    9.324210202539738E-1   -7.732118789731821E-2
 4.178475081292742E7     9.321771317991684E-1   -8.210030413011568E-2    6.592866642534044E-2    3.947089224916826E-3    6.613588748660248E-2    2.048218307846297E-3    9.323852866607765E-1   -7.802323471113767E-2
 4.210356272235513E7     9.321426323563300E-1   -8.284808207030007E-2    6.591640108872267E-2    4.110868197699267E-3    6.612487843962958E-2    2.213907479079327E-3    9.323470626752955E-1   -7.874699759999317E-2
 4.242480712286174E7     9.320972924748419E-1   -8.362549699403619E-2    6.590726064679088E-2    4.277077744765682E-3    6.611930952215529E-2    2.375387193637358E-3    9.323173187433449E-1   -7.950171702676544E-2
 4.274850257402029E7     9.320671954265070E-1   -8.439609297874098E-2    6.589814609911521E-2    4.441756181446883E-3    6.611187447978915E-2    2.540771229645163E-3    9.322896621115583E-1   -8.024927649874197E-2
 4.307466777701053E7     9.320695473750298E-1   -8.383798305674772E-2    6.605335339056284E-2    4.488600696646017E-3    6.597575125023841E-2    4.242426348010852E-3    9.321524327515186E-1   -8.115287586104725E-2
 4.340332157569963E7     9.319660900229357E-1   -8.595685971591284E-2    6.587971314092489E-2    4.774801058766348E-3    6.610016100482963E-2    2.879825963177758E-3    9.321991850866693E-1   -8.173725898103296E-2
 4.373448295773120E7     9.319025247493936E-1   -8.673672050727260E-2    6.586807529651496E-2    4.944547820038546E-3    6.609597865384108E-2    3.043285692280523E-3    9.321729890460791E-1   -8.249849585848081E-2
 4.406817105562137E7     9.316872749304344E-1   -8.695652926384578E-2    6.588613304606554E-2    5.118681977738826E-3    6.579254747105756E-2    3.908344399415941E-3    9.321351821527892E-1   -8.326382118202819E-2
 4.440440514786536E7     9.316397371390930E-1   -8.774303493608723E-2    6.587999159317862E-2    5.288149524255513E-3    6.578651381033353E-2    4.079401884591726E-3    9.320816131974305E-1   -8.404762284918926E-2
 4.474320466005030E7     9.315850944610061E-1   -8.855445276941484E-2    6.587168810030840E-2    5.459086956605058E-3    6.578189119052116E-2    4.249590683649939E-3    9.320349070237324E-1   -8.481806178760465E-2
 4.508458916597787E7     9.316061234129711E-1   -8.892062230715157E-2    6.591890702122494E-2    5.600465466535695E-3    6.578617666959218E-2    4.932219508079285E-3    9.319854555872822E-1   -8.565029770158754E-2
 4.542857838879555E7     9.315556261241658E-1   -8.971758841118961E-2    6.591537972807220E-2    5.773745504288415E-3    6.578217536930617E-2    5.104286857039997E-3    9.319222142442042E-1   -8.642784497608269E-2
 4.577519220213508E7     9.315008315122716E-1   -9.055252780464153E-2    6.591181321501732E-2    5.946754337072446E-3    6.577964767559083E-2    5.275283802598221E-3    9.318795659648779E-1   -8.720660826137754E-2
 4.612445063126191E7     9.314370248645797E-1   -9.133303978797898E-2    6.590497874466138E-2    6.121808249347903E-3    6.577783989167116E-2    5.448023272512469E-3    9.318208951354646E-1   -8.802087979846562E-2
 4.647637385423118E7     9.313800047222850E-1   -9.216379393835807E-2    6.589937314455650E-2    6.297101328000573E-3    6.577419075656767E-2    5.623755211400584E-3    9.317759665772671E-1   -8.881283196598308E-2
 4.683098220305377E7     9.313058451927485E-1   -9.301854061190726E-2    6.589363417636872E-2    6.469821779104017E-3    6.576978503989747E-2    5.797917298401893E-3    9.317165068353852E-1   -8.964833397865152E-2
 4.718829616487134E7     9.312424958764884E-1   -9.382910353773456E-2    6.589239955423982E-2    6.647166364285470E-3    6.576889966020394E-2    5.975733296100250E-3    9.316498581266031E-1   -9.046033613327338E-2
 4.754833638313931E7     9.310803568535628E-1   -9.513887881726329E-2    6.583738366297603E-2    6.853010825318163E-3    6.576684700199488E-2    5.636530985178266E-3    9.316143884960267E-1   -9.123290976414074E-2
 4.791112365881994E7     9.310089623463937E-1   -9.598700422924394E-2    6.583295683214911E-2    7.034253728559316E-3    6.576884056789739E-2    5.814741436086888E-3    9.315460935379664E-1   -9.204253722722849E-2
 4.827667895158397E7     9.309250038453181E-1   -9.682069875255341E-2    6.582862108201668E-2    7.216368983099060E-3    6.576969111470661E-2    5.994836953983274E-3    9.314699412842135E-1   -9.286643720018291E-2
 4.864502338102144E7     9.308547015230151E-1   -9.767164159838733E-2    6.582944980728334E-2    7.399900004535078E-3    6.577202424969936E-2    6.175649071471214E-3    9.314105185102316E-1   -9.370665646000484E-2
 4.901617822786229E7     9.307818192208978E-1   -9.853089715177300E-2    6.583285495943975E-2    7.588189800119671E-3    6.577780519163498E-2    6.361068421608123E-3    9.313560420415434E-1   -9.452330238147090E-2
 4.939016493520518E7     9.306982328220245E-1   -9.940578623485254E-2    6.583658569493518E-2    7.771062240864369E-3    6.578497587611204E-2    6.543319985126499E-3    9.312816369342863E-1   -9.537144690584515E-2
 4.976700510975666E7     9.306138206934194E-1   -1.002713807943572E-1    6.584019981047239E-2    7.958896628185174E-3    6.579102908980107E-2    6.725837958997170E-3    9.312046000070483E-1   -9.624345713498893E-2
 5.014672052307993E7     9.305369328903400E-1   -1.011577202310422E-1    6.584315314675424E-2    8.144555969887996E-3    6.580224786156579E-2    6.912149511103576E-3    9.311352041897379E-1   -9.708829449839353E-2
 5.052933311285146E7     9.304716988883970E-1   -1.020407680023254E-1    6.585125271475373E-2    8.331918454373019E-3    6.580882815298314E-2    7.100236511633433E-3    9.310796741166407E-1   -9.794332239728427E-2
 5.091486498412994E7     9.303773063643491E-1   -1.029414570430692E-1    6.586062504409501E-2    8.523118604027527E-3    6.582175776051137E-2    7.286548313039756E-3    9.309858462305675E-1   -9.880041914147172E-2
 5.130333841063219E7     9.302941891792920E-1   -1.038339724371418E-1    6.587421728799316E-2    8.710404842903479E-3    6.583979699121990E-2    7.471153721227374E-3    9.309164578945945E-1   -9.968480096877690E-2
 5.169477583602042E7     9.302178621192257E-1   -1.047478458548047E-1    6.588211853951216E-2    8.900568689371205E-3    6.585592585915719E-2    7.657783310942989E-3    9.308410708847169E-1   -1.005643198064675E-1
 5.208919987519933E7     9.301342397706093E-1   -1.056473897818339E-1    6.589557075296745E-2    9.090507853059654E-3    6.587366298435669E-2    7.843873077772949E-3    9.307577852761447E-1   -1.014567218296255E-1
 5.248663331562151E7     9.300473539988654E-1   -1.065863097348851E-1    6.590744605816982E-2    9.280389856095462E-3    6.588757837057584E-2    8.030881598682092E-3    9.306814395932403E-1   -1.023298700524395E-1
 5.288709911860541E7     9.299488658681708E-1   -1.075025592008104E-1    6.592021969143523E-2    9.471735245418290E-3    6.590315466920914E-2    8.217032467232006E-3    9.305806870837181E-1   -1.032266628268651E-1
 5.329062042066076E7     9.298517428518985E-1   -1.084392910057824E-1    6.593374641920396E-2    9.660104571428407E-3    6.592206473145196E-2    8.405198451247634E-3    9.305067492731085E-1   -1.041114496404750E-1
 5.369722053482568E7     9.297673045973551E-1   -1.093953114876684E-1    6.594716399792175E-2    9.851476559527016E-3    6.593809346516398E-2    8.596972259106970E-3    9.304093193061066E-1   -1.050448799533540E-1
 5.410692295201402E7     9.296603753565659E-1   -1.103217088846591E-1    6.596052447338183E-2    1.004616524410879E-2    6.595580074290738E-2    8.785242564171172E-3    9.303243695568760E-1   -1.059651059913014E-1
 5.451975134237129E7     9.295682125091577E-1   -1.112880330572323E-1    6.597561158677102E-2    1.023749601905320E-2    6.597452543414961E-2    8.975673387485960E-3    9.302211408523537E-1   -1.068994551186611E-1
 5.493572955664375E7     9.294437479306988E-1   -1.122493658897263E-1    6.598968781672993E-2    1.043238898737362E-2    6.599386285135052E-2    9.168768887712054E-3    9.301251072914757E-1   -1.078214783046784E-1
 5.535488162755510E7     9.293544035935833E-1   -1.131837462095517E-1    6.600665340219197E-2    1.062879001749818E-2    6.601628139053278E-2    9.362530212618299E-3    9.300419849128483E-1   -1.087465533582784E-1
 5.577723177119546E7     9.292188144335410E-1   -1.141419441507014E-1    6.602130635241565E-2    1.082854881907147E-2    6.603740221945668E-2    9.553743170144586E-3    9.299371771278919E-1   -1.097022207012239E-1
 5.620280438842070E7     9.291129898118832E-1   -1.151392503669769E-1    6.604113015169974E-2    1.102766652336786E-2    6.606064200534928E-2    9.750837867877992E-3    9.298243157614051E-1   -1.106318170442932E-1
 5.663162406626155E7     9.289849119768423E-1   -1.161021694928592E-1    6.606064611607630E-2    1.122919509072053E-2    6.608509957517773E-2    9.945765041253666E-3    9.297292164328909E-1   -1.116233030825092E-1
 5.706371557934452E7     9.288803049589356E-1   -1.171119672129077E-1    6.608182736588679E-2    1.142806904905541E-2    6.611238712206773E-2    1.014458935432584E-2    9.296261302615439E-1   -1.125827157959979E-1
 5.749910389132310E7     9.287687156306743E-1   -1.181146393940183E-1    6.610253322309043E-2    1.162995206094645E-2    6.613747178669216E-2    1.034300261233533E-2    9.295215076932846E-1   -1.135563021194927E-1
 5.793781415631992E7     9.286392020288754E-1   -1.191164808609036E-1    6.612467292283752E-2    1.183371835528329E-2    6.616275736411953E-2    1.054081635074689E-2    9.293999049928614E-1   -1.145293177476646E-1
 5.837987172038046E7     9.288980834621232E-1   -1.192329924129539E-1    6.628536949427934E-2    1.189046610924891E-2    6.626149556976731E-2    1.162318749391252E-2    9.291809974428967E-1   -1.156753036596602E-1
 5.882530212293670E7     9.287499348757905E-1   -1.202749949957910E-1    6.630696497513194E-2    1.209221051720166E-2    6.628700538686762E-2    1.182447976971788E-2    9.290530344579373E-1   -1.166669284084051E-1
 5.927413109828297E7     9.286326116836204E-1   -1.213080864033802E-1    6.633705337601699E-2    1.229810171594080E-2    6.631585120806029E-2    1.202884802564779E-2    9.289414450000716E-1   -1.176567225144290E-1
 5.972638457706322E7     9.284998219394578E-1   -1.222955209890620E-1    6.636258991812433E-2    1.250544755225136E-2    6.634470881043905E-2    1.223649370011511E-2    9.288256505561679E-1   -1.186545923694249E-1
 6.018208868776779E7     9.283903172361628E-1   -1.233533983373171E-1    6.639044716858053E-2    1.271199854565269E-2    6.637799374521021E-2    1.244443959870074E-2    9.286900692165629E-1   -1.196560676736201E-1
 6.064126975824468E7     9.282359603016892E-1   -1.243627298080723E-1    6.641908874752370E-2    1.292091150584829E-2    6.640793925871241E-2    1.264922091987083E-2    9.285680471460783E-1   -1.206644279240729E-1
 6.110395431721926E7     9.280974176622430E-1   -1.254353762195509E-1    6.645167803139064E-2    1.312934165751042E-2    6.644391528151394E-2    1.285889511730426E-2    9.284222344553449E-1   -1.216733793133456E-1
 6.157016909582742E7     9.279594312028553E-1   -1.264900740088236E-1    6.648256316393331E-2    1.333890694736697E-2    6.647802555543265E-2    1.306586232076012E-2    9.282973337966203E-1   -1.227303731792636E-1
 6.203994102916045E7     9.278010541768211E-1   -1.275263079025228E-1    6.651374887627548E-2    1.354883669821036E-2    6.651167671434996E-2    1.327468502665284E-2    9.281504164273328E-1   -1.237716527549008E-1
 6.251329725781982E7     9.276348163465854E-1   -1.285999225003587E-1    6.654619083531929E-2    1.376010931174542E-2    6.654672873155977E-2    1.348765172920369E-2    9.279949362051320E-1   -1.248231075980558E-1
 6.299026512948693E7     9.274851622623237E-1   -1.296706917602573E-1    6.657983708214606E-2    1.397231623990458E-2    6.658576410239046E-2    1.369975111846765E-2    9.278737037240127E-1   -1.258465945654832E-1
 6.347087220050172E7     9.273369338749978E-1   -1.307321186385102E-1    6.661510586030142E-2    1.418266733614558E-2    6.662206372213504E-2    1.391038377170562E-2    9.277267584589289E-1   -1.269149933619842E-1
 6.395514623745525E7     9.271909562295280E-1   -1.318647944098640E-1    6.664984182043728E-2    1.439979387592343E-2    6.665968860162703E-2    1.412533583671852E-2    9.275663054854058E-1   -1.279882185252054E-1
 6.444311521879433E7     9.270357282028485E-1   -1.329744535535192E-1    6.669129656491841E-2    1.461842808898836E-2    6.669916576487603E-2    1.434281256706413E-2    9.274247148171918E-1   -1.290772289742317E-1
 6.493480733643661E7     9.268806167302549E-1   -1.340945861055644E-1    6.672760424670217E-2    1.483395714894888E-2    6.673961492545551E-2    1.455879175495365E-2    9.272539970136108E-1   -1.301610624453613E-1
 6.543025099740107E7     9.266856321732249E-1   -1.351959886362383E-1    6.676578885000718E-2    1.505006261702202E-2    6.677759437846664E-2    1.477436082308956E-2    9.271009864339572E-1   -1.312567617274247E-1
 6.592947482544785E7     9.262693133510573E-1   -1.379683470224256E-1    6.657441754446412E-2    1.556017932945634E-2    6.716346600970130E-2    1.347340676353513E-2    9.270178998757863E-1   -1.321792437010358E-1
 6.643250766273243E7     9.261035637358995E-1   -1.391532796976975E-1    6.661786456688883E-2    1.578331140646672E-2    6.722518066415518E-2    1.367540333625721E-2    9.268789011679595E-1   -1.332902481586877E-1
 6.693937857147253E7     9.259291946230812E-1   -1.402658625366528E-1    6.665337405563705E-2    1.600804526966673E-2    6.727573331639022E-2    1.389328544158180E-2    9.267157036984295E-1   -1.343643705290404E-1
 6.745011683562562E7     9.257371221930211E-1   -1.414658052158526E-1    6.668374935362074E-2    1.624031502009774E-2    6.732143287116624E-2    1.411204916779050E-2    9.265274235010927E-1   -1.354911481074799E-1
 6.796475196258274E7     9.255788367105318E-1   -1.425828102329886E-1    6.672389142948566E-2    1.648168750391696E-2    6.737226639698467E-2    1.435233644496749E-2    9.263625412058044E-1   -1.365972224360778E-1
 6.848331368487169E7     9.254112496756266E-1   -1.436981557514427E-1    6.677067360289803E-2    1.673128501789597E-2    6.743390860605725E-2    1.460314095878827E-2    9.262051173017739E-1   -1.376845895488090E-1
 6.900583196187538E7     9.250651300454347E-1   -1.440564850712846E-1    6.690350879608227E-2    1.689303422512680E-2    6.707450268889445E-2    1.550858042713718E-2    9.260358169826928E-1   -1.388087389783543E-1
 6.953233698156311E7     9.248618878173214E-1   -1.452264299009582E-1    6.695888774989031E-2    1.713784409620087E-2    6.713723185360843E-2    1.573213978343218E-2    9.258263303349432E-1   -1.400674790197292E-1
 7.006285916223384E7     9.246721112188291E-1   -1.464315341935445E-1    6.701245516580946E-2    1.738832229433809E-2    6.720433794802012E-2    1.592512187604976E-2    9.256069261474242E-1   -1.413124055131584E-1
 7.059742915427396E7     9.244348995364944E-1   -1.477509556122967E-1    6.706932748236412E-2    1.762088341943165E-2    6.727176490384687E-2    1.614699209889377E-2    9.254295598993264E-1   -1.424183170299460E-1
 7.113607784192866E7     9.242284101184991E-1   -1.489233952488155E-1    6.712403785391974E-2    1.784915444364021E-2    6.733402656575628E-2    1.638622175691801E-2    9.252612484588386E-1   -1.435807686747367E-1
 7.167883634508467E7     9.240411419542239E-1   -1.500948947803179E-1    6.718297250256580E-2    1.808141851222069E-2    6.740236893866131E-2    1.662743871717224E-2    9.250725611193834E-1   -1.447439505953340E-1
 7.222573602107021E7     9.238620376349571E-1   -1.513142968585550E-1    6.724323655957221E-2    1.831499143377704E-2    6.746392621443895E-2    1.686954101813191E-2    9.248798870502513E-1   -1.458878379663392E-1
 7.277680846646504E7     9.236351572762301E-1   -1.524825071870104E-1    6.729642427654654E-2    1.856118049622655E-2    6.752588987310658E-2    1.711922042311444E-2    9.246809040623702E-1   -1.471079398008802E-1
 7.333208551892644E7     9.234383843204312E-1   -1.536844990021349E-1    6.735583024532645E-2    1.882111194573848E-2    6.759411018443498E-2    1.734971479114757E-2    9.244340988660732E-1   -1.484695105752411E-1
 7.389159925902925E7     9.232247540913311E-1   -1.550313940176001E-1    6.741864877459716E-2    1.908107471057114E-2    6.767479561006071E-2    1.757405779749960E-2    9.242064258648962E-1   -1.496990746795988E-1
 7.445538201211768E7     9.229648781716104E-1   -1.563744300829795E-1    6.748908774271914E-2    1.932739771592253E-2    6.775197304302974E-2    1.780954533522812E-2    9.240033102100200E-1   -1.508518802305193E-1
 7.502346635017487E7     9.227470133359064E-1   -1.576356786077184E-1    6.756022169352957E-2    1.955989713017970E-2    6.782626319763889E-2    1.806292274985336E-2    9.237799391542217E-1   -1.520411467166348E-1
 7.559588509370317E7     9.225370578376829E-1   -1.588528028247912E-1    6.763178682874761E-2    1.980329815725549E-2    6.790716097652852E-2    1.831327450725141E-2    9.235775655070974E-1   -1.532910422030239E-1
 7.617267131362079E7     9.223194679914365E-1   -1.600922281980679E-1    6.770641050331005E-2    2.004646155239894E-2    6.798385711700017E-2    1.856568206199602E-2    9.233729026223962E-1   -1.545196879628002E-1
 7.675385833317320E7     9.220827771562828E-1   -1.613422432697475E-1    6.777321885896689E-2    2.029992115273872E-2    6.805780185943379E-2    1.882014060670951E-2    9.231101974089285E-1   -1.557741420442649E-1
 7.733947972985649E7     9.218458253028919E-1   -1.626411157632801E-1    6.784107793325045E-2    2.056795747772554E-2    6.814331951038034E-2    1.905332417693436E-2    9.228475556556620E-1   -1.571419673408661E-1
 7.792956933735959E7     9.215704933825831E-1   -1.640206478916408E-1    6.791038102589511E-2    2.083469683323987E-2    6.823273604102663E-2    1.928406262061460E-2    9.226302555136492E-1   -1.584483780227270E-1
 7.852416124751715E7     9.213067980723554E-1   -1.654400330144712E-1    6.798683274845740E-2    2.108742222427836E-2    6.831895598029543E-2    1.953328603166412E-2    9.223832608871915E-1   -1.596934649194366E-1
 7.912328981227988E7     9.210481767178448E-1   -1.666538941077005E-1    6.806467905762686E-2    2.134326267062495E-2    6.840326768535508E-2    1.979409253741869E-2    9.221392181069771E-1   -1.609878194596560E-1
 7.972698964569975E7     9.207982802314021E-1   -1.679684336435045E-1    6.814234169246798E-2    2.160286293371547E-2    6.848693669246744E-2    2.005542088180725E-2    9.218841099294826E-1   -1.623000224022538E-1
 8.033529562592810E7     9.205513721151659E-1   -1.692907500629338E-1    6.822093700717373E-2    2.187249935815519E-2    6.857941213114813E-2    2.031696542724257E-2    9.216153649048215E-1   -1.635947211952699E-1
 8.094824289723292E7     9.202704282621640E-1   -1.706478603030123E-1    6.830797503687386E-2    2.214058343287483E-2    6.867784472026840E-2    2.057599939713331E-2    9.213281601939360E-1   -1.649068298387064E-1
 8.156586687202743E7     9.200015183447877E-1   -1.720213721571727E-1    6.839765423375782E-2    2.240972955973828E-2    6.877779521457296E-2    2.083996694674505E-2    9.210813968325462E-1   -1.662368675863344E-1
 8.218820323291673E7     9.197030429475707E-1   -1.734267882107804E-1    6.849071752089853E-2    2.267275775169158E-2    6.887820764832570E-2    2.110604150983962E-2    9.208217035376327E-1   -1.675831041096682E-1
 8.281528793475981E7     9.194275335767322E-1   -1.747591531569204E-1    6.858732318014793E-2    2.294113176243308E-2    6.897924366306792E-2    2.137373882830334E-2    9.205469242501262E-1   -1.689340893503084E-1
 8.344715720674579E7     9.191915466775459E-1   -1.761566977661118E-1    6.868508307104595E-2    2.320951432242703E-2    6.908962644943334E-2    2.163899826501337E-2    9.202816434491786E-1   -1.703057012492160E-1
 8.408384755448765E7     9.189149668983307E-1   -1.775454423970937E-1    6.878205879797447E-2    2.348235223166453E-2    6.919393202679185E-2    2.190256068520238E-2    9.200138896871757E-1   -1.716944191843309E-1
 8.472539576213124E7     9.186229338951861E-1   -1.789559722450987E-1    6.887697131380308E-2    2.375581156538617E-2    6.929513089588567E-2    2.217542659599431E-2    9.197191604297906E-1   -1.730805673167007E-1
 8.537183889448020E7     9.182987937788305E-1   -1.803402723951417E-1    6.896868434173532E-2    2.404002160388713E-2    6.939854412409874E-2    2.245686821818304E-2    9.194216144769248E-1   -1.744654013133179E-1
 8.602321429913802E7     9.180078807657082E-1   -1.817519215266954E-1    6.907799111825226E-2    2.433086198669620E-2    6.951720223677296E-2    2.274236588058619E-2    9.191308328841119E-1   -1.758557366021439E-1
 8.667955960866481E7     9.176990846908040E-1   -1.831718153786689E-1    6.918874532305597E-2    2.461732376215531E-2    6.963823820060859E-2    2.302505301565418E-2    9.188590307965701E-1   -1.772566933357796E-1
 8.734091274275188E7     9.174054792090865E-1   -1.846180464221568E-1    6.930208809633334E-2    2.490462942307268E-2    6.976023388231298E-2    2.331184357570275E-2    9.185352236744043E-1   -1.786681424413584E-1
 8.800731191041334E7     9.171059439291156E-1   -1.860642357761505E-1    6.942059535719658E-2    2.519916626066022E-2    6.988488090907488E-2    2.360332917202895E-2    9.182289632727405E-1   -1.800939172092644E-1
 8.867879561219153E7     9.168057703780398E-1   -1.875107455543347E-1    6.954535851729450E-2    2.549550871227348E-2    7.001986364269197E-2    2.389668511760307E-2    9.179496076151119E-1   -1.815307149680893E-1
 8.935540264238395E7     9.165136877447767E-1   -1.889937298978701E-1    6.968634921487413E-2    2.579112015512028E-2    7.016448513000283E-2    2.418802127019398E-2    9.176502210512273E-1   -1.829645238767431E-1
 9.003717209128250E7     9.161628256876397E-1   -1.904355012232049E-1    6.980626317996141E-2    2.608119801531860E-2    7.028963351847534E-2    2.448315101882773E-2    9.173340123129951E-1   -1.844049451095695E-1
 9.072414334743266E7     9.158327948765226E-1   -1.919121966372691E-1    6.994941353066290E-2    2.636813632272043E-2    7.044500277662719E-2    2.476658877940222E-2    9.170401982750215E-1   -1.858919564404758E-1
 9.141635609990983E7     9.154940078911711E-1   -1.934274373991729E-1    7.009208092686671E-2    2.665134382550863E-2    7.059823752259274E-2    2.505057510716008E-2    9.167269504211939E-1   -1.873814226629849E-1
 9.211385034061028E7     9.151792159949770E-1   -1.949437988872453E-1    7.024188293150267E-2    2.694168776749799E-2    7.075569963969439E-2    2.533518865562405E-2    9.164060495121406E-1   -1.888887110208480E-1
 9.281666636656430E7     9.148584247389874E-1   -1.964771596902128E-1    7.039891363243966E-2    2.722623480651330E-2    7.091925588678850E-2    2.561775402030738E-2    9.160839913315152E-1   -1.904161519270388E-1
 9.352484478226222E7     9.145202674572751E-1   -1.980322667019567E-1    7.055182085498761E-2    2.750426703823727E-2    7.107493975255604E-2    2.589567492971618E-2    9.157208710353058E-1   -1.919253660216324E-1
 9.423842650200106E7     9.141907807769509E-1   -1.996003904500058E-1    7.070331091331435E-2    2.778334637121017E-2    7.123236609075245E-2    2.617286616364648E-2    9.153859283431151E-1   -1.934616798460384E-1
 9.495745275224906E7     9.138015573156199E-1   -2.011426465231543E-1    7.085004040363933E-2    2.805829415807210E-2    7.139213250904841E-2    2.644703016348468E-2    9.150341294892705E-1   -1.950148710289678E-1
 9.568196507402541E7     9.134029033528080E-1   -2.027334056299354E-1    7.100306166062638E-2    2.834034251444608E-2    7.154675152386222E-2    2.672521451027893E-2    9.146377549596457E-1   -1.965594319007200E-1
 9.641200532530291E7     9.130039863883829E-1   -2.043351883967168E-1    7.115526086280638E-2    2.862397904095027E-2    7.170162910901107E-2    2.700700785765289E-2    9.142757918095800E-1   -1.981319585517359E-1
 9.714761568342420E7     9.126175247381579E-1   -2.059350299027676E-1    7.130501522763244E-2    2.891067535789612E-2    7.185731238507624E-2    2.729615123095381E-2    9.138735203225364E-1   -1.997014454234501E-1
 9.788883864753923E7     9.121946317027525E-1   -2.075388427853770E-1    7.146230319924958E-2    2.920112422445284E-2    7.201870576095450E-2    2.758726174340290E-2    9.134700805320980E-1   -2.012837729794347E-1
 9.863571704106140E7     9.117781929987709E-1   -2.091658111106162E-1    7.162049459376085E-2    2.949376091504912E-2    7.218033881084954E-2    2.787640427350000E-2    9.130821938499031E-1   -2.028792432579468E-1
 9.938829401413949E7     9.113324323373647E-1   -2.107924777700875E-1    7.177670352259548E-2    2.978867219381973E-2    7.234205348049259E-2    2.817133589709545E-2    9.126447784024679E-1   -2.044927475319334E-1
 1.001466130461536E8     9.109067585894646E-1   -2.124587450412645E-1    7.194245917283380E-2    3.009113464735980E-2    7.250784439512530E-2    2.847887197052821E-2    9.122008672267073E-1   -2.060792616514474E-1
 1.009107179482240E8     9.104264918785201E-1   -2.140878116766604E-1    7.210923514583072E-2    3.039788685586802E-2    7.268542647946828E-2    2.878533832274074E-2    9.118032106493219E-1   -2.077008277852551E-1
 1.016806528657447E8     9.099519886082756E-1   -2.157390169380038E-1    7.229073389910594E-2    3.070537559469466E-2    7.286950834517682E-2    2.909307499414061E-2    9.113834211298328E-1   -2.093204222007499E-1
 1.024564622809335E8     9.094701340070441E-1   -2.174050892097204E-1    7.247707284551234E-2    3.100990121633243E-2    7.306135365092890E-2    2.939641781234081E-2    9.109879160212074E-1   -2.109711186059686E-1
 1.032381910153997E8     9.089830266322314E-1   -2.190821960717519E-1    7.266566531879209E-2    3.131130285248519E-2    7.325360769836720E-2    2.969833775704463E-2    9.105229296492693E-1   -2.126192078262023E-1
 1.040258842327368E8     9.085115899227520E-1   -2.207734748817839E-1    7.286569539907149E-2    3.160430433028982E-2    7.345059137232761E-2    2.999222358245862E-2    9.100654989008008E-1   -2.142757216928438E-1
 1.048195874411304E8     9.080214416182862E-1   -2.224762484789495E-1    7.305483294164331E-2    3.189303512446395E-2    7.364384529110669E-2    3.028278278775636E-2    9.096156520267601E-1   -2.159431605796211E-1
 1.056193464959857E8     9.075078910863197E-1   -2.241663341155818E-1    7.323920055362834E-2    3.218546436267031E-2    7.382921382141636E-2    3.057769336128059E-2    9.091869328944043E-1   -2.176430232324050E-1
 1.064252076025801E8     9.070264349225402E-1   -2.258908768459018E-1    7.341912919729002E-2    3.248724113668781E-2    7.401146117020227E-2    3.087876043288067E-2    9.087568532256738E-1   -2.193536116531880E-1
 1.072372173187304E8     9.064927769373810E-1   -2.276128981517313E-1    7.360748400481600E-2    3.280069639984739E-2    7.420066216330963E-2    3.119898466918046E-2    9.082682349086817E-1   -2.210990564163630E-1
 1.080554225574824E8     9.059342625579898E-1   -2.293819845878257E-1    7.380269569659327E-2    3.311241971142107E-2    7.439718437338637E-2    3.151581165861831E-2    9.078047415464812E-1   -2.228415253352105E-1
 1.088798705898232E8     9.054057726882775E-1   -2.311082123989413E-1    7.400288916099088E-2    3.343135276884961E-2    7.459969942266217E-2    3.183526343509733E-2    9.073123728930652E-1   -2.245957549829514E-1
 1.097106090474096E8     9.048556938265236E-1   -2.328642321452289E-1    7.421213416457503E-2    3.375113109829299E-2    7.480881984826360E-2    3.216280022067924E-2    9.067959948588131E-1   -2.263773213467684E-1
 1.105476859253232E8     9.043173537915095E-1   -2.346347361234822E-1    7.443480782843249E-2    3.406219048680705E-2    7.503293991960995E-2    3.247950481181226E-2    9.063110817960195E-1   -2.281515635490617E-1
 1.113911495848395E8     9.038019141893946E-1   -2.364357677209784E-1    7.465136736903029E-2    3.437410363171232E-2    7.525256166799980E-2    3.279285923533810E-2    9.058027773248820E-1   -2.299574411207090E-1
 1.122410487562254E8     9.032706677500993E-1   -2.382745051303150E-1    7.487034304629060E-2    3.469573359496918E-2    7.547134816968774E-2    3.311157873467917E-2    9.052761982735138E-1   -2.317864399788093E-1
 1.130974325415529E8     9.027194745689947E-1   -2.401567521035074E-1    7.509582633335110E-2    3.501770341507685E-2    7.569531859666555E-2    3.343541076403449E-2    9.047249795584630E-1   -2.336245076851200E-1
 1.139603504175348E8     9.021474537192292E-1   -2.420258993289282E-1    7.532873208740185E-2    3.533425473194467E-2    7.592898049027459E-2    3.375496551882211E-2    9.041850940236448E-1   -2.354502238858315E-1
 1.148298522383858E8     9.015640697881535E-1   -2.439056973441805E-1    7.555201728631816E-2    3.565273265969680E-2    7.615456098275938E-2    3.407663235007675E-2    9.036486709239966E-1   -2.373089341041657E-1
 1.157059882387014E8     9.009789876430238E-1   -2.457970374305974E-1    7.578007825701992E-2    3.598271728770434E-2    7.638528529560480E-2    3.440831253616086E-2    9.030765699929203E-1   -2.391816462496800E-1
 1.165888090363587E8     9.003568641261451E-1   -2.477349139233084E-1    7.601459802594870E-2    3.631137444358035E-2    7.661552580382001E-2    3.473950581237508E-2    9.024945095825178E-1   -2.410846276308357E-1
 1.174783656354443E8     8.997423263532948E-1   -2.496743080906234E-1    7.624770973790440E-2    3.664300962770090E-2    7.684500387959259E-2    3.507402949350177E-2    9.018929337542981E-1   -2.429909293892626E-1
 1.183747094291968E8     8.991166959018879E-1   -2.516224247871718E-1    7.648594304105162E-2    3.698673521546650E-2    7.708128097770953E-2    3.542396833409692E-2    9.013132603591609E-1   -2.449313774989471E-1
 1.192778922029803E8     8.984838851527812E-1   -2.536107360528355E-1    7.673510207725016E-2    3.734449882122117E-2    7.733223232901813E-2    3.578105855777138E-2    9.006969208728475E-1   -2.468761347340912E-1
 1.201879661372721E8     8.978138319825142E-1   -2.556315973176598E-1    7.701069761965501E-2    3.769456810436442E-2    7.760557505748281E-2    3.613726726332350E-2    9.000710364554595E-1   -2.488333783173717E-1
 1.211049838106809E8     8.971353466966355E-1   -2.576297961230645E-1    7.728701901277725E-2    3.802801856815748E-2    7.788438561598350E-2    3.646935462670298E-2    8.994340791525783E-1   -2.507892661061817E-1
 1.220289982029829E8     8.965001981423857E-1   -2.596521022489450E-1    7.755087139465414E-2    3.836288536511631E-2    7.814855858113173E-2    3.680317255765801E-2    8.988071506104474E-1   -2.527516465698241E-1
 1.229600626981811E8     8.958185560358765E-1   -2.617203857920689E-1    7.781241734211443E-2    3.870489382506037E-2    7.840997777076347E-2    3.714407975156619E-2    8.981654174097556E-1   -2.547539735336988E-1
 1.238982310875929E8     8.951395744690104E-1   -2.638048178588244E-1    7.808151564415151E-2    3.906408798838221E-2    7.867623099733237E-2    3.750387869853918E-2    8.975041035706751E-1   -2.567817284472596E-1
 1.248435575729559E8     8.944104618306592E-1   -2.659131294337516E-1    7.836987886853533E-2    3.941821824778013E-2    7.896321714344892E-2    3.786428667649680E-2    8.968071010967364E-1   -2.587988514044148E-1
 1.257960967695579E8     8.936666362918794E-1   -2.680259618436984E-1    7.864252644650244E-2    3.976187867912123E-2    7.923164163857617E-2    3.821354746117899E-2    8.961192133530661E-1   -2.608112723529276E-1
 1.267559037093956E8     8.929476646314360E-1   -2.701739193446600E-1    7.891780257485827E-2    4.011208265859971E-2    7.950427720929766E-2    3.856101451503646E-2    8.954594281383762E-1   -2.628538614813067E-1
 1.277230338443520E8     8.921892788869900E-1   -2.723516207415312E-1    7.919275850752575E-2    4.049226012250627E-2    7.978004953291813E-2    3.893951075886330E-2    8.947953868096121E-1   -2.649532050551778E-1
 1.286975430493991E8     8.914149656519033E-1   -2.745374703411680E-1    7.949777189487470E-2    4.088148111574555E-2    8.008343263284985E-2    3.932660886332653E-2    8.940861160361788E-1   -2.670794542604410E-1
 1.296794876258291E8     8.905970721520410E-1   -2.767168072923505E-1    7.981448057892250E-2    4.126014982040280E-2    8.039985132542708E-2    3.970618889139476E-2    8.933445664949036E-1   -2.691966233447310E-1
 1.306689243045034E8     8.897947024910233E-1   -2.788960440891524E-1    8.013463636758479E-2    4.163830796242397E-2    8.072057144926244E-2    4.008247196445065E-2    8.925942131694030E-1   -2.713076946795770E-1
 1.316659102491341E8     8.889893330904481E-1   -2.810978577675270E-1    8.046360830257934E-2    4.202068472316508E-2    8.104839645150295E-2    4.046183510916698E-2    8.918358803725781E-1   -2.734523961754008E-1
 1.326705030595824E8     8.881894139065921E-1   -2.833049485087559E-1    8.079909811508193E-2    4.240697747610329E-2    8.138680590204177E-2    4.084692792607007E-2    8.910578639914956E-1   -2.755867579538561E-1
 1.336827607751903E8     8.873823622319497E-1   -2.855418053232875E-1    8.114824804351164E-2    4.278897105316754E-2    8.174022357374271E-2    4.122378647468036E-2    8.902912951778446E-1   -2.777324625353376E-1
 1.347027418781318E8     8.865694252270910E-1   -2.878033690384908E-1    8.149612550928263E-2    4.315952212651676E-2    8.209405139382171E-2    4.159291062541903E-2    8.895219995852146E-1   -2.799118768388456E-1
 1.357305052967905E8     8.857388807656781E-1   -2.901020267038175E-1    8.184778390136183E-2    4.353357827920425E-2    8.244202196528309E-2    4.195524607765632E-2    8.887172327893367E-1   -2.821010574722423E-1
 1.367661104091667E8     8.848737231735999E-1   -2.924039183575187E-1    8.219435345495572E-2    4.390990821168906E-2    8.278744388022359E-2    4.232877720784729E-2    8.878868600994918E-1   -2.842813599564282E-1
 1.378096170463071E8     8.839929815421652E-1   -2.947435488159073E-1    8.254102008775514E-2    4.428960526188012E-2    8.314079200016364E-2    4.270032042029072E-2    8.870626255654028E-1   -2.864904568293058E-1
 1.388610854957592E8     8.831071007463240E-1   -2.970968829909408E-1    8.289018327041911E-2    4.467447882693708E-2    8.348886237290962E-2    4.307979219847100E-2    8.862590505293727E-1   -2.886840997305638E-1
 1.399205765050585E8     8.821843747260235E-1   -2.994515926890862E-1    8.324097419475900E-2    4.506893244608971E-2    8.383429387724356E-2    4.347027243569820E-2    8.854515767823443E-1   -2.909174916655526E-1
 1.409881512852336E8     8.812575813296459E-1   -3.018342100225195E-1    8.360155439111772E-2    4.547717246104982E-2    8.419670250220646E-2    4.387447727887413E-2    8.846146933773104E-1   -2.931997152336503E-1
 1.420638715143470E8     8.803314214920572E-1   -3.042223431277562E-1    8.396915730666703E-2    4.589349566372345E-2    8.456888650836328E-2    4.429164821718565E-2    8.837714466850087E-1   -2.954973454755810E-1
 1.431477993410541E8     8.793818508751814E-1   -3.066120309404719E-1    8.434585897084521E-2    4.631662815294819E-2    8.495297844914708E-2    4.471166840346512E-2    8.829061200674396E-1   -2.978024236980663E-1
 1.442399973881980E8     8.784164873922115E-1   -3.090388093740388E-1    8.473625309702351E-2    4.674852384165873E-2    8.535366901969973E-2    4.514193837472883E-2    8.819984894355846E-1   -3.001673335929089E-1
 1.453405287564251E8     8.774218844686444E-1   -3.114800763027353E-1    8.515075436298083E-2    4.718600906743033E-2    8.577397513246836E-2    4.557291552801987E-2    8.810527918861981E-1   -3.024978869161721E-1
 1.464494570278296E8     8.764169701664776E-1   -3.139213860239488E-1    8.557733410381411E-2    4.761567295687358E-2    8.620576629591992E-2    4.599339526386882E-2    8.800919176734817E-1   -3.048326803802848E-1
 1.475668462696298E8     8.753869020322605E-1   -3.163744223060535E-1    8.601261790317404E-2    4.803915162992112E-2    8.664181038662092E-2    4.641394304111751E-2    8.791368048096537E-1   -3.071610041066825E-1
 1.486927610378684E8     8.743098022639312E-1   -3.188524312177917E-1    8.645744350203666E-2    4.845068741846490E-2    8.709082498972942E-2    4.682606502263331E-2    8.781626377071613E-1   -3.095316129493926E-1
 1.498272663811400E8     8.732429241429440E-1   -3.213277927269881E-1    8.689975218275298E-2    4.885726127255140E-2    8.753962497868417E-2    4.723915638786899E-2    8.771760206682994E-1   -3.119388123336058E-1
 1.509704278443526E8     8.721578292809692E-1   -3.238318585578276E-1    8.733570602984302E-2    4.926514923228009E-2    8.797869131796023E-2    4.765060667675841E-2    8.761718191186585E-1   -3.143389423848088E-1
 1.521223114725131E8     8.710630233872885E-1   -3.263296667713398E-1    8.775923451427957E-2    4.969581101751196E-2    8.841186371232712E-2    4.808224193297891E-2    8.751378043846905E-1   -3.167456974743121E-1
 1.532829838145407E8     8.699363173254570E-1   -3.288748508153836E-1    8.820012988732683E-2    5.015276918706999E-2    8.886586033094984E-2    4.853499183142410E-2    8.741215402420848E-1   -3.191855887690428E-1
 1.544525119271165E8     8.687872696885145E-1   -3.314237897597360E-1    8.867656010532841E-2    5.063589642501975E-2    8.935656000628593E-2    4.899593617493046E-2    8.731039530835367E-1   -3.216367976761706E-1
 1.556309633785520E8     8.676340849475503E-1   -3.339874098054570E-1    8.917062650981647E-2    5.109984568604804E-2    8.987641186737035E-2    4.943340605821714E-2    8.720556796384689E-1   -3.241568045008725E-1
 1.568184062526983E8     8.664547861305878E-1   -3.365589108113690E-1    8.966478396072851E-2    5.157308397113086E-2    9.040081336137774E-2    4.986082403477587E-2    8.709661779882434E-1   -3.266649439320886E-1
 1.580149091528745E8     8.652666566813659E-1   -3.392005062190268E-1    9.017222102871189E-2    5.205902418867637E-2    9.094369439288048E-2    5.029370896086817E-2    8.698719105483975E-1   -3.291396585939191E-1
 1.592205412058353E8     8.640484485714981E-1   -3.417667530374268E-1    9.069999691943058E-2    5.254496441267176E-2    9.151669939543415E-2    5.072317456034008E-2    8.687698052992422E-1   -3.316211564042070E-1
 1.604353720657634E8     8.628194786342567E-1   -3.443026685862491E-1    9.124053266128528E-2    5.302763943755668E-2    9.210598130524103E-2    5.113529788902341E-2    8.676288550388158E-1   -3.341506801380479E-1
 1.616594719182909E8     8.616072353683237E-1   -3.468821164884219E-1    9.179348061042363E-2    5.349059278513193E-2    9.269477445547730E-2    5.153571938993454E-2    8.664601475953483E-1   -3.366865326881525E-1
 1.628929114845590E8     8.603793702493954E-1   -3.494460697496911E-1    9.234647857096759E-2    5.393833607479947E-2    9.328298826620345E-2    5.192939911426734E-2    8.652559668632476E-1   -3.392198217443294E-1
 1.641357620253014E8     8.592143096949268E-1   -3.517980023797349E-1    9.288928519220550E-2    5.438867250619003E-2    9.385166768954671E-2    5.234731274097994E-2    8.640542568088631E-1   -3.417970068063219E-1
 1.653880953449593E8     8.579466260896332E-1   -3.544346454368104E-1    9.345310514377228E-2    5.481644184938630E-2    9.442122360666773E-2    5.276676119370880E-2    8.628164770030141E-1   -3.443471294050306E-1
 1.666499837958347E8     8.566324071889352E-1   -3.571051192858051E-1    9.402400190316493E-2    5.524414979268351E-2    9.499896042781886E-2    5.319222101789221E-2    8.615643305219030E-1   -3.469541379272125E-1
 1.679215002822650E8     8.553189869734668E-1   -3.598456256324568E-1    9.461450470447068E-2    5.567458589493548E-2    9.558828562096086E-2    5.363097081280354E-2    8.602596177635898E-1   -3.495770179822518E-1
 1.692027182648404E8     8.539543779260060E-1   -3.625816550024227E-1    9.521725051813110E-2    5.610380380108562E-2    9.620259558908294E-2    5.406165036391732E-2    8.589680889898822E-1   -3.522254522483580E-1
 1.704937117646426E8     8.525446003797551E-1   -3.653449823867689E-1    9.583193350621466E-2    5.653904604391230E-2    9.682782759659472E-2    5.448310330593438E-2    8.576483696244178E-1   -3.548774331965338E-1
 1.717945553675260E8     8.511600695630219E-1   -3.681446241172880E-1    9.644864270840199E-2    5.696276709467468E-2    9.745696876402882E-2    5.489191343037436E-2    8.563157387342726E-1   -3.575736415392435E-1
 1.731053242284249E8     8.497252998232044E-1   -3.709281002229942E-1    9.705634755448631E-2    5.739536964017394E-2    9.807536030652689E-2    5.530964074602093E-2    8.549334565636140E-1   -3.602520199144460E-1
 1.744260940756933E8     8.482737536368959E-1   -3.737350371634796E-1    9.768509715459779E-2    5.782662998968779E-2    9.870856764785861E-2    5.572579541854288E-2    8.535136442970479E-1   -3.629625471978350E-1
 1.757569412154842E8     8.467593550122141E-1   -3.765674787012810E-1    9.828639459396939E-2    5.825205446338400E-2    9.931190023345769E-2    5.614432534815482E-2    8.520481799130510E-1   -3.656518153340216E-1
 1.770979425361561E8     8.451569015804733E-1   -3.794141479533810E-1    9.888345986845243E-2    5.871382461922706E-2    9.991495762913657E-2    5.660601807003716E-2    8.505776368985933E-1   -3.683444981571802E-1
 1.784491755127131E8     8.435036537570033E-1   -3.822157496286597E-1    9.950830111358726E-2    5.921271495190925E-2    1.005526500494768E-1    5.709890342663427E-2    8.491001105530326E-1   -3.710765689998686E-1
 1.798107182112848E8     8.418734200740589E-1   -3.849863357092009E-1    1.001822263033268E-1    5.971410535153848E-2    1.012285984921567E-1    5.759023570550469E-2    8.475919678758236E-1   -3.738303202086830E-1
 1.811826492936349E8     8.401858382504414E-1   -3.877613998801266E-1    1.008675182006961E-1    6.020423563812778E-2    1.019051613172812E-1    5.808341086806868E-2    8.460098568461077E-1   -3.765547968525730E-1
 1.825650480217040E8     8.385062903445200E-1   -3.905524772095533E-1    1.015711345176382E-1    6.068159781269164E-2    1.026093574752176E-1    5.855948982308790E-2    8.444555861540423E-1   -3.793413172097688E-1
 1.839579942621904E8     8.367915438346116E-1   -3.933276936382435E-1    1.022923937337797E-1    6.116027148670148E-2    1.033212412981444E-1    5.904683065713238E-2    8.428413721935850E-1   -3.821023258626336E-1
 1.853615684911660E8     8.350702928227228E-1   -3.961117299662713E-1    1.030165793284708E-1    6.165294806893896E-2    1.040430441703359E-1    5.955450468932889E-2    8.412161452982486E-1   -3.848584303053003E-1
 1.867758517987237E8     8.333250965078624E-1   -3.989213102730431E-1    1.037635034250818E-1    6.212714764923289E-2    1.047830392684019E-1    6.005184154963710E-2    8.395947650568722E-1   -3.877023314865076E-1
 1.882009258936609E8     8.315997107720504E-1   -4.017463500936213E-1    1.045331859763139E-1    6.261615701656645E-2    1.055519385526501E-1    6.056958522384589E-2    8.378948941444487E-1   -3.905184721920923E-1
 1.896368731082037E8     8.297683167937745E-1   -4.046042237136698E-1    1.052976711684414E-1    6.307542485690783E-2    1.063230672781671E-1    6.107642932323438E-2    8.361424286383827E-1   -3.933537241956203E-1
 1.910837764027621E8     8.278981041935011E-1   -4.075333002972168E-1    1.060602803506959E-1    6.354519631805336E-2    1.071057481104045E-1    6.159243900046762E-2    8.343994291999969E-1   -3.961498098014247E-1
 1.925417193707203E8     8.259244578046917E-1   -4.104987269533381E-1    1.068156677547447E-1    6.401298999106944E-2    1.078885801455447E-1    6.210511830309778E-2    8.325914499351524E-1   -3.990359444557778E-1
 1.940107862432706E8     8.238179106206535E-1   -4.134148424630602E-1    1.075267799719531E-1    6.448971126890592E-2    1.086432056092806E-1    6.265898971886169E-2    8.307137100181775E-1   -4.019231764996563E-1
 1.954910618942780E8     8.216275785755778E-1   -4.163006032961463E-1    1.082094635994515E-1    6.506822221381073E-2    1.094365622522602E-1    6.332193367539761E-2    8.288241185653729E-1   -4.047225571004056E-1
 1.969826318451810E8     8.193909538914392E-1   -4.191151292151197E-1    1.089842852208685E-1    6.571814771321871E-2    1.103600972121113E-1    6.396853938470672E-2    8.270028791586607E-1   -4.075847146203387E-1
 1.984855822699381E8     8.170856969076470E-1   -4.218235541296853E-1    1.097627531730969E-1    6.637725635597327E-2    1.112626442154161E-1    6.458941165909272E-2    8.250812046742991E-1   -4.105154521907255E-1
 2.000000000000000E8     8.147816797898867E-1   -4.244191641539013E-1    1.105781794432071E-1    6.714999756773792E-2    1.121975400097877E-1    6.527597212618909E-2    8.230849725639503E-1   -4.134342398512039E-1
