#  HZ   S   RI   R     50.00 
! Rohde & Schwarz Vector Network Analyzer 
! Rohde-Schwarz,ZNLE6-2Port,1323001256200024,1.71.1.10-23.02.1.238
! Created: UTC 4/11/2025, 7:08:53 AM
! freq[Hz]                re:S11                  im:S11                  re:S21                  im:S21                  re:S12                  im:S12                  re:S22                  im:S22
 1.000000000000000E5     7.916018111126748E-1    1.302205437491686E-1    2.105141088850489E-1   -1.309956399655704E-1    2.107822778549615E-1   -1.311071291238321E-1    7.912371777290838E-1    1.300604203898816E-1
 1.007629862646662E5     7.920451441398714E-1    1.297943352098651E-1    2.100719955119185E-1   -1.305730631982546E-1    2.103351141440384E-1   -1.306806623592542E-1    7.916431697953453E-1    1.296350178582612E-1
 1.015317940097331E5     7.924523611431408E-1    1.293853354226697E-1    2.096368603179629E-1   -1.301480390123093E-1    2.099014079685237E-1   -1.302581462267677E-1    7.920784259615379E-1    1.292167229639757E-1
 1.023064676522963E5     7.928706614379113E-1    1.289409330111226E-1    2.092003752246806E-1   -1.297325077746555E-1    2.094589859668227E-1   -1.298414998129021E-1    7.924935165075887E-1    1.287934480707556E-1
 1.030870519483485E5     7.932631228700102E-1    1.285064595703474E-1    2.087587435491548E-1   -1.293218144773758E-1    2.090268659405764E-1   -1.294289452623468E-1    7.929183097277024E-1    1.283832509987041E-1
 1.038735919953636E5     7.936722709383714E-1    1.280872012725180E-1    2.083219935323466E-1   -1.289032232015684E-1    2.086021151575921E-1   -1.290140312831690E-1    7.933572369457934E-1    1.279673765166099E-1
 1.046661332349037E5     7.940665944581456E-1    1.276679415658767E-1    2.078789890067800E-1   -1.284904526580700E-1    2.081653683239269E-1   -1.286104452837863E-1    7.938042440907921E-1    1.275755191018904E-1
 1.054647214552430E5     7.945357769433214E-1    1.272804208491784E-1    2.074533296734039E-1   -1.280891029757215E-1    2.077305538129932E-1   -1.282014313187225E-1    7.942123481159022E-1    1.271598542098999E-1
 1.062694027940149E5     7.949547410289807E-1    1.268845291113055E-1    2.070290918439601E-1   -1.276881069372010E-1    2.073029048486388E-1   -1.277978703082497E-1    7.946202856680140E-1    1.267572984370648E-1
 1.070802237408760E5     7.953401802619319E-1    1.264662588817057E-1    2.065968528469116E-1   -1.272861445201498E-1    2.068663290737514E-1   -1.274035476522725E-1    7.950373277068385E-1    1.263670777388914E-1
 1.078972311401927E5     7.957645810104582E-1    1.260713201357660E-1    2.061604340325418E-1   -1.268890289094673E-1    2.064348880059447E-1   -1.270036441900139E-1    7.954568349243815E-1    1.259877079036493E-1
 1.087204721937475E5     7.962055079298186E-1    1.256805937516304E-1    2.057400400416389E-1   -1.264996292511827E-1    2.060091658104028E-1   -1.266130069824710E-1    7.958771204404355E-1    1.255713605624018E-1
 1.095499944634658E5     7.966388983053906E-1    1.252920934318191E-1    2.053087266646765E-1   -1.261132470524809E-1    2.055824112875064E-1   -1.262220891946900E-1    7.963005176718052E-1    1.252132792088788E-1
 1.103858458741646E5     7.970370429884813E-1    1.249100502694290E-1    2.048743078175253E-1   -1.257197873372266E-1    2.051479139993916E-1   -1.258308977977717E-1    7.967245944236470E-1    1.248117700612340E-1
 1.112280747163201E5     7.974345154529235E-1    1.245161513911486E-1    2.044483389928689E-1   -1.253314163313100E-1    2.047200517578547E-1   -1.254531618989693E-1    7.971551980529903E-1    1.244297273853927E-1
 1.120767296488583E5     7.978544364803807E-1    1.241136092930074E-1    2.040100901827236E-1   -1.249494482690528E-1    2.042908196621196E-1   -1.250674331070765E-1    7.975526098127423E-1    1.240473245670662E-1
 1.129318597019661E5     7.982927143323690E-1    1.237252651243195E-1    2.035824429964216E-1   -1.245736261724003E-1    2.038579348652082E-1   -1.246881416610336E-1    7.979909309595239E-1    1.236672786210452E-1
 1.137935142799240E5     7.987180458062156E-1    1.233795711637047E-1    2.031631129843710E-1   -1.241907757465199E-1    2.034253849356679E-1   -1.243056467155276E-1    7.984195665950137E-1    1.232865365717454E-1
 1.146617431639607E5     7.991219379803424E-1    1.230001892671059E-1    2.027384738807305E-1   -1.238244039860697E-1    2.029889084375802E-1   -1.239263490404780E-1    7.988114057678146E-1    1.229203871488383E-1
 1.155365965151286E5     7.995504855216536E-1    1.226196558342653E-1    2.023101210102490E-1   -1.234546768887990E-1    2.025654152292935E-1   -1.235600810605847E-1    7.992448172305487E-1    1.225388357234493E-1
 1.164181248772018E5     7.999596252342669E-1    1.222557453738201E-1    2.018885112350859E-1   -1.230818097499539E-1    2.021392194952370E-1   -1.231910371012803E-1    7.996394974894512E-1    1.221777124668600E-1
 1.173063791795965E5     8.003880703251485E-1    1.218865586901196E-1    2.014635832925520E-1   -1.227160427278978E-1    2.017014758985502E-1   -1.228258394302646E-1    8.000424743451049E-1    1.217981815941284E-1
 1.182014107403141E5     8.008088389663518E-1    1.215225849327316E-1    2.010330849277636E-1   -1.223559299906260E-1    2.012762218531504E-1   -1.224576305754623E-1    8.004863193793414E-1    1.214555296943052E-1
 1.191032712689044E5     8.012292403358144E-1    1.211661069551390E-1    2.005959587596035E-1   -1.219900956226460E-1    2.008486812070557E-1   -1.220950062776287E-1    8.009010918812741E-1    1.210783548270341E-1
 1.200120128694542E5     8.016407006311893E-1    1.207925553312403E-1    2.001723011227508E-1   -1.216348003850494E-1    2.004188667091175E-1   -1.217353151712140E-1    8.013271809116064E-1    1.207263285576897E-1
 1.209276880435975E5     8.020857396352244E-1    1.204525837469228E-1    1.997487592582611E-1   -1.212707633738189E-1    1.999955471401199E-1   -1.213835452517020E-1    8.017730652279630E-1    1.203677417031285E-1
 1.218503496935483E5     8.024947460675349E-1    1.200888606184632E-1    1.993234928652950E-1   -1.209155279363931E-1    1.995658387765835E-1   -1.210234182992447E-1    8.021647543787923E-1    1.200224395727119E-1
 1.227800511251578E5     8.029329039450224E-1    1.197470606453517E-1    1.989033298445159E-1   -1.205642587773338E-1    1.991363286070096E-1   -1.206672137182231E-1    8.025781267121148E-1    1.196638219067049E-1
 1.237168460509929E5     8.033178591823017E-1    1.193846258465225E-1    1.984728173790620E-1   -1.202163180626986E-1    1.987188006065380E-1   -1.203178461501814E-1    8.030330833389855E-1    1.193241625565087E-1
 1.246607885934402E5     8.037404893214163E-1    1.190509814785180E-1    1.980402403274568E-1   -1.198641021183519E-1    1.982795634834730E-1   -1.199755164489969E-1    8.034516065378317E-1    1.189688314660641E-1
 1.256119332878327E5     8.041646424542805E-1    1.186971499937953E-1    1.976180143276778E-1   -1.195225959055459E-1    1.978624973058115E-1   -1.196295831211299E-1    8.038797262489011E-1    1.186330572801598E-1
 1.265703350856002E5     8.045722875084313E-1    1.183549715487002E-1    1.971841649941989E-1   -1.191775519050968E-1    1.974350328459355E-1   -1.192912773555795E-1    8.042959473543573E-1    1.182955951607001E-1
 1.275360493574453E5     8.050169197515575E-1    1.180075564119670E-1    1.967665824332702E-1   -1.188383450754279E-1    1.970081423090641E-1   -1.189431019276576E-1    8.047066583670984E-1    1.179385462733572E-1
 1.285091318965405E5     8.054253115685217E-1    1.176608173284765E-1    1.963448214318777E-1   -1.184974956354339E-1    1.965883686829212E-1   -1.186072716538775E-1    8.051510205351333E-1    1.176163271757172E-1
 1.294896389217529E5     8.058161920921992E-1    1.173276116963256E-1    1.959152166821380E-1   -1.181581287150976E-1    1.961585076140792E-1   -1.182670111904951E-1    8.055622647584429E-1    1.172878978271858E-1
 1.304776270808914E5     8.062634312250826E-1    1.170004767213921E-1    1.954921931460366E-1   -1.178298117208135E-1    1.957369830351896E-1   -1.179392164083201E-1    8.060236558279112E-1    1.169502764189446E-1
 1.314731534539810E5     8.066686839633492E-1    1.166600463786643E-1    1.950643526318153E-1   -1.174962076400177E-1    1.953051429396739E-1   -1.176036320432072E-1    8.064268404992234E-1    1.166124149726338E-1
 1.324762755565583E5     8.070826123995573E-1    1.163472820348379E-1    1.946416998464231E-1   -1.171650084777847E-1    1.948835810379897E-1   -1.172733918582919E-1    8.068616873651688E-1    1.162697384273733E-1
 1.334870513429962E5     8.075264095662957E-1    1.160062386449790E-1    1.942099102050777E-1   -1.168396709620252E-1    1.944644758274906E-1   -1.169444998822313E-1    8.072904851089849E-1    1.159585406964628E-1
 1.345055392098512E5     8.079488209383907E-1    1.156857924404211E-1    1.937896550944865E-1   -1.165108364928733E-1    1.940362555459960E-1   -1.166151446094898E-1    8.077058047760696E-1    1.156208966708305E-1
 1.355317979992373E5     8.083705974537558E-1    1.153625803519515E-1    1.933706887862431E-1   -1.161825499265750E-1    1.936052108894437E-1   -1.162841704925190E-1    8.081300879230476E-1    1.153074784279593E-1
 1.365658870022265E5     8.087846169582997E-1    1.150396529268914E-1    1.929401442749682E-1   -1.158571480183056E-1    1.931800396221681E-1   -1.159576518976770E-1    8.085430302767493E-1    1.149758112987380E-1
 1.376078659622731E5     8.092104069147170E-1    1.147190869694585E-1    1.925185464432169E-1   -1.155414562779644E-1    1.927526456899425E-1   -1.156400856343839E-1    8.089806197902826E-1    1.146472029529418E-1
 1.386577950786655E5     8.096463720139428E-1    1.143990288540494E-1    1.920943579776458E-1   -1.152206907700984E-1    1.923261728772903E-1   -1.153209168147297E-1    8.093885808020201E-1    1.143380158243276E-1
 1.397157350100044E5     8.100619477429253E-1    1.140671741260751E-1    1.916665088286262E-1   -1.148961432184497E-1    1.918992728402905E-1   -1.150025982072638E-1    8.097819793745263E-1    1.140145071601230E-1
 1.407817468777081E5     8.104581712879507E-1    1.137285297182699E-1    1.912371443850099E-1   -1.145833335657254E-1    1.914698201726467E-1   -1.146838871240933E-1    8.102071910104711E-1    1.136946356900970E-1
 1.418558922695422E5     8.108688837106548E-1    1.134242370311199E-1    1.908104401336348E-1   -1.142663740539135E-1    1.910396367469298E-1   -1.143704357482044E-1    8.106385868076775E-1    1.133748027469814E-1
 1.429382332431784E5     8.113054365862185E-1    1.131180257505308E-1    1.903880860307685E-1   -1.139496478293691E-1    1.906151928904942E-1   -1.140522885322704E-1    8.110430933048226E-1    1.130729498823348E-1
 1.440288323297804E5     8.117236045185613E-1    1.128038396983976E-1    1.899588276495497E-1   -1.136416414616025E-1    1.901910294481080E-1   -1.137444319712256E-1    8.114782550092550E-1    1.127607600165796E-1
 1.451277525376154E5     8.121243123071392E-1    1.124889865809465E-1    1.895373171909659E-1   -1.133345889111255E-1    1.897667397074843E-1   -1.134405980534356E-1    8.118901564173707E-1    1.124474546175550E-1
 1.462350573556962E5     8.125302550426682E-1    1.121967286534389E-1    1.891049244987194E-1   -1.130240291785127E-1    1.893494100016841E-1   -1.131340561230159E-1    8.123183008216494E-1    1.121334404702762E-1
 1.473508107574468E5     8.129388908680547E-1    1.118832285358132E-1    1.886884966349285E-1   -1.127169941400036E-1    1.889195044923855E-1   -1.128192101034662E-1    8.127107720277169E-1    1.118347918196925E-1
 1.484750772044004E5     8.133622295415600E-1    1.115808117929667E-1    1.882631092107976E-1   -1.124080352992525E-1    1.885013850951011E-1   -1.125223660290634E-1    8.131433256804775E-1    1.115342952067771E-1
 1.496079216499225E5     8.138191610121588E-1    1.112680920068569E-1    1.878377005734222E-1   -1.121125298535051E-1    1.880662498858061E-1   -1.122143742767299E-1    8.135668339731897E-1    1.112318648542327E-1
 1.507494095429637E5     8.142318260662439E-1    1.109712496970025E-1    1.874147608712246E-1   -1.118057576347112E-1    1.876408389075276E-1   -1.119115404653431E-1    8.140145835623004E-1    1.109318183361798E-1
 1.518996068318418E5     8.146299822760621E-1    1.106676975799299E-1    1.869886057056450E-1   -1.115081111300591E-1    1.872132378299227E-1   -1.116061762946878E-1    8.144278863059354E-1    1.106249954511217E-1
 1.530585799680507E5     8.150601436308866E-1    1.103759372178301E-1    1.865673169064078E-1   -1.112022731344624E-1    1.867928292285609E-1   -1.113047248638559E-1    8.148387525023709E-1    1.103330987045753E-1
 1.542263959101001E5     8.154954700409538E-1    1.100666374724570E-1    1.861405488651149E-1   -1.109098944529654E-1    1.863715784054570E-1   -1.110161857841591E-1    8.152917152930241E-1    1.100403355907764E-1
 1.554031221273835E5     8.158961174560005E-1    1.097691335365393E-1    1.857223876319445E-1   -1.106099430080130E-1    1.859395565361747E-1   -1.107117886934516E-1    8.156865075435674E-1    1.097321771849233E-1
 1.565888266040779E5     8.163516674469802E-1    1.094842789092854E-1    1.852988611991337E-1   -1.103192466508077E-1    1.855159580149244E-1   -1.104193470011738E-1    8.160898058052415E-1    1.094354434367963E-1
 1.577835778430689E5     8.167468879920163E-1    1.091798149154465E-1    1.848705090988244E-1   -1.100268576005533E-1    1.850870282006733E-1   -1.101206473048564E-1    8.164991846690065E-1    1.091317457026194E-1
 1.589874448699104E5     8.171565198236941E-1    1.088806861754751E-1    1.844456854954221E-1   -1.097323826789416E-1    1.846657341054029E-1   -1.098298659032343E-1    8.169534073479989E-1    1.088498643451838E-1
 1.602004972368116E5     8.175636218028270E-1    1.085895413832280E-1    1.840184336919119E-1   -1.094416990072112E-1    1.842414549711448E-1   -1.095393205752918E-1    8.173478728649465E-1    1.085778602707027E-1
 1.614228050266550E5     8.180066425270689E-1    1.083130518635503E-1    1.836002899389075E-1   -1.091500982298051E-1    1.838183739785135E-1   -1.092464426451175E-1    8.177741048676914E-1    1.082783381062786E-1
 1.626544388570473E5     8.183830136829184E-1    1.080139225597362E-1    1.831651569122306E-1   -1.088507796076161E-1    1.833911330015848E-1   -1.089618077585293E-1    8.182102677119588E-1    1.079694554461253E-1
 1.638954698843964E5     8.188001138544121E-1    1.077150502918202E-1    1.827324856410544E-1   -1.085609177986822E-1    1.829687769696334E-1   -1.086730091565003E-1    8.186156698973659E-1    1.077016210407723E-1
 1.651459698080244E5     8.192405537947705E-1    1.074331684507566E-1    1.823072195673082E-1   -1.082788708501788E-1    1.825368205665675E-1   -1.083840383768322E-1    8.190556048433152E-1    1.073902613097012E-1
 1.664060108743095E5     8.196576147312838E-1    1.071417569267251E-1    1.818862933870878E-1   -1.079963528281639E-1    1.821086997970575E-1   -1.080994047717813E-1    8.194545528454871E-1    1.071171839695511E-1
 1.676756658808590E5     8.200721772278885E-1    1.068681857172328E-1    1.814664373183956E-1   -1.077112378471070E-1    1.816817141939314E-1   -1.078167352726617E-1    8.198929674128065E-1    1.068425509477111E-1
 1.689550081807175E5     8.205082733761583E-1    1.065705637946121E-1    1.810401112439172E-1   -1.074309083222671E-1    1.812635520922639E-1   -1.075343039865361E-1    8.203306807763342E-1    1.065572603809347E-1
 1.702441116866020E5     8.209391075953774E-1    1.062858740141233E-1    1.806142578190407E-1   -1.071437920098150E-1    1.808330624466609E-1   -1.072510659133033E-1    8.207552571978698E-1    1.062734175755666E-1
 1.715430508751738E5     8.213451493280552E-1    1.060227127442675E-1    1.801924208120926E-1   -1.068611146911135E-1    1.804139155608926E-1   -1.069685439557165E-1    8.211808981699633E-1    1.059936635281373E-1
 1.728519007913403E5     8.217764758814483E-1    1.057351144721159E-1    1.797694623935742E-1   -1.065873402541136E-1    1.799905556528429E-1   -1.066866029337986E-1    8.215868729526041E-1    1.057200833139415E-1
 1.741707370525927E5     8.222419131579861E-1    1.054551190261557E-1    1.793517446690635E-1   -1.063028636646600E-1    1.795700719027447E-1   -1.064102188474663E-1    8.220045856635850E-1    1.054298631164554E-1
 1.754996358533718E5     8.226596746586468E-1    1.051794821696439E-1    1.789339836025185E-1   -1.060238390491501E-1    1.791427088637929E-1   -1.061292082863113E-1    8.224130942827835E-1    1.051391644832826E-1
 1.768386739694722E5     8.230834984659048E-1    1.049059810320051E-1    1.785085840477769E-1   -1.057536764440438E-1    1.787140308612572E-1   -1.058503132472005E-1    8.228322188438895E-1    1.048717129828523E-1
 1.781879287624771E5     8.234891735540879E-1    1.046182542532124E-1    1.780756504082767E-1   -1.054715212012720E-1    1.782989507341453E-1   -1.055720578633643E-1    8.232487439134430E-1    1.045873897180266E-1
 1.795474781842276E5     8.239246669842674E-1    1.043521608800045E-1    1.776545555541056E-1   -1.051938834478402E-1    1.778616387868091E-1   -1.052888742381468E-1    8.236392731480434E-1    1.043153037752761E-1
 1.809174007813277E5     8.243322122128963E-1    1.040650812108542E-1    1.772318666626077E-1   -1.049151779219142E-1    1.774388770116299E-1   -1.050199576289755E-1    8.240614674679101E-1    1.040430999826776E-1
 1.822977756996804E5     8.247748434666674E-1    1.038061089425807E-1    1.768173453096305E-1   -1.046454372552182E-1    1.770165393402670E-1   -1.047376280134417E-1    8.244616542971296E-1    1.037565773148900E-1
 1.836886826890609E5     8.251936116217631E-1    1.035232903367865E-1    1.763829474588334E-1   -1.043732181000913E-1    1.765951277183850E-1   -1.044699630283718E-1    8.249057457346461E-1    1.034967599917774E-1
 1.850902021077247E5     8.255768169849544E-1    1.032298842835202E-1    1.759588288661212E-1   -1.041008625209465E-1    1.761729113688417E-1   -1.041960383987987E-1    8.253257149806557E-1    1.032310398567092E-1
 1.865024149270491E5     8.260016482339084E-1    1.029677261329472E-1    1.755420083877251E-1   -1.038279593376013E-1    1.757496893536733E-1   -1.039256328052867E-1    8.257763057999368E-1    1.029463579832740E-1
 1.879254027362132E5     8.264226921395808E-1    1.027094179596906E-1    1.751188917528212E-1   -1.035536356688542E-1    1.753230879173401E-1   -1.036526163697609E-1    8.261999193666382E-1    1.026868189675098E-1
 1.893592477469092E5     8.268355247164847E-1    1.024408472810358E-1    1.747168383615456E-1   -1.032746642912944E-1    1.748897960313065E-1   -1.033868068550232E-1    8.265762058864390E-1    1.023881661890958E-1
 1.908040327980933E5     8.272602232810328E-1    1.021669663540425E-1    1.742797098713733E-1   -1.030122744316233E-1    1.744845304195710E-1   -1.031108939931777E-1    8.270005468923456E-1    1.021302592730506E-1
 1.922598413607715E5     8.276663697245004E-1    1.018930847666831E-1    1.738569271030159E-1   -1.027423911465686E-1    1.740565337652684E-1   -1.028399489857953E-1    8.274120118323015E-1    1.018649022557513E-1
 1.937267575428232E5     8.280936046887185E-1    1.016282065176324E-1    1.734346444754561E-1   -1.024718743252530E-1    1.736366747408760E-1   -1.025693346340744E-1    8.278766318288144E-1    1.015990971573627E-1
 1.952048660938581E5     8.285140206498521E-1    1.013489658284288E-1    1.730102470182546E-1   -1.022075181049607E-1    1.732100395852496E-1   -1.023026521974151E-1    8.282547444326501E-1    1.013189054055080E-1
 1.966942524101142E5     8.289343687532115E-1    1.010862080924478E-1    1.725841707456860E-1   -1.019403221728930E-1    1.727891187449831E-1   -1.020316305537302E-1    8.286968380577822E-1    1.010705060239334E-1
 1.981950025393913E5     8.293456284039152E-1    1.008187294872248E-1    1.721620482855903E-1   -1.016754047960756E-1    1.723607237986560E-1   -1.017635661460766E-1    8.291111025001868E-1    1.007785268477189E-1
 1.997072031860212E5     8.297787338472042E-1    1.005514227368558E-1    1.717475649157873E-1   -1.014030388681686E-1    1.719465401921030E-1   -1.014983099142560E-1    8.295443396051905E-1    1.005244919563063E-1
 2.012309417158795E5     8.302007895733343E-1    1.002689390253477E-1    1.713203701529750E-1   -1.011360441019971E-1    1.715269863531871E-1   -1.012327606788608E-1    8.299511738575454E-1    1.002579232555928E-1
 2.027663061614301E5     8.306305208686509E-1    1.000147222341730E-1    1.709102646200792E-1   -1.008747494644802E-1    1.711065411195749E-1   -1.009701547741045E-1    8.303482329838550E-1    9.999127231155804E-2
 2.043133852268128E5     8.310470387458454E-1    9.974383682305833E-2    1.704838362369512E-1   -1.006063556418313E-1    1.706836908504706E-1   -1.007059510221386E-1    8.307517659654916E-1    9.970577303629885E-2
 2.058722682929675E5     8.314167476995470E-1    9.949616056910866E-2    1.700677658172629E-1   -1.003408221582501E-1    1.702613118401669E-1   -1.004359301437734E-1    8.311766784005783E-1    9.943813186268929E-2
 2.074430454227995E5     8.318732698003070E-1    9.922112157256135E-2    1.696529543426823E-1   -1.000833993145980E-1    1.698353400234171E-1   -1.001732398954075E-1    8.315583793860406E-1    9.915967130302517E-2
 2.090258073663807E5     8.322658680406785E-1    9.894682266211308E-2    1.692245937719996E-1   -9.981308560969561E-2    1.694181228043663E-1   -9.990869099761521E-2    8.319863137656311E-1    9.889822967511035E-2
 2.106206455661938E5     8.326714135135238E-1    9.866980998648252E-2    1.688065991022472E-1   -9.955360422443488E-2    1.690005981747303E-1   -9.964497306023862E-2    8.324140522498004E-1    9.865200619998714E-2
 2.122276521624151E5     8.330416847264479E-1    9.840132620499999E-2    1.683868650581276E-1   -9.928748055093425E-2    1.685761376844975E-1   -9.937750590195549E-2    8.328188662452306E-1    9.837611219221881E-2
 2.138469199982374E5     8.334813749928484E-1    9.814295913814336E-2    1.679668162582047E-1   -9.903003035724821E-2    1.681610328850625E-1   -9.911604004550327E-2    8.332358335520275E-1    9.809992071154151E-2
 2.154785426252357E5     8.339122223912994E-1    9.787868433758187E-2    1.675499869242340E-1   -9.876490795278287E-2    1.677386969909532E-1   -9.885420468445498E-2    8.336617529395397E-1    9.783822839728415E-2
 2.171226143087691E5     8.343063612723984E-1    9.761006231786884E-2    1.671258304121114E-1   -9.850486348046715E-2    1.673206014618604E-1   -9.858994447551873E-2    8.340701563566970E-1    9.756823179453339E-2
 2.187792300334291E5     8.347500428737006E-1    9.735420428766768E-2    1.667071019123011E-1   -9.824141246213305E-2    1.669086664646345E-1   -9.833004981919001E-2    8.345001209420282E-1    9.730454105787144E-2
 2.204484855085266E5     8.351283841607834E-1    9.708482400204341E-2    1.662939597753460E-1   -9.798123937496206E-2    1.664895377645207E-1   -9.807203247988865E-2    8.349036846586197E-1    9.702626260667281E-2
 2.221304771736209E5     8.355726805812557E-1    9.683140150754045E-2    1.658700907558710E-1   -9.771818333453647E-2    1.660792689806519E-1   -9.780815153982825E-2    8.353152160193983E-1    9.677431210240045E-2
 2.238253022040931E5     8.359705945941913E-1    9.657746765077871E-2    1.654465386922652E-1   -9.745640718956547E-2    1.656692090450988E-1   -9.754700812814907E-2    8.357624998920004E-1    9.652092360954925E-2
 2.255330585167579E5     8.363567517097662E-1    9.630103405223461E-2    1.650384408841922E-1   -9.719612266842827E-2    1.652473665542804E-1   -9.728686142098297E-2    8.361513464528691E-1    9.624593974802606E-2
 2.272538447755223E5     8.367975573748467E-1    9.605552428720038E-2    1.646201849951120E-1   -9.693013467623957E-2    1.648250176637733E-1   -9.702245450110117E-2    8.365677209188005E-1    9.598546485767012E-2
 2.289877603970853E5     8.371977307644272E-1    9.578884635287664E-2    1.642022293351566E-1   -9.667026565121768E-2    1.644063628904839E-1   -9.675772512030803E-2    8.369210577999239E-1    9.572568781782836E-2
 2.307349055566813E5     8.376188912343112E-1    9.552633126199291E-2    1.637909863467167E-1   -9.641449987525076E-2    1.639929054756971E-1   -9.650043280928770E-2    8.373586157530782E-1    9.544734231254499E-2
 2.324953811938693E5     8.380183110298400E-1    9.525848057518115E-2    1.633806238241184E-1   -9.614689456775095E-2    1.635866755514630E-1   -9.623679959713277E-2    8.377815232345247E-1    9.519814076119409E-2
 2.342692890183618E5     8.384375830401964E-1    9.499296110829338E-2    1.629577898701486E-1   -9.588684978411688E-2    1.631698225785780E-1   -9.597696610285165E-2    8.381751970589816E-1    9.493624073955362E-2
 2.360567315159030E5     8.388774591278264E-1    9.473285452996191E-2    1.625484063734568E-1   -9.563095483182468E-2    1.627492285465301E-1   -9.571339249155653E-2    8.385614493548900E-1    9.467310200939959E-2
 2.378578119541888E5     8.392883431601433E-1    9.447545337375855E-2    1.621354116758432E-1   -9.536848235314405E-2    1.623407100915224E-1   -9.545625298595979E-2    8.389778056631065E-1    9.440462746231680E-2
 2.396726343888348E5     8.396920664908722E-1    9.421404754720181E-2    1.617234759398546E-1   -9.510073232881447E-2    1.619275811144622E-1   -9.519568529559015E-2    8.393645059383336E-1    9.415913619166970E-2
 2.415013036693852E5     8.400723858098738E-1    9.393908337725283E-2    1.613065474316250E-1   -9.484252145061980E-2    1.615276616576356E-1   -9.493771987102038E-2    8.397985032808480E-1    9.391639254536399E-2
 2.433439254453724E5     8.404986979250958E-1    9.368483779936412E-2    1.609034988894311E-1   -9.458429790289437E-2    1.611081734467363E-1   -9.467132915267770E-2    8.401859356173436E-1    9.363659053202289E-2
 2.452006061724201E5     8.408804738698326E-1    9.341192877832882E-2    1.605002371335978E-1   -9.432602276865576E-2    1.607013801192520E-1   -9.441621269862346E-2    8.406144625312845E-1    9.338858218513801E-2
 2.470714531183934E5     8.412937614176870E-1    9.315486913838031E-2    1.600945198208271E-1   -9.406046785815847E-2    1.602855703231812E-1   -9.415364453911056E-2    8.410011538217604E-1    9.312600464709386E-2
 2.489565743695979E5     8.417153426022400E-1    9.289128761734612E-2    1.596764305750357E-1   -9.379887918933738E-2    1.598716052439742E-1   -9.389210136813388E-2    8.414056221104892E-1    9.286187892433129E-2
 2.508560788370214E5     8.421263780953474E-1    9.262484295839125E-2    1.592687206142575E-1   -9.354388752264030E-2    1.594633867868353E-1   -9.363254250786118E-2    8.418114580750800E-1    9.261059817565641E-2
 2.527700762626280E5     8.424879537398926E-1    9.235706407454967E-2    1.588655282942591E-1   -9.327520352011891E-2    1.590623052461197E-1   -9.337110731255117E-2    8.422080705360023E-1    9.236484204904803E-2
 2.546986772256976E5     8.428882413623318E-1    9.209225192017961E-2    1.584581626111931E-1   -9.301373470374605E-2    1.586516680300867E-1   -9.311491038252279E-2    8.426090892818975E-1    9.210218540226321E-2
 2.566419931492161E5     8.433121712071657E-1    9.181709635679734E-2    1.580541520356251E-1   -9.275617138808634E-2    1.582527496323511E-1   -9.285570081070577E-2    8.430170693959155E-1    9.183382208702114E-2
 2.586001363063102E5     8.436866266153870E-1    9.154778694834617E-2    1.576459977057340E-1   -9.249410557737615E-2    1.578399657523109E-1   -9.259153685534405E-2    8.433869499123005E-1    9.157962988280149E-2
 2.605732198267354E5     8.440630682636995E-1    9.128551311048293E-2    1.572484527403363E-1   -9.223669341886893E-2    1.574400608786047E-1   -9.233432460791442E-2    8.438180935884941E-1    9.131900701176164E-2
 2.625613577034118E5     8.444617464599053E-1    9.102549510161533E-2    1.568453684504316E-1   -9.197193859015394E-2    1.570351190222709E-1   -9.207136921513528E-2    8.441968030831527E-1    9.106009742729047E-2
 2.645646647990093E5     8.448469341275383E-1    9.077467889671562E-2    1.564421487991288E-1   -9.171219845584612E-2    1.566383978933913E-1   -9.181371693403285E-2    8.445922825397362E-1    9.080377237434173E-2
 2.665832568525859E5     8.452129728466214E-1    9.051579532043832E-2    1.560467386746033E-1   -9.144828721965928E-2    1.562367200430728E-1   -9.155290500733716E-2    8.449957081073248E-1    9.053886819124973E-2
 2.686172504862709E5     8.456054991260270E-1    9.025503349182584E-2    1.556488744220474E-1   -9.119164855742190E-2    1.558261821775382E-1   -9.128769308844302E-2    8.453640244449042E-1    9.028021955176392E-2
 2.706667632120051E5     8.460029845441615E-1    9.000372916661728E-2    1.552534248187264E-1   -9.092655568385204E-2    1.554345963994427E-1   -9.103351025931460E-2    8.457987401958329E-1    9.003034523049386E-2
 2.727319134383292E5     8.463795504663271E-1    8.972825305190379E-2    1.548492076383731E-1   -9.066624009843557E-2    1.550432361061133E-1   -9.077469497243823E-2    8.462223723437585E-1    8.977987298453508E-2
 2.748128204772244E5     8.467991679294248E-1    8.947552643369132E-2    1.544654469901963E-1   -9.040662777748959E-2    1.546429099475084E-1   -9.051166772255276E-2    8.465826459939974E-1    8.951301904264912E-2
 2.769096045510074E5     8.471792127444545E-1    8.922369894920744E-2    1.540689739946501E-1   -9.014637932018270E-2    1.542427559326895E-1   -9.024758153928493E-2    8.469569048184837E-1    8.925105114380905E-2
 2.790223867992730E5     8.475558943857977E-1    8.896755721247235E-2    1.536739907828766E-1   -8.988418181306018E-2    1.538596447060863E-1   -8.999558598197382E-2    8.473721023124440E-1    8.899131917836506E-2
 2.811512892858952E5     8.479451090397013E-1    8.871772138098710E-2    1.532799768702255E-1   -8.962293656565515E-2    1.534584348465808E-1   -8.973111850072500E-2    8.477758559104268E-1    8.872207720013953E-2
 2.832964350060779E5     8.483374915428984E-1    8.845594912063108E-2    1.528870292128161E-1   -8.936161207602086E-2    1.530648441814662E-1   -8.946820927139554E-2    8.481507026870213E-1    8.846498073414899E-2
 2.854579478934632E5     8.486904909306002E-1    8.819321783855465E-2    1.525003046444438E-1   -8.909763876765311E-2    1.526773146107719E-1   -8.921344078184860E-2    8.485497148577046E-1    8.820351778958212E-2
 2.876359528272883E5     8.491026520707734E-1    8.793725186847179E-2    1.521203436083017E-1   -8.883930890489043E-2    1.522907368169995E-1   -8.895018542475433E-2    8.489271511451615E-1    8.794179185677871E-2
 2.898305756396023E5     8.495040416002467E-1    8.768429311254716E-2    1.517395025811160E-1   -8.858157311625112E-2    1.519082262578592E-1   -8.869552158103483E-2    8.493193868850919E-1    8.767801993272870E-2
 2.920419431225354E5     8.498794570018871E-1    8.742825483650096E-2    1.513557353632192E-1   -8.832696774200241E-2    1.515159369540633E-1   -8.843149427845058E-2    8.496722236946680E-1    8.742888430539007E-2
 2.942701830356239E5     8.502667468851816E-1    8.716730452483976E-2    1.509792920189733E-1   -8.807171594205726E-2    1.511353154073465E-1   -8.817238071727876E-2    8.500810463871979E-1    8.717513038363311E-2
 2.965154241131938E5     8.506590687653005E-1    8.691748055113539E-2    1.505952939148086E-1   -8.780906193101587E-2    1.507522233739946E-1   -8.791851909746803E-2    8.504986599184637E-1    8.693017355722836E-2
 2.987777960717941E5     8.510400595264902E-1    8.665599295718268E-2    1.502156736590254E-1   -8.755385660531556E-2    1.503627228212054E-1   -8.765314504292682E-2    8.508323956275781E-1    8.665137754381566E-2
 3.010574296176943E5     8.514380934896775E-1    8.639983113820307E-2    1.498406690590889E-1   -8.729726412313896E-2    1.499901311842885E-1   -8.739635698055660E-2    8.512176943989246E-1    8.639961190785768E-2
 3.033544564544337E5     8.517929250462606E-1    8.613784892308979E-2    1.494641687873943E-1   -8.703686382825798E-2    1.496167957207837E-1   -8.714442141194287E-2    8.516245209096371E-1    8.613470084155227E-2
 3.056690092904338E5     8.521820698009122E-1    8.588415190773713E-2    1.490898200602924E-1   -8.678265058641375E-2    1.492439782764780E-1   -8.688634176454256E-2    8.519974013878562E-1    8.588756164221537E-2
 3.080012218466610E5     8.525622947054128E-1    8.562806617632732E-2    1.487225823319364E-1   -8.652319884190401E-2    1.488700349613172E-1   -8.662584292533548E-2    8.523455235860500E-1    8.562964651662067E-2
 3.103512288643551E5     8.529576610623031E-1    8.537817735774592E-2    1.483519306998932E-1   -8.626681873435893E-2    1.484889602455099E-1   -8.636838823981084E-2    8.527246477693591E-1    8.536455656659780E-2
 3.127191661128128E5     8.533262963850720E-1    8.512382512264406E-2    1.479785085044632E-1   -8.601386948681400E-2    1.481206876085389E-1   -8.611526612092192E-2    8.530794287250920E-1    8.509889714741202E-2
 3.151051703972316E5     8.536669198372890E-1    8.486540138035362E-2    1.476046803432498E-1   -8.575849157818528E-2    1.477432795311314E-1   -8.585520986375729E-2    8.534391742601484E-1    8.484380317321963E-2
 3.175093795666154E5     8.540203137570529E-1    8.459318995402200E-2    1.472375754086543E-1   -8.550373070310013E-2    1.473711374738276E-1   -8.560273610382550E-2    8.537888599599230E-1    8.459292117348741E-2
 3.199319325217355E5     8.543392265575556E-1    8.433215589940649E-2    1.468708186151874E-1   -8.525177059420559E-2    1.470043755203342E-1   -8.534770543243514E-2    8.541520776428659E-1    8.433643063730797E-2
 3.223729692231574E5     8.547229206937080E-1    8.408266176484459E-2    1.464979931984406E-1   -8.499066576838854E-2    1.466356263111169E-1   -8.508893314036653E-2    8.545301060732896E-1    8.406146927952847E-2
 3.248326306993267E5     8.550937980120514E-1    8.382143200237295E-2    1.461388926962628E-1   -8.474201418270465E-2    1.462720528308548E-1   -8.483426770522971E-2    8.548956008375094E-1    8.382391909788735E-2
 3.273110590547157E5     8.554452735903187E-1    8.356880640862367E-2    1.457794067593322E-1   -8.449392069644848E-2    1.459175723385197E-1   -8.458607210960239E-2    8.552859919379484E-1    8.357217752987192E-2
 3.298083974780366E5     8.558478207641349E-1    8.332230506282164E-2    1.454137122653086E-1   -8.423708844033212E-2    1.455572474122353E-1   -8.433421763162466E-2    8.556123080392941E-1    8.331203368281943E-2
 3.323247902505097E5     8.562013675210582E-1    8.307355719450964E-2    1.450540883537038E-1   -8.398909845827904E-2    1.451977279669981E-1   -8.408326444729523E-2    8.560330136821940E-1    8.307191926788036E-2
 3.348603827542018E5     8.565616482200469E-1    8.283236195855587E-2    1.447043707835767E-1   -8.373659048782706E-2    1.448380987665636E-1   -8.383680832674491E-2    8.563876651463308E-1    8.281226393149745E-2
 3.374153214804250E5     8.569005147663186E-1    8.256105564174711E-2    1.443441836784925E-1   -8.348800744050486E-2    1.444721182475019E-1   -8.358381958437974E-2    8.567143802194959E-1    8.255487368305028E-2
 3.399897540381991E5     8.572663284260075E-1    8.230464264219456E-2    1.439879359580721E-1   -8.323561594623415E-2    1.441154474783605E-1   -8.333272501466700E-2    8.570685221256935E-1    8.229430612224274E-2
 3.425838291627830E5     8.576314124152397E-1    8.205223521777551E-2    1.436273277472224E-1   -8.299584943956226E-2    1.437613226490405E-1   -8.307824115177216E-2    8.574194819617575E-1    8.204319411156781E-2
 3.451976967242625E5     8.579610980425370E-1    8.179567613981720E-2    1.432699634857323E-1   -8.273980263100231E-2    1.434045559369926E-1   -8.283151376106795E-2    8.577433789962037E-1    8.178605598140840E-2
 3.478315077362126E5     8.583226063216001E-1    8.154031050459416E-2    1.429201296669603E-1   -8.250034885219014E-2    1.430501168479464E-1   -8.258261505300678E-2    8.581192302889400E-1    8.154301911194896E-2
 3.504854143644205E5     8.586333005201600E-1    8.129400968018360E-2    1.425661033741470E-1   -8.224804501103289E-2    1.426982168825261E-1   -8.233936013566938E-2    8.585060859466405E-1    8.130031469436239E-2
 3.531595699356794E5     8.590232765691068E-1    8.105765859052733E-2    1.422266994877757E-1   -8.200899599158275E-2    1.423471398697803E-1   -8.208874589532034E-2    8.588589064627099E-1    8.104145263851849E-2
 3.558541289466428E5     8.593583433879572E-1    8.079779276954992E-2    1.418753483827213E-1   -8.176411585555657E-2    1.419969385826982E-1   -8.184730163773449E-2    8.592152574732717E-1    8.079084050837429E-2
 3.585692470727532E5     8.597190921015013E-1    8.054971661872973E-2    1.415292971426673E-1   -8.152038138060412E-2    1.416489735418295E-1   -8.159559444426150E-2    8.595609692920393E-1    8.054914018871598E-2
 3.613050811772345E5     8.600835056394346E-1    8.030774502349106E-2    1.411848181264932E-1   -8.128063905769733E-2    1.412952473573117E-1   -8.135426642713735E-2    8.599106134867739E-1    8.028826275850383E-2
 3.640617893201578E5     8.604126715514762E-1    8.004801087309688E-2    1.408409915030135E-1   -8.103827780628739E-2    1.409582622289351E-1   -8.111326167694413E-2    8.602412828525587E-1    8.004794361039848E-2
 3.668395307675686E5     8.607758462828503E-1    7.982301712061683E-2    1.404901624382485E-1   -8.079225085082455E-2    1.406136961034259E-1   -8.086885964657403E-2    8.605895443119094E-1    7.980227481354686E-2
 3.696384660006910E5     8.610771344274913E-1    7.956549263197343E-2    1.401426274751357E-1   -8.055396215659091E-2    1.402697218404083E-1   -8.062928598174045E-2    8.609494223050397E-1    7.955402309931113E-2
 3.724587567251991E5     8.614532794399142E-1    7.931486608780577E-2    1.397945805013440E-1   -8.031292483075986E-2    1.399327464453560E-1   -8.038830041303018E-2    8.612833332419467E-1    7.930815768875601E-2
 3.753005658805580E5     8.618140725875646E-1    7.907287962688042E-2    1.394593234929646E-1   -8.007629952675890E-2    1.395886576134861E-1   -8.015008277228956E-2    8.616240151630518E-1    7.907187177742245E-2
 3.781640576494411E5     8.621538035292394E-1    7.884106463888989E-2    1.391274538064549E-1   -7.984277869425914E-2    1.392457003026929E-1   -7.990669397801384E-2    8.619997337053096E-1    7.881695790905957E-2
 3.810493974672107E5     8.625077944595869E-1    7.859033408062378E-2    1.387872573509098E-1   -7.960480190416439E-2    1.389070219050194E-1   -7.967493934705923E-2    8.623083507725061E-1    7.857997061217699E-2
 3.839567520314787E5     8.628200656881475E-1    7.834939033099701E-2    1.384397095049561E-1   -7.936684819894492E-2    1.385705164200963E-1   -7.943494207960572E-2    8.626448480800402E-1    7.834018118567732E-2
 3.868862893117373E5     8.631629595871978E-1    7.809761248658846E-2    1.381041245073343E-1   -7.913737717443541E-2    1.382311148218080E-1   -7.919378699188950E-2    8.630091077434108E-1    7.808934962489408E-2
 3.898381785590618E5     8.635072456536769E-1    7.786529600525224E-2    1.377696161348876E-1   -7.890528357108567E-2    1.378896099271950E-1   -7.895870105503008E-2    8.633027839323435E-1    7.785443037340369E-2
 3.928125903158922E5     8.638321496779855E-1    7.761736570522912E-2    1.374360668895854E-1   -7.866930497415876E-2    1.375578725544446E-1   -7.872181671371713E-2    8.635921396713573E-1    7.760299697163617E-2
 3.958096964258819E5     8.641798592248491E-1    7.737570265268820E-2    1.370945427124816E-1   -7.843729580498450E-2    1.372228412298500E-1   -7.849378342922976E-2    8.639469509161226E-1    7.736656188050288E-2
 3.988296700438284E5     8.645331006816573E-1    7.713732799455700E-2    1.367674890747178E-1   -7.820810179504117E-2    1.368977182959696E-1   -7.826372189848159E-2    8.643015567794674E-1    7.711370389170387E-2
 4.018726856456762E5     8.648750748091807E-1    7.689874504705388E-2    1.364372700683492E-1   -7.797819971377302E-2    1.365618438019055E-1   -7.802949801795969E-2    8.646427250977943E-1    7.688868980153360E-2
 4.049389190385970E5     8.651900703661902E-1    7.667831379119329E-2    1.361022877788379E-1   -7.774911671645267E-2    1.362360808556206E-1   -7.779620709494744E-2    8.649748271844231E-1    7.665190192871728E-2
 4.080285473711492E5     8.654859044326565E-1    7.642321487835488E-2    1.357625472910435E-1   -7.751597237821270E-2    1.358977591889964E-1   -7.756934264736581E-2    8.653073043819993E-1    7.641975255696640E-2
 4.111417491435081E5     8.658224306709558E-1    7.618969664267705E-2    1.354243790261208E-1   -7.728200313589280E-2    1.355619760870364E-1   -7.732785456619036E-2    8.656158082138369E-1    7.618414686697141E-2
 4.142787042177814E5     8.661620083669782E-1    7.595115674401583E-2    1.351019719365458E-1   -7.705630964198482E-2    1.352401462403312E-1   -7.710394705472363E-2    8.659814306696539E-1    7.594214532128427E-2
 4.174395938283992E5     8.665189165582876E-1    7.572156954370587E-2    1.347773802145172E-1   -7.682961524890226E-2    1.349114291526691E-1   -7.688021239608422E-2    8.663070776232850E-1    7.571041647772794E-2
 4.206246005925882E5     8.668506444259586E-1    7.546394771461103E-2    1.344438210272171E-1   -7.660356871765306E-2    1.345902437631545E-1   -7.665095083556651E-2    8.666412776730994E-1    7.546810551231053E-2
 4.238339085209167E5     8.671948020580275E-1    7.523755587640718E-2    1.341113851075415E-1   -7.637444595250704E-2    1.342546901292089E-1   -7.642155452706512E-2    8.669683008640301E-1    7.525031938164406E-2
 4.270677030279291E5     8.674973515195236E-1    7.500884947215988E-2    1.337836936299391E-1   -7.614506135466650E-2    1.339305313129985E-1   -7.619578319367409E-2    8.672855094968818E-1    7.499783456042791E-2
 4.303261709428567E5     8.678452787476461E-1    7.477032605854940E-2    1.334591610729207E-1   -7.592267973034024E-2    1.335983687621406E-1   -7.596789584052824E-2    8.675761058020416E-1    7.476763208020802E-2
 4.336095005204146E5     8.681554915163771E-1    7.453009284215546E-2    1.331332220249706E-1   -7.569553310756112E-2    1.332824984628408E-1   -7.574399763937875E-2    8.679512436150483E-1    7.453951232948232E-2
 4.369178814516730E5     8.684726729429306E-1    7.430819149633093E-2    1.327980258112102E-1   -7.546977497689347E-2    1.329542479664175E-1   -7.552010539620198E-2    8.682430406865566E-1    7.430760412401825E-2
 4.402515048750198E5     8.688070068540233E-1    7.406330545024195E-2    1.324724743463515E-1   -7.524198068951053E-2    1.326270457697594E-1   -7.529519459285409E-2    8.685877863438294E-1    7.405942468781000E-2
 4.436105633872023E5     8.691088614890627E-1    7.383800033716084E-2    1.321510229190407E-1   -7.501905929506691E-2    1.323052303005277E-1   -7.506822968784665E-2    8.688973643942788E-1    7.383775050367246E-2
 4.469952510544541E5     8.694289845742601E-1    7.359671351091941E-2    1.318293830002905E-1   -7.479485465014472E-2    1.319845403939875E-1   -7.484726893439436E-2    8.692481228033045E-1    7.361035390220519E-2
 4.504057634237097E5     8.697558919206468E-1    7.335767632438321E-2    1.315053860865385E-1   -7.456957411848861E-2    1.316548367670324E-1   -7.462139393275889E-2    8.695683079755644E-1    7.337009065058600E-2
 4.538422975338975E5     8.700528887054683E-1    7.312269062036901E-2    1.311751082198931E-1   -7.434086091545281E-2    1.313403740993089E-1   -7.439726592369410E-2    8.698783044337186E-1    7.314326112711160E-2
 4.573050519273265E5     8.703752981935913E-1    7.289202319921555E-2    1.308573012552964E-1   -7.412114768102314E-2    1.310128348026253E-1   -7.417702333028849E-2    8.701902768246692E-1    7.290714427221144E-2
 4.607942266611566E5     8.707047911553630E-1    7.266486732579801E-2    1.305405547054884E-1   -7.389996579271536E-2    1.306941273427191E-1   -7.395322638980800E-2    8.704855399405894E-1    7.267429638419873E-2
 4.643100233189550E5     8.710476941320284E-1    7.243512160565879E-2    1.302255328266176E-1   -7.367792949540972E-2    1.303706653758957E-1   -7.372763197503211E-2    8.708171549781415E-1    7.244347643797915E-2
 4.678526450223470E5     8.713668577882513E-1    7.220601037309990E-2    1.299110328558190E-1   -7.345315946936920E-2    1.300562879051352E-1   -7.350737362008598E-2    8.711283143242449E-1    7.221175897691744E-2
 4.714222964427450E5     8.716735000186607E-1    7.196207577210167E-2    1.295837138904719E-1   -7.323093642704344E-2    1.297403508238857E-1   -7.328570980951696E-2    8.714491062762497E-1    7.197907438346167E-2
 4.750191838131770E5     8.719528996696999E-1    7.173616594583317E-2    1.292669843918762E-1   -7.300612021102751E-2    1.294230151870355E-1   -7.306498463856406E-2    8.717567076784498E-1    7.174638887040377E-2
 4.786435149402010E5     8.722912401195996E-1    7.150506690382939E-2    1.289477947482447E-1   -7.278321625343614E-2    1.291081723513642E-1   -7.284317960456436E-2    8.720653183300252E-1    7.152200032251402E-2
 4.822954992159092E5     8.725983396542843E-1    7.126887586757055E-2    1.286309226107099E-1   -7.255879634392935E-2    1.287876215974531E-1   -7.262048022397566E-2    8.723573613110432E-1    7.128952880113611E-2
 4.859753476300298E5     8.728792376290230E-1    7.103400423616442E-2    1.283156010553654E-1   -7.233256743557795E-2    1.284727187162853E-1   -7.239908482676258E-2    8.726525792181979E-1    7.104978067972019E-2
 4.896832727821107E5     8.732065570420825E-1    7.081148172757315E-2    1.280004603899696E-1   -7.210765247535590E-2    1.281587925878838E-1   -7.217868027342710E-2    8.729561049649543E-1    7.081800732339399E-2
 4.934194888938060E5     8.735094765427509E-1    7.057581545826018E-2    1.276896615724007E-1   -7.188768865698349E-2    1.278520757369343E-1   -7.196029692858436E-2    8.733155223154988E-1    7.058529271087943E-2
 4.971842118212518E5     8.738209457541155E-1    7.034453063759655E-2    1.273848079600040E-1   -7.166773535499305E-2    1.275396146408686E-1   -7.173457917019031E-2    8.736164812849809E-1    7.037214202055468E-2
 5.009776590675358E5     8.741342931841890E-1    7.010450879335202E-2    1.270708027311023E-1   -7.144867874031635E-2    1.272199095298935E-1   -7.151060879525729E-2    8.739070702917698E-1    7.013104715876840E-2
 5.048000497952673E5     8.744626700938772E-1    6.986819644315892E-2    1.267629263357529E-1   -7.122351629918078E-2    1.269141228458210E-1   -7.129017769171286E-2    8.742198573372523E-1    6.990256469975842E-2
 5.086516048392332E5     8.747982142550088E-1    6.964869337380990E-2    1.264601499104255E-1   -7.100214758334009E-2    1.266052188989456E-1   -7.106560798282703E-2    8.745354993093338E-1    6.967798904095321E-2
 5.125325467191607E5     8.750707760306979E-1    6.941882760966023E-2    1.261564722266023E-1   -7.078119134784151E-2    1.262995962442602E-1   -7.085008670626362E-2    8.748263501871194E-1    6.944778825308816E-2
 5.164430996525706E5     8.753378968048435E-1    6.917949804044024E-2    1.258453744535198E-1   -7.055881845506923E-2    1.259973082041517E-1   -7.063242482719750E-2    8.751462140215066E-1    6.921930827410612E-2
 5.203834895677360E5     8.756599498329308E-1    6.894687568339106E-2    1.255454723049738E-1   -7.034050550117631E-2    1.256916948818530E-1   -7.041203477472020E-2    8.754119992338114E-1    6.899849604924070E-2
 5.243539441167285E5     8.759526259049032E-1    6.872340267696238E-2    1.252344167353975E-1   -7.011499110142862E-2    1.253853767722154E-1   -7.019186014739205E-2    8.757370306471318E-1    6.875126474381156E-2
 5.283546926885745E5     8.762385212801921E-1    6.849525057468317E-2    1.249337201000598E-1   -6.989000080338134E-2    1.250779851150372E-1   -6.996506423243759E-2    8.759988657575380E-1    6.852364981947420E-2
 5.323859664225065E5     8.765396184608427E-1    6.825648225475082E-2    1.246321235121162E-1   -6.967072271175093E-2    1.247753790207930E-1   -6.974934139728940E-2    8.763103137371182E-1    6.829650341903981E-2
 5.364479982213206E5     8.768113447809281E-1    6.803519696456907E-2    1.243316230994639E-1   -6.945518486213578E-2    1.244756888326668E-1   -6.952926760753630E-2    8.765980324793203E-1    6.806794937822004E-2
 5.405410227648258E5     8.771620552219761E-1    6.779905611851783E-2    1.240360869442595E-1   -6.923668044954172E-2    1.241860207233165E-1   -6.931700376398693E-2    8.769295795749323E-1    6.783950266596174E-2
 5.446652765234077E5     8.774136329317342E-1    6.757076200181748E-2    1.237397817584600E-1   -6.901051858729687E-2    1.238891009567873E-1   -6.908804975654351E-2    8.772599699462046E-1    6.761314947405296E-2
 5.488209977716873E5     8.777128633828224E-1    6.733590008965576E-2    1.234426341804521E-1   -6.879109816237752E-2    1.235934464253402E-1   -6.887782257341808E-2    8.775612248704857E-1    6.737449416417401E-2
 5.530084266022880E5     8.779742419011365E-1    6.710568963746433E-2    1.231532022651562E-1   -6.857430990690216E-2    1.233010572002916E-1   -6.865486236170600E-2    8.778274642153344E-1    6.716596123731791E-2
 5.572278049397101E5     8.782794957488347E-1    6.687891223388123E-2    1.228637056005797E-1   -6.836011417932648E-2    1.230098204994754E-1   -6.844267781118306E-2    8.781301909097885E-1    6.693380743653628E-2
 5.614793765543010E5     8.785538544612050E-1    6.666688042454644E-2    1.225714589704362E-1   -6.814306097816351E-2    1.227259201992634E-1   -6.823063350141015E-2    8.784265369373281E-1    6.670441775502189E-2
 5.657633870763436E5     8.788562393265990E-1    6.642383621280508E-2    1.222834224702101E-1   -6.792633090298027E-2    1.224325198842727E-1   -6.801235446146069E-2    8.786793073825921E-1    6.646269271259686E-2
 5.700800840102463E5     8.791536426659403E-1    6.622186312238260E-2    1.219924278741386E-1   -6.770859770067437E-2    1.221405961420353E-1   -6.779411137783974E-2    8.789761566330381E-1    6.625014266755835E-2
 5.744297167488408E5     8.794258078507798E-1    6.598353702268417E-2    1.217078595511607E-1   -6.749403332994541E-2    1.218493171199193E-1   -6.758137702936082E-2    8.792472041151891E-1    6.603516945145491E-2
 5.788125365877954E5     8.796872005875616E-1    6.576429543094081E-2    1.214239477722743E-1   -6.728155247140861E-2    1.215703547558871E-1   -6.736885040124008E-2    8.795279969202862E-1    6.580326402284638E-2
 5.832287967401261E5     8.799742438963257E-1    6.553564055375929E-2    1.211323709900937E-1   -6.706016299401300E-2    1.212880566590131E-1   -6.715645744644984E-2    8.797952959468462E-1    6.559356726821340E-2
 5.876787523508312E5     8.802379985631554E-1    6.529964334625943E-2    1.208476688746642E-1   -6.684710013007707E-2    1.209977357530551E-1   -6.693869422378097E-2    8.800775011401841E-1    6.535884954239891E-2
 5.921626605116295E5     8.805520037272853E-1    6.508215261879219E-2    1.205796451570568E-1   -6.664080082525756E-2    1.207201591355919E-1   -6.672922498903489E-2    8.803381167613591E-1    6.513991845900351E-2
 5.966807802758140E5     8.808445938533095E-1    6.487225791617597E-2    1.203003214288814E-1   -6.642860306030481E-2    1.204379629389598E-1   -6.651576660341908E-2    8.806462701596680E-1    6.492339128531599E-2
 6.012333726732214E5     8.811140008631336E-1    6.463612568045841E-2    1.200249843218509E-1   -6.622396672648830E-2    1.201622406013508E-1   -6.630972707471679E-2    8.808899299031289E-1    6.470807325068699E-2
 6.058207007253073E5     8.813834796342084E-1    6.441257121194116E-2    1.197383242003732E-1   -6.600915736668828E-2    1.198857077361397E-1   -6.609893293387732E-2    8.811801250613575E-1    6.448624196901448E-2
 6.104430294603459E5     8.816574198405037E-1    6.419391293075817E-2    1.194690843952783E-1   -6.580034448414546E-2    1.196150409504789E-1   -6.589590283728201E-2    8.814210876854862E-1    6.427466953485324E-2
 6.151006259287392E5     8.819408477432088E-1    6.399599325279094E-2    1.191941746659987E-1   -6.559229680326469E-2    1.193371208091821E-1   -6.568723224165894E-2    8.817457659964142E-1    6.405070328628126E-2
 6.197937592184512E5     8.821972150743075E-1    6.376553353527654E-2    1.189190840831808E-1   -6.538709346839450E-2    1.190566648968763E-1   -6.548011344005866E-2    8.820028300443413E-1    6.384236114557711E-2
 6.245227004705463E5     8.824635518505067E-1    6.355804165391837E-2    1.186526423208490E-1   -6.518212318102036E-2    1.187865168621334E-1   -6.527123183357032E-2    8.822463203527848E-1    6.363116619694778E-2
 6.292877228948588E5     8.826955720481584E-1    6.335919799431546E-2    1.183807305555935E-1   -6.497968099678242E-2    1.185110196472643E-1   -6.506559382062119E-2    8.825220669843913E-1    6.341848274286062E-2
 6.340891017857760E5     8.829799879820284E-1    6.312723397953364E-2    1.181160643881326E-1   -6.478116727671802E-2    1.182373650507322E-1   -6.486729197157699E-2    8.827740943328267E-1    6.319472992602775E-2
 6.389271145381465E5     8.832134551177804E-1    6.291946797827785E-2    1.178397089444877E-1   -6.457877698531575E-2    1.179720295977645E-1   -6.467098943144974E-2    8.830654040362621E-1    6.298917936919723E-2
 6.438020406633007E5     8.834856212290285E-1    6.270895177390469E-2    1.175709640801204E-1   -6.437775532956017E-2    1.177037683857913E-1   -6.446834951366841E-2    8.833201301380117E-1    6.277700069862255E-2
 6.487141618052023E5     8.838091239794411E-1    6.248795928821824E-2    1.173122969556794E-1   -6.418424904222285E-2    1.174343973092591E-1   -6.426501022657320E-2    8.835631066903106E-1    6.256810113761907E-2
 6.536637617567203E5     8.840325947905521E-1    6.227979825971149E-2    1.170391171214765E-1   -6.398556265310119E-2    1.171627103408532E-1   -6.406440185750110E-2    8.838556738227462E-1    6.234479103175940E-2
 6.586511264760230E5     8.842915199717410E-1    6.209090327174512E-2    1.167718759919469E-1   -6.377665384795561E-2    1.168918150337089E-1   -6.386265736525255E-2    8.841097666182748E-1    6.214941251657549E-2
 6.636765441031042E5     8.845250360329157E-1    6.185421333260681E-2    1.165043714751139E-1   -6.358337792188441E-2    1.166265909543420E-1   -6.366853776074960E-2    8.844366261945988E-1    6.192002102239429E-2
 6.687403049764220E5     8.848026080046459E-1    6.164556532182720E-2    1.162401915244522E-1   -6.338965178109136E-2    1.163630659035010E-1   -6.347456812146461E-2    8.846732852108921E-1    6.172479121656537E-2
 6.738427016496789E5     8.850511212673245E-1    6.145300954885060E-2    1.159752791330031E-1   -6.318987546965016E-2    1.161004285225394E-1   -6.327991747787676E-2    8.849272003984477E-1    6.151429785243778E-2
 6.789840289087215E5     8.853509983754098E-1    6.123913371975741E-2    1.157071405379199E-1   -6.299748777942649E-2    1.158349657194929E-1   -6.308723565229607E-2    8.852139700290562E-1    6.131231041952660E-2
 6.841645837885707E5     8.855980357352284E-1    6.104847531863807E-2    1.154438523637843E-1   -6.280967473970635E-2    1.155715000951811E-1   -6.289644001202029E-2    8.854940589117228E-1    6.110063308193615E-2
 6.893846655905881E5     8.858716927260650E-1    6.083873629178475E-2    1.151828961425290E-1   -6.261749153404254E-2    1.153091444191429E-1   -6.270985896974929E-2    8.857412687734645E-1    6.089816239274617E-2
 6.946445758997592E5     8.861245964379080E-1    6.063036692811562E-2    1.149229016236521E-1   -6.242445812566467E-2    1.150437580927683E-1   -6.251635782603542E-2    8.860115726413919E-1    6.069038387944401E-2
 6.999446186021230E5     8.863663391150883E-1    6.043441073500583E-2    1.146582322296433E-1   -6.223562789763257E-2    1.147811959995188E-1   -6.232931142753125E-2    8.862859433393384E-1    6.048300004702133E-2
 7.052850999023273E5     8.866578320735392E-1    6.021858527216266E-2    1.143983262930280E-1   -6.204829402345676E-2    1.145183874486557E-1   -6.213723161150721E-2    8.865309205641473E-1    6.029210562068531E-2
 7.106663283413178E5     8.868756507716342E-1    6.004574670147680E-2    1.141316896263351E-1   -6.185585910587964E-2    1.142586345613872E-1   -6.194882923211282E-2    8.867798163897807E-1    6.010837896628617E-2
 7.160886148141696E5     8.871510558371336E-1    5.982402473595752E-2    1.138671031698228E-1   -6.166584823117579E-2    1.139928489803704E-1   -6.175946762828618E-2    8.870041110190110E-1    5.990039044782512E-2
 7.215522725880400E5     8.874148902568751E-1    5.961052980127474E-2    1.136057115763004E-1   -6.148689400222140E-2    1.137308867269180E-1   -6.157458633240353E-2    8.872246632199959E-1    5.972573566816154E-2
 7.270576173202734E5     8.876925020593338E-1    5.941843469314840E-2    1.133412269132337E-1   -6.129558712113804E-2    1.134719739531804E-1   -6.139238720747884E-2    8.875098020503196E-1    5.950745204579133E-2
 7.326049670766364E5     8.879539252535157E-1    5.920105208858764E-2    1.130862871557169E-1   -6.110766319232770E-2    1.132124838780922E-1   -6.120896553135226E-2    8.878277977069067E-1    5.927823751404875E-2
 7.381946423496918E5     8.882056060876976E-1    5.901555116096546E-2    1.128270333399323E-1   -6.093122050778615E-2    1.129458894823747E-1   -6.101524919780900E-2    8.880707331369329E-1    5.910738632553933E-2
 7.438269660773217E5     8.884474708954800E-1    5.883057744946782E-2    1.125729385045588E-1   -6.073953914394273E-2    1.126883053560730E-1   -6.083033909918132E-2    8.883052466988334E-1    5.891299022904935E-2
 7.495022636613748E5     8.887040826267898E-1    5.861006420861310E-2    1.123087016784688E-1   -6.055857168107780E-2    1.124191342866800E-1   -6.064410817313602E-2    8.885231993234275E-1    5.870243091062216E-2
 7.552208629864733E5     8.889334718153376E-1    5.842446358098382E-2    1.120493879443447E-1   -6.036849046363971E-2    1.121602494142411E-1   -6.046391249489145E-2    8.888068088390711E-1    5.849873123125419E-2
 7.609830944389519E5     8.892070180437444E-1    5.822202243367446E-2    1.117909863696204E-1   -6.018347475815206E-2    1.119060025047793E-1   -6.028019745178331E-2    8.890475387299142E-1    5.832037748687775E-2
 7.667892909259528E5     8.894844879325504E-1    5.801002509380954E-2    1.115317940558637E-1   -6.000291666009885E-2    1.116480775375153E-1   -6.010156637198368E-2    8.893015890976637E-1    5.812214436198279E-2
 7.726397878946491E5     8.897515531311097E-1    5.780580699853514E-2    1.112693326387832E-1   -5.981815297645491E-2    1.113882709761818E-1   -5.991322440114633E-2    8.895286141021916E-1    5.795218444711007E-2
 7.785349233516312E5     8.899908723174274E-1    5.761787315446124E-2    1.110090110595457E-1   -5.963425080957405E-2    1.111265639620872E-1   -5.972620015348416E-2    8.897947990637471E-1    5.775429053046380E-2
 7.844750378824320E5     8.902282873418372E-1    5.743589021452986E-2    1.107545889036592E-1   -5.945176064542934E-2    1.108643585347153E-1   -5.953823372402434E-2    8.900294321044128E-1    5.756909183080721E-2
 7.904604746712097E5     8.905065784381907E-1    5.722994218371426E-2    1.105018645409600E-1   -5.926650332573551E-2    1.106094946528785E-1   -5.936049255708545E-2    8.902709489864536E-1    5.736857703169637E-2
 7.964915795205662E5     8.907412111721870E-1    5.702436087941263E-2    1.102417997747294E-1   -5.908125929771411E-2    1.103578118490024E-1   -5.918363688412540E-2    8.905725254819654E-1    5.716576020674154E-2
 8.025687008715309E5     8.909896889834559E-1    5.682408689804210E-2    1.099829081242403E-1   -5.889486656556663E-2    1.101011056282801E-1   -5.899521272500998E-2    8.908188018499104E-1    5.695644776014170E-2
 8.086921898236905E5     8.912628002118685E-1    5.662970333417205E-2    1.097329246094755E-1   -5.871628851563609E-2    1.098403264094314E-1   -5.881275433898984E-2    8.910784929325587E-1    5.676083919759182E-2
 8.148624001554718E5     8.914945495610512E-1    5.643169285066697E-2    1.094762952864056E-1   -5.852840827039243E-2    1.095834629540358E-1   -5.861878875048962E-2    8.913159047706024E-1    5.656735147888615E-2
 8.210796883445872E5     8.917412292180442E-1    5.622956213004959E-2    1.092182071501155E-1   -5.834060393646021E-2    1.093294614415619E-1   -5.844124498382552E-2    8.915439535810417E-1    5.638958088254004E-2
 8.273444135886204E5     8.919914400058488E-1    5.602235052557449E-2    1.089662296198984E-1   -5.815867466655968E-2    1.090752584690395E-1   -5.825725224429854E-2    8.918089082717365E-1    5.615876007691779E-2
 8.336569378257846E5     8.922630306092795E-1    5.583884884840689E-2    1.087197180267320E-1   -5.798142910931265E-2    1.088246477955415E-1   -5.806976514620592E-2    8.920527032976275E-1    5.596042712837586E-2
 8.400176257558319E5     8.925143280846167E-1    5.560944470335690E-2    1.084690207434073E-1   -5.779356217521182E-2    1.085749139292972E-1   -5.789334825716976E-2    8.923452495080004E-1    5.575751522179655E-2
 8.464268448611222E5     8.927161879249907E-1    5.541638502876902E-2    1.082173116430011E-1   -5.761001586657505E-2    1.083223444209763E-1   -5.770413985506884E-2    8.925553335953827E-1    5.555983569019748E-2
 8.528849654278599E5     8.929835510105849E-1    5.522858573863022E-2    1.079680172233363E-1   -5.741771040299280E-2    1.080727448508185E-1   -5.752130376655606E-2    8.927949306553467E-1    5.535345682813300E-2
 8.593923605674774E5     8.932187430330483E-1    5.502620600709979E-2    1.077215337793173E-1   -5.723592831653927E-2    1.078239223044770E-1   -5.733349489858880E-2    8.930409709370816E-1    5.515536561836065E-2
 8.659494062381978E5     8.934509662703983E-1    5.484093883836294E-2    1.074723106772362E-1   -5.704392075952763E-2    1.075741195472397E-1   -5.714847193222500E-2    8.932639891615273E-1    5.496397988091230E-2
 8.725564812667536E5     8.936967831238066E-1    5.460752898435867E-2    1.072276454435013E-1   -5.686448972035730E-2    1.073258365425799E-1   -5.696100734741595E-2    8.934724570395439E-1    5.479886714321645E-2
 8.792139673702718E5     8.939227815336930E-1    5.443471170600556E-2    1.069842698625750E-1   -5.668384648642322E-2    1.070816577533142E-1   -5.678300131868928E-2    8.937177455534562E-1    5.460662651048209E-2
 8.859222491783336E5     8.941639198282926E-1    5.424394694812873E-2    1.067442954735681E-1   -5.649683298970414E-2    1.068349168270247E-1   -5.659441208734127E-2    8.939534380909936E-1    5.440613420428108E-2
 8.926817142551860E5     8.944027831564818E-1    5.404882273407188E-2    1.065011699243329E-1   -5.631524346984557E-2    1.065987748103649E-1   -5.641384185006888E-2    8.941967201624689E-1    5.419603210795920E-2
 8.994927531221397E5     8.945817201181502E-1    5.387040533052662E-2    1.062546119439318E-1   -5.612610676041774E-2    1.063580051440900E-1   -5.623119849374428E-2    8.944908062005453E-1    5.398563371720673E-2
 9.063557592801275E5     8.948227808400153E-1    5.367786828093066E-2    1.060156193603705E-1   -5.593652371801824E-2    1.061122912262176E-1   -5.605011916585670E-2    8.946912146131768E-1    5.379771894121476E-2
 9.132711292324457E5     8.950681794794126E-1    5.346577180686785E-2    1.057832638046996E-1   -5.576169667228437E-2    1.058781341394931E-1   -5.587101907142648E-2    8.949442371867321E-1    5.358689074213616E-2
 9.202392625076511E5     8.952966771208796E-1    5.325433564107465E-2    1.055456004638306E-1   -5.557819700978778E-2    1.056400417428426E-1   -5.568889230597479E-2    8.951774752451549E-1    5.341322972341774E-2
 9.272605616826499E5     8.955276614108448E-1    5.304355095701160E-2    1.053097754871785E-1   -5.540662736638714E-2    1.054080245152345E-1   -5.550976475467244E-2    8.954074537516634E-1    5.320703086433339E-2
 9.343354324059531E5     8.957749877178115E-1    5.284191249121006E-2    1.050758168251597E-1   -5.522684628054527E-2    1.051714459385845E-1   -5.532639393970375E-2    8.956258833904969E-1    5.300304747997611E-2
 9.414642834211199E5     8.959909358948144E-1    5.266243226413621E-2    1.048460721015489E-1   -5.503555021653270E-2    1.049384802400675E-1   -5.514710099476409E-2    8.958503622812345E-1    5.277793420633989E-2
 9.486475265903610E5     8.962102783604581E-1    5.249031970673252E-2    1.046130699474264E-1   -5.486192576709006E-2    1.047031346094269E-1   -5.497236849429833E-2    8.961329839415323E-1    5.257720414439060E-2
 9.558855769183410E5     8.964623406231633E-1    5.227547957163285E-2    1.043850287142424E-1   -5.468772125115869E-2    1.044701444111635E-1   -5.478528988139587E-2    8.963310851445633E-1    5.239615601550520E-2
 9.631788525761530E5     8.966520235089930E-1    5.209070647347700E-2    1.041536625323820E-1   -5.450598191516454E-2    1.042393196403242E-1   -5.461204531350704E-2    8.965606482909972E-1    5.219807213328066E-2
 9.705277749254764E5     8.969046700113700E-1    5.189352189821222E-2    1.039229757695458E-1   -5.433270519175797E-2    1.040107780732259E-1   -5.443606296885564E-2    8.967596693271728E-1    5.202685365766722E-2
 9.779327685429282E5     8.971095863821218E-1    5.171042790300907E-2    1.036989393323315E-1   -5.416021720915436E-2    1.037776638414613E-1   -5.425194718721604E-2    8.969604561165444E-1    5.184933900137069E-2
 9.853942612445805E5     8.973291746632633E-1    5.151695015076856E-2    1.034744087254863E-1   -5.397846933911246E-2    1.035536788027028E-1   -5.408288209741131E-2    8.971830629605135E-1    5.165010134757351E-2
 9.929126841106854E5     8.975366274066791E-1    5.133769528166836E-2    1.032470646853362E-1   -5.380446755738084E-2    1.033274222991636E-1   -5.391082689846114E-2    8.974372469259613E-1    5.143268906175778E-2
 1.000488471510578E6     8.977670913920957E-1    5.116359151656919E-2    1.030230439571110E-1   -5.363351627029334E-2    1.031040171416756E-1   -5.373500357794175E-2    8.976594958669009E-1    5.126947161158635E-2
 1.008122061127771E6     8.979707807804908E-1    5.094447060842287E-2    1.027996389621813E-1   -5.346668265535181E-2    1.028758418565023E-1   -5.356063092385163E-2    8.978890543200165E-1    5.109298710067942E-2
 1.015813893985245E6     8.982329632449727E-1    5.077559237552850E-2    1.025728369279452E-1   -5.329762291976718E-2    1.026565463692062E-1   -5.339641008578773E-2    8.980993060168263E-1    5.088347849536766E-2
 1.023564414470923E6     8.984305045381875E-1    5.058526630706670E-2    1.023536083912527E-1   -5.312633756837410E-2    1.024313312260808E-1   -5.322487566974855E-2    8.983008980806571E-1    5.070170412140226E-2
 1.031374070363347E6     8.986607809251601E-1    5.039048975979460E-2    1.021300502924672E-1   -5.296168575063313E-2    1.022069078674254E-1   -5.305532318910318E-2    8.984865399785767E-1    5.054634733671868E-2
 1.039243312857548E6     8.988697596124691E-1    5.016030431845487E-2    1.019074177809353E-1   -5.280168196771248E-2    1.019779278731541E-1   -5.289080742105509E-2    8.986756546478282E-1    5.035851960336440E-2
 1.047172596591111E6     8.990589858188679E-1    4.999948906822130E-2    1.016846332440548E-1   -5.262682442548821E-2    1.017548393885424E-1   -5.271942689211361E-2    8.989062822680336E-1    5.015673319512456E-2
 1.055162379670449E6     8.992710969679807E-1    4.980913990690677E-2    1.014624451054164E-1   -5.245593772173240E-2    1.015417933650169E-1   -5.255794123011982E-2    8.991497952018932E-1    4.998281570295731E-2
 1.063213123697260E6     8.994963173176163E-1    4.964569959105763E-2    1.012415041213745E-1   -5.229570365744469E-2    1.013158747849358E-1   -5.239737465055642E-2    8.993485512044630E-1    4.977943317270645E-2
 1.071325293795198E6     8.997092519664440E-1    4.946171771780147E-2    1.010233906002200E-1   -5.212857955602992E-2    1.010961589764726E-1   -5.222698331871382E-2    8.996001697263409E-1    4.960121609732502E-2
 1.079499358636750E6     8.999232483387030E-1    4.928204920541799E-2    1.008042524961165E-1   -5.196578781777043E-2    1.008728639375812E-1   -5.206752545862101E-2    8.998100294749627E-1    4.941277730516580E-2
 1.087735790470306E6     9.001234504205680E-1    4.912623663873397E-2    1.005809020236761E-1   -5.180365051904769E-2    1.006499123235666E-1   -5.190226885127850E-2    9.000173562995387E-1    4.924363439710561E-2
 1.096035065147453E6     9.003407344014067E-1    4.898499105270186E-2    1.003648322948324E-1   -5.163524679846501E-2    1.004302991484258E-1   -5.173913439339016E-2    9.002584600998332E-1    4.906004372371606E-2
 1.104397662150453E6     9.005400103554932E-1    4.876775222810576E-2    1.001438604314352E-1   -5.147634905413313E-2    1.002078353832179E-1   -5.157985554593429E-2    9.004526361742620E-1    4.886182616760925E-2
 1.112824064619953E6     9.007638437290280E-1    4.858681209522717E-2    9.991777413376284E-2   -5.132072842991119E-2    9.998432715124378E-2   -5.141637010914342E-2    9.006596752268470E-1    4.869225035349024E-2
 1.121314759382903E6     9.009598656442983E-1    4.839268398595518E-2    9.970188092010690E-2   -5.115990814758403E-2    9.976650042231062E-2   -5.125396708201208E-2    9.008360763905905E-1    4.851395387562338E-2
 1.129870236980669E6     9.011772918262242E-1    4.822530867738727E-2    9.948350662775633E-2   -5.099732374067165E-2    9.954440973544974E-2   -5.108969036756397E-2    9.010830228242436E-1    4.834489550037818E-2
 1.138490991697383E6     9.013550272372944E-1    4.805474971159383E-2    9.926389653346150E-2   -5.083580232056629E-2    9.932181498305975E-2   -5.092998499190957E-2    9.012906628037627E-1    4.816835778108198E-2
 1.147177521588496E6     9.015705293221554E-1    4.789379961509461E-2    9.904782070009274E-2   -5.067346473182240E-2    9.910264218329758E-2   -5.076907550845790E-2    9.015249583551233E-1    4.798295077805254E-2
 1.155930328509552E6     9.018033321143737E-1    4.771407820490761E-2    9.882188122143017E-2   -5.051696264050257E-2    9.888208984485124E-2   -5.060554985307194E-2    9.017070272418787E-1    4.783275521980357E-2
 1.164749918145190E6     9.020374700201025E-1    4.748599630139205E-2    9.860403616541046E-2   -5.035919596239178E-2    9.866372492129125E-2   -5.044740420317949E-2    9.019222426987066E-1    4.766852551618851E-2
 1.173636800038349E6     9.022246139152335E-1    4.730608432879357E-2    9.837951776295611E-2   -5.020334091884034E-2    9.844378651670152E-2   -5.029105969907409E-2    9.021396086219517E-1    4.743995729993897E-2
 1.182591487619709E6     9.024566708021604E-1    4.712426214925951E-2    9.815844891037553E-2   -5.004611673626325E-2    9.822129794212806E-2   -5.012610532834464E-2    9.023457013170740E-1    4.729923792814730E-2
 1.191614498237359E6     9.026423295819744E-1    4.697024630174124E-2    9.794164219266920E-2   -4.987420461447815E-2    9.800095688836448E-2   -4.996504638050337E-2    9.025714031207540E-1    4.709861858400299E-2
 1.200706353186678E6     9.028707346212950E-1    4.680644247477089E-2    9.772689972306657E-2   -4.971618668094185E-2    9.777836620933884E-2   -4.980753934415513E-2    9.027620764998721E-1    4.693016655388108E-2
 1.209867577740467E6     9.030867934926294E-1    4.663453034456039E-2    9.750965624515974E-2   -4.955289374711044E-2    9.756146139933011E-2   -4.964311097586845E-2    9.029669186181347E-1    4.676221303614973E-2
 1.219098701179276E6     9.033048478492571E-1    4.646547883532089E-2    9.729309505400817E-2   -4.939603514767094E-2    9.734935600173239E-2   -4.948447300832589E-2    9.032197357357470E-1    4.659191059323733E-2
 1.228400256821998E6     9.035156550537737E-1    4.629118780585332E-2    9.707788803679300E-2   -4.923296337580599E-2    9.713048995030182E-2   -4.932106882940837E-2    9.034270948260247E-1    4.640478082672721E-2
 1.237772782056674E6     9.037277047787682E-1    4.609799643874166E-2    9.686185796518551E-2   -4.906893979119740E-2    9.690853721488910E-2   -4.916122450028306E-2    9.036049817541307E-1    4.622148994300675E-2
 1.247216818371540E6     9.039286487627325E-1    4.590111016417638E-2    9.664933252395046E-2   -4.890663110328772E-2    9.669909013448984E-2   -4.899730231281600E-2    9.038248834526982E-1    4.605334523083607E-2
 1.256732911386322E6     9.041285235130379E-1    4.573449381082657E-2    9.643644131952568E-2   -4.874498493311227E-2    9.648818688587189E-2   -4.883009834836176E-2    9.040475280368605E-1    4.589641497102991E-2
 1.266321610883739E6     9.043095831737589E-1    4.555170953489558E-2    9.621934021412121E-2   -4.858330687824260E-2    9.627721529739645E-2   -4.866757757662833E-2    9.042426988169575E-1    4.570783615927338E-2
 1.275983470841281E6     9.045307449557631E-1    4.538034545319859E-2    9.601013511005413E-2   -4.841922278658685E-2    9.605729446953885E-2   -4.850946997152556E-2    9.044689070769348E-1    4.550973886189714E-2
 1.285719049463211E6     9.047399242298135E-1    4.521166606626870E-2    9.580221948987958E-2   -4.825836355566450E-2    9.584597947720250E-2   -4.834798073185862E-2    9.046865819920857E-1    4.532745230245768E-2
 1.295528909212810E6     9.049406724829686E-1    4.501788376369854E-2    9.558771095530127E-2   -4.809539787648510E-2    9.563631484421707E-2   -4.818487128675696E-2    9.048890113479928E-1    4.515753505949042E-2
 1.305413616844883E6     9.051572963568324E-1    4.484286956641461E-2    9.538065799620103E-2   -4.793372591539281E-2    9.542959147297118E-2   -4.801951064170062E-2    9.050852710067192E-1    4.497784848436218E-2
 1.315373743438491E6     9.053530728723845E-1    4.463093766238038E-2    9.517340868887293E-2   -4.777611651187526E-2    9.521893229009240E-2   -4.785572980714675E-2    9.052946812847659E-1    4.479443702462110E-2
 1.325409864429950E6     9.055589752397319E-1    4.452408773523725E-2    9.497237461348806E-2   -4.761235363187098E-2    9.501262815433342E-2   -4.769284728948062E-2    9.054793251220400E-1    4.461888500203177E-2
 1.335522559646084E6     9.057474679210252E-1    4.429362001188360E-2    9.476488652909165E-2   -4.745341184997311E-2    9.481025903506933E-2   -4.753021635321991E-2    9.056578039550652E-1    4.443559472783019E-2
 1.345712413337699E6     9.059553667504300E-1    4.413538338677502E-2    9.456637356615108E-2   -4.729213744740619E-2    9.460769311543164E-2   -4.737185525166401E-2    9.058484863026040E-1    4.423945701838836E-2
 1.355980014213373E6     9.061416278152886E-1    4.398958061453821E-2    9.436390046647285E-2   -4.713050344053045E-2    9.440847346026893E-2   -4.720828213801202E-2    9.060636056998967E-1    4.406096772341984E-2
 1.366325955473440E6     9.063346691427421E-1    4.378426707861327E-2    9.416588033734666E-2   -4.697060216361182E-2    9.420660277560858E-2   -4.704527428546745E-2    9.062750203397985E-1    4.389467759480734E-2
 1.376750834844268E6     9.065259297495413E-1    4.362622811572894E-2    9.396686270347177E-2   -4.680845928855514E-2    9.400741379484105E-2   -4.688891114605240E-2    9.064615616028837E-1    4.370985934555580E-2
 1.387255254612807E6     9.067119346838339E-1    4.343569140256272E-2    9.376606931865579E-2   -4.665422079316649E-2    9.381334434674966E-2   -4.672594876538388E-2    9.066546868317965E-1    4.354483112032443E-2
 1.397839821661363E6     9.068891794251351E-1    4.328300299507030E-2    9.357235581050413E-2   -4.649518544422963E-2    9.361034437043371E-2   -4.656935367610298E-2    9.068618088821679E-1    4.335629437671664E-2
 1.408505147502673E6     9.070895898091035E-1    4.310407652157320E-2    9.336903443730464E-2   -4.633942748956461E-2    9.341334586734253E-2   -4.640998276129093E-2    9.070254725213147E-1    4.318225490231079E-2
 1.419251848315235E6     9.072621178204348E-1    4.290781489119525E-2    9.317454422433921E-2   -4.618120428476111E-2    9.321841831913655E-2   -4.625198708040192E-2    9.072524022675725E-1    4.301272013025564E-2
 1.430080544978898E6     9.074688113729412E-1    4.275430917499737E-2    9.298317418866839E-2   -4.602520122923023E-2    9.302409755762577E-2   -4.609765948166517E-2    9.073907856767983E-1    4.284485227933586E-2
 1.440991863110751E6     9.076622013379894E-1    4.257814514767814E-2    9.278851338639967E-2   -4.586881823538613E-2    9.283369793689711E-2   -4.594500117393129E-2    9.076002894399571E-1    4.265810951770659E-2
 1.451986433101243E6     9.078198338575949E-1    4.239028770029089E-2    9.259759441997820E-2   -4.571832442750440E-2    9.264066649090300E-2   -4.579160295645181E-2    9.078061555365233E-1    4.249699330839980E-2
 1.463064890150622E6     9.080300816846878E-1    4.220557599789962E-2    9.240560804118930E-2   -4.557036308395627E-2    9.244483117516727E-2   -4.563755927491232E-2    9.079440917559746E-1    4.231123313618025E-2
 1.474227874305625E6     9.081965155392162E-1    4.204553904345421E-2    9.221367497561204E-2   -4.541799909045037E-2    9.225681327338628E-2   -4.548551646722315E-2    9.081528019622790E-1    4.215647058043121E-2
 1.485476030496454E6     9.084046526147077E-1    4.186058070149124E-2    9.201934745010926E-2   -4.526666906426419E-2    9.206337283944412E-2   -4.533070967184932E-2    9.083549542181375E-1    4.198728541117189E-2
 1.496810008574050E6     9.086126220390169E-1    4.171697602823125E-2    9.183370875997442E-2   -4.511579027253960E-2    9.187123170758270E-2   -4.518312262564739E-2    9.085276648963017E-1    4.180897631216119E-2
 1.508230463347619E6     9.088007559125219E-1    4.155437241143398E-2    9.164255536138359E-2   -4.496770932447452E-2    9.168190742400840E-2   -4.503337874847664E-2    9.087161515911819E-1    4.164258101175273E-2
 1.519738054622472E6     9.089838645888485E-1    4.137286824696978E-2    9.145413049683296E-2   -4.482073870566051E-2    9.149310057861453E-2   -4.488714715396512E-2    9.088897649116886E-1    4.146366204767760E-2
 1.531333447238147E6     9.091608372272331E-1    4.121181010403185E-2    9.126552287139028E-2   -4.467271861568644E-2    9.129641435466210E-2   -4.474068364967301E-2    9.090880133594619E-1    4.131065405925688E-2
 1.543017311106810E6     9.093261364034494E-1    4.101969713201230E-2    9.107530463176249E-2   -4.452467745384032E-2    9.111319056268907E-2   -4.458994644690974E-2    9.092928631198171E-1    4.115068695803210E-2
 1.554790321251977E6     9.094940360737215E-1    4.086836102519995E-2    9.088125414295095E-2   -4.437899060833616E-2    9.092391267913386E-2   -4.444260432464497E-2    9.094816932885260E-1    4.098897510883615E-2
 1.566653157847488E6     9.096944789536655E-1    4.069204401646151E-2    9.069445211591798E-2   -4.423517688689080E-2    9.073320739334327E-2   -4.429680869748081E-2    9.096515296374884E-1    4.082000498922303E-2
 1.578606506256824E6     9.098918856880198E-1    4.051380688784793E-2    9.050297792607531E-2   -4.409098111039961E-2    9.054485121710087E-2   -4.415189113362607E-2    9.098491704636530E-1    4.065959582479246E-2
 1.590651057072690E6     9.100934403278701E-1    4.034900009799239E-2    9.031190470440636E-2   -4.394432613648730E-2    9.035614720965060E-2   -4.400772520033555E-2    9.100606625873284E-1    4.048445891521172E-2
 1.602787506156919E6     9.102888517419493E-1    4.020048361002596E-2    9.012313645895069E-2   -4.380297592689494E-2    9.016134557820384E-2   -4.385671026580293E-2    9.102469529370214E-1    4.033707916532158E-2
 1.615016554680682E6     9.104291209548159E-1    4.002119129209875E-2    8.992513631537022E-2   -4.365758363007304E-2    8.997611664332449E-2   -4.371417363845090E-2    9.104226951122939E-1    4.015589146242829E-2
 1.627338909164981E6     9.106272603775167E-1    3.985117469513385E-2    8.974041668881119E-2   -4.350785297946261E-2    8.978209444438436E-2   -4.356736233248421E-2    9.106159828827206E-1    4.001028558571074E-2
 1.639755281521474E6     9.107903841130524E-1    3.967625111951024E-2    8.954841444412534E-2   -4.336698054912883E-2    8.958957891885531E-2   -4.342295696890886E-2    9.108140960606723E-1    3.983149952503950E-2
 1.652266389093622E6     9.109790966194650E-1    3.950569079987327E-2    8.936163450230213E-2   -4.322184634920610E-2    8.940235401369404E-2   -4.328189852062964E-2    9.109867434920883E-1    3.968234756978421E-2
 1.664872954698102E6     9.111585231931519E-1    3.935116985184620E-2    8.917136756805193E-2   -4.307917434918859E-2    8.921280652941044E-2   -4.313099530262887E-2    9.111804502150466E-1    3.950206535023643E-2
 1.677575706666590E6     9.113260302264897E-1    3.917516970750932E-2    8.898186216632188E-2   -4.293334877494966E-2    8.902334528982521E-2   -4.298747121521958E-2    9.113313759340945E-1    3.932111978329290E-2
 1.690375378887833E6     9.115061218612618E-1    3.900104213766362E-2    8.879613095870635E-2   -4.278937667270472E-2    8.883284707654002E-2   -4.284494225496453E-2    9.114980156447615E-1    3.914439045744252E-2
 1.703272710850043E6     9.116920352831162E-1    3.883759532219111E-2    8.860489750411932E-2   -4.264064943148442E-2    8.864377023719258E-2   -4.269441017647148E-2    9.116733301141281E-1    3.898483405844722E-2
 1.716268447683636E6     9.118985425827856E-1    3.867570016605341E-2    8.841588434346170E-2   -4.249699522660191E-2    8.845546627865032E-2   -4.254671128166076E-2    9.118824261726405E-1    3.881664113970904E-2
 1.729363340204262E6     9.120432573481373E-1    3.850889400509302E-2    8.822996587206471E-2   -4.235080426086673E-2    8.827378245948329E-2   -4.240288297470285E-2    9.120547546170455E-1    3.863813800489650E-2
 1.742558144956193E6     9.122305636172879E-1    3.835229322522197E-2    8.804398758597091E-2   -4.220648097373506E-2    8.808464880931234E-2   -4.225816056315734E-2    9.122119475038307E-1    3.845101106776307E-2
 1.755853624256030E6     9.123884893578222E-1    3.816507741071706E-2    8.785805722150283E-2   -4.205703522723008E-2    8.790335449807607E-2   -4.211147569529002E-2    9.123852829304668E-1    3.829183598528741E-2
 1.769250546236744E6     9.125959106465772E-1    3.800450054337905E-2    8.767241768746410E-2   -4.191041959765998E-2    8.772202307983355E-2   -4.196428231831837E-2    9.125620884442784E-1    3.811918570565822E-2
 1.782749684892061E6     9.127393077443888E-1    3.781338166324074E-2    8.748799180252366E-2   -4.176754123828805E-2    8.754119678785706E-2   -4.181604928132886E-2    9.127835045251907E-1    3.794693557012082E-2
 1.796351820121167E6     9.129119282610552E-1    3.766296094876816E-2    8.731079201573143E-2   -4.161690367951511E-2    8.734941936769017E-2   -4.167014051637682E-2    9.129377852356264E-1    3.777958328614774E-2
 1.810057737773773E6     9.130889150221340E-1    3.748900812919182E-2    8.712964073311426E-2   -4.147112856277105E-2    8.717336108995637E-2   -4.151908078029725E-2    9.130946821817623E-1    3.759851372944347E-2
 1.823868229695514E6     9.133262934452068E-1    3.732480419311822E-2    8.695421032545515E-2   -4.132720530774347E-2    8.699295814637077E-2   -4.137627709157436E-2    9.132459525837869E-1    3.742657636862946E-2
 1.837784093773698E6     9.134517371009736E-1    3.714399748996850E-2    8.677404666293267E-2   -4.118354134835431E-2    8.681169544203821E-2   -4.122692167073050E-2    9.134544229455925E-1    3.726944300754675E-2
 1.851806133983411E6     9.136340971776487E-1    3.699345853108456E-2    8.659989503360377E-2   -4.103799234493687E-2    8.663363180258617E-2   -4.108616428932842E-2    9.136600215290707E-1    3.710600883798898E-2
 1.865935160433950E6     9.138141552867216E-1    3.681815956848374E-2    8.642349125207809E-2   -4.089344732632938E-2    8.645341883343555E-2   -4.093627369200884E-2    9.137745960423140E-1    3.693951247841794E-2
 1.880171989415638E6     9.139791646896689E-1    3.665819518289060E-2    8.625170567996106E-2   -4.074694062405176E-2    8.627854458883510E-2   -4.079001232916982E-2    9.139412378673929E-1    3.676319184531027E-2
 1.894517443446981E6     9.141280106200935E-1    3.647955556409452E-2    8.607477612366501E-2   -4.060393450805970E-2    8.610631940726841E-2   -4.064822979329329E-2    9.140977978288263E-1    3.660496316456361E-2
 1.908972351322182E6     9.142952686477172E-1    3.631112752984104E-2    8.590335010563918E-2   -4.045722323344443E-2    8.593130228453515E-2   -4.049976866919441E-2    9.142816076953169E-1    3.642510528209373E-2
 1.923537548159045E6     9.144783877505857E-1    3.615464812042678E-2    8.573286486935872E-2   -4.031652695413371E-2    8.576534428949405E-2   -4.036065842986320E-2    9.144425240195808E-1    3.627110640319683E-2
 1.938213875447196E6     9.146215601822292E-1    3.597158711495461E-2    8.556093744854334E-2   -4.017543380967144E-2    8.558573607219511E-2   -4.021595424574680E-2    9.146268883530753E-1    3.610407894232485E-2
 1.953002181096708E6     9.147724833891889E-1    3.580915084040600E-2    8.539075515466180E-2   -4.003231226761351E-2    8.542076134278634E-2   -4.007384914235917E-2    9.148021052588424E-1    3.593497074412319E-2
 1.967903319487111E6     9.149567308421580E-1    3.564221221263888E-2    8.522063308602931E-2   -3.989541464068171E-2    8.524979126844101E-2   -3.993699779194498E-2    9.149430168496490E-1    3.575945890284118E-2
 1.982918151516703E6     9.151151264694367E-1    3.547667062297346E-2    8.504722475391946E-2   -3.975514688521261E-2    8.507721185511787E-2   -3.979553006733411E-2    9.150927240410246E-1    3.560892298577271E-2
 1.998047544652348E6     9.152884408504071E-1    3.532523435237553E-2    8.487774273804005E-2   -3.961306264827954E-2    8.490768002434262E-2   -3.965670449998031E-2    9.152331071943078E-1    3.543170394274589E-2
 2.013292372979546E6     9.154020396382114E-1    3.514769903447743E-2    8.471306873511369E-2   -3.947952036753557E-2    8.474159483642722E-2   -3.951536968507739E-2    9.153889032477901E-1    3.525836954196126E-2
 2.028653517252947E6     9.155780254098869E-1    3.497614142872048E-2    8.454106280143635E-2   -3.934365584406881E-2    8.457597860344880E-2   -3.937866844845729E-2    9.155650035954217E-1    3.509789260124913E-2
 2.044131864947255E6     9.157471881766416E-1    3.482502679280537E-2    8.437274915140990E-2   -3.920722165214378E-2    8.440141450408288E-2   -3.924237133994875E-2    9.157107074716782E-1    3.492365755976025E-2
 2.059728310308467E6     9.158954154395148E-1    3.466864725671478E-2    8.420479925666595E-2   -3.907114554351050E-2    8.423150169717648E-2   -3.910582651426756E-2    9.158951955493082E-1    3.477738655054959E-2
 2.075443754405562E6     9.160518706077321E-1    3.451278283750203E-2    8.403810363615823E-2   -3.893772001297741E-2    8.406708596111151E-2   -3.896641554730224E-2    9.160663997731489E-1    3.461548471403784E-2
 2.091279105182548E6     9.162042325819553E-1    3.434759030636701E-2    8.387026212276634E-2   -3.880408444301178E-2    8.389729783765201E-2   -3.883177660775533E-2    9.162395225283725E-1    3.445527190516743E-2
 2.107235277510921E6     9.163604375378224E-1    3.419315444227065E-2    8.370193403885096E-2   -3.866815656594402E-2    8.372753706906155E-2   -3.869916428371981E-2    9.163597781089615E-1    3.429444610648111E-2
 2.123313193242529E6     9.165126026360672E-1    3.402630495131580E-2    8.354020375056441E-2   -3.853583222093664E-2    8.355744403897039E-2   -3.856242712710283E-2    9.165165096577595E-1    3.413445481881082E-2
 2.139513781262815E6     9.166687219854603E-1    3.386717403106877E-2    8.337127991230547E-2   -3.840268450146967E-2    8.339186363401017E-2   -3.842966893973091E-2    9.166907578045445E-1    3.396901669524503E-2
 2.155837977544490E6     9.168591366913765E-1    3.370833581956149E-2    8.320211889965612E-2   -3.827180385110147E-2    8.322299268829458E-2   -3.829134783286728E-2    9.168419056367026E-1    3.381566591415941E-2
 2.172286725201612E6     9.170732475912622E-1    3.356483122353485E-2    8.303491017577370E-2   -3.813904990507352E-2    8.305612856606932E-2   -3.815743397574544E-2    9.169959259028255E-1    3.366277841997019E-2
 2.188860974544063E6     9.171952365179714E-1    3.340574215164299E-2    8.286881352447266E-2   -3.800280651475667E-2    8.288890727667678E-2   -3.801657275392117E-2    9.171450895096729E-1    3.349541010767407E-2
 2.205561683132472E6     9.173519363948686E-1    3.325995723814596E-2    8.270051468074559E-2   -3.787634504297313E-2    8.272069869060039E-2   -3.788771444837092E-2    9.173462291058863E-1    3.331754253592689E-2
 2.222389815833514E6     9.174740833758369E-1    3.308898749375507E-2    8.253310976970192E-2   -3.773960074310912E-2    8.255211058693437E-2   -3.774385688320231E-2    9.174680623160568E-1    3.316686903144248E-2
 2.239346344875663E6     9.176518461331639E-1    3.293596321392468E-2    8.236368120586539E-2   -3.760671837295642E-2    8.238253079038702E-2   -3.761104131013716E-2    9.176412252327930E-1    3.300757738393862E-2
 2.256432249905369E6     9.178113048508606E-1    3.278874899391722E-2    8.219957219081310E-2   -3.747703490434585E-2    8.221469870442356E-2   -3.747240982473261E-2    9.177915224260379E-1    3.283527863780690E-2
 2.273648518043640E6     9.179650254720952E-1    3.263710791976355E-2    8.203246093484491E-2   -3.734422778293300E-2    8.205123971337704E-2   -3.733597771683041E-2    9.179753016400524E-1    3.267091601415065E-2
 2.290996143943099E6     9.181135070748586E-1    3.248502216960356E-2    8.186420531333248E-2   -3.721244033043699E-2    8.188667304852952E-2   -3.719539205419407E-2    9.181132628684615E-1    3.250955720725004E-2
 2.308476129845417E6     9.183237662624283E-1    3.231773494849539E-2    8.169954157204831E-2   -3.707838865029287E-2    8.172432850654716E-2   -3.705711709396446E-2    9.182739696963400E-1    3.235069799161580E-2
 2.326089485639235E6     9.184544826453042E-1    3.217019435720033E-2    8.153444414634474E-2   -3.694695158086114E-2    8.156571869300591E-2   -3.691956755470200E-2    9.183912417645674E-1    3.219873907824694E-2
 2.343837228918507E6     9.186339936642635E-1    3.202080007592257E-2    8.136871416302835E-2   -3.680672499316829E-2    8.139912825609062E-2   -3.677861790578994E-2    9.185301346735734E-1    3.202715190130723E-2
 2.361720385041283E6     9.187935502050395E-1    3.184545832837652E-2    8.120166676346485E-2   -3.667490427331080E-2    8.124289303866890E-2   -3.664515031689936E-2    9.187132571883330E-1    3.185229604480406E-2
 2.379739987188969E6     9.189764481394233E-1    3.170072940070854E-2    8.104376719840131E-2   -3.653745275715500E-2    8.108755352566760E-2   -3.650730767332170E-2    9.188721482009315E-1    3.169126978150417E-2
 2.397897076425990E6     9.191718470273580E-1    3.149779639065796E-2    8.088107957622188E-2   -3.640470800910815E-2    8.092995373804100E-2   -3.637383352592587E-2    9.190386684067360E-1    3.151005434576460E-2
 2.416192701759947E6     9.192798994112009E-1    3.134638105768617E-2    8.071987317626493E-2   -3.626955059803192E-2    8.077523168954898E-2   -3.623433507283458E-2    9.191773284137719E-1    3.136896604690562E-2
 2.434627920202243E6     9.194496664696545E-1    3.118570370612212E-2    8.055866683303510E-2   -3.612583949248317E-2    8.062427821881783E-2   -3.610156028631111E-2    9.193206345273286E-1    3.121228646189919E-2
 2.453203796829114E6     9.196089964325070E-1    3.100555264963429E-2    8.040052704882404E-2   -3.599018500514779E-2    8.047068856762492E-2   -3.597439942903839E-2    9.194757011996856E-1    3.101489960531857E-2
 2.471921404843189E6     9.197951009472650E-1    3.082334696739335E-2    8.024721517162220E-2   -3.585570266364299E-2    8.031408942533068E-2   -3.583835026682924E-2    9.196240703113016E-1    3.087828898447072E-2
 2.490781825635486E6     9.199291156208579E-1    3.066765596013875E-2    8.008988986204926E-2   -3.572421514648436E-2    8.016495946627462E-2   -3.570907140643086E-2    9.197999291981370E-1    3.070420781968778E-2
 2.509786148847881E6     9.202883648152851E-1    2.925383352026696E-2    8.052728936258940E-2   -3.511297635298802E-2    7.994470833530178E-2   -3.626651330202213E-2    9.202669895882183E-1    3.075047741098075E-2
 2.528935472436085E6     9.203610646898668E-1    2.886851241766831E-2    8.035839330552780E-2   -3.497786996682956E-2    7.977482578098882E-2   -3.617106312835301E-2    9.204102096113219E-1    3.059174929424579E-2
 2.548230902733043E6     9.205178087840611E-1    2.884268276699163E-2    8.019453015818968E-2   -3.485017049252769E-2    7.961653552009043E-2   -3.604468486913532E-2    9.205444206089921E-1    3.044206774048665E-2
 2.567673554512876E6     9.206829435758994E-1    2.859548154219251E-2    8.005527405394164E-2   -3.471312963422810E-2    7.947022716237984E-2   -3.589846180192491E-2    9.206823430831012E-1    3.029911981039906E-2
 2.587264551055275E6     9.208502066165588E-1    2.851059182041850E-2    7.991419699096915E-2   -3.457828262227516E-2    7.932729534752997E-2   -3.576708470923266E-2    9.208493632249294E-1    3.005436066207562E-2
 2.607005024210399E6     9.209587448388920E-1    2.835977381164908E-2    7.976565879526008E-2   -3.444314704239670E-2    7.921166695095781E-2   -3.558520861931463E-2    9.209927084189720E-1    2.994338803885953E-2
 2.626896114464281E6     9.211502624971035E-1    2.810540120409514E-2    7.960381447181560E-2   -3.433166135364060E-2    7.906894954742111E-2   -3.545617679859214E-2    9.211439390742873E-1    2.989595368930193E-2
 2.646938971004693E6     9.212691193880536E-1    2.787447180321987E-2    7.945796731291926E-2   -3.420579976581533E-2    7.892484877808290E-2   -3.531483934152340E-2    9.212695801048569E-1    2.971102538332465E-2
 2.667134751787555E6     9.214332550749007E-1    2.772004301453554E-2    7.928674258089713E-2   -3.410623544444722E-2    7.879929590632485E-2   -3.516262306873228E-2    9.214483596834327E-1    2.964784158686493E-2
 2.687484623603833E6     9.216037938325307E-1    2.771066539134890E-2    7.916746633058576E-2   -3.393449301171347E-2    7.866385094127754E-2   -3.503567241956437E-2    9.216214099899370E-1    2.950703866243126E-2
 2.707989762146940E6     9.218259374994152E-1    2.773341777796424E-2    7.901815347995955E-2   -3.382486398855986E-2    7.852959748496136E-2   -3.489543261341892E-2    9.217302129587471E-1    2.916934593992140E-2
 2.728651352080688E6     9.218539273388895E-1    2.744816072063561E-2    7.887467128498567E-2   -3.369071755306886E-2    7.839357735061082E-2   -3.474539809625211E-2    9.218862718214121E-1    2.907500651384379E-2
 2.749470587107692E6     9.220358571883503E-1    2.728800268248410E-2    7.872107056355618E-2   -3.356439612454324E-2    7.825894594069095E-2   -3.459893555622987E-2    9.219893287813391E-1    2.881925131136404E-2
 2.770448670038360E6     9.221869149882977E-1    2.709408639545077E-2    7.856466088244514E-2   -3.346545083525689E-2    7.812397033944624E-2   -3.445649222059120E-2    9.221028295272868E-1    2.871742309532988E-2
 2.791586812860380E6     9.222937627828632E-1    2.692040621930527E-2    7.841855599994897E-2   -3.333667555880628E-2    7.797910982643326E-2   -3.433859621154810E-2    9.222429937875557E-1    2.842423385213326E-2
 2.812886236808732E6     9.224672986826642E-1    2.677871902113597E-2    7.827147630337820E-2   -3.320307025487016E-2    7.783406900044212E-2   -3.420860037047548E-2    9.224403965874265E-1    2.836229872235055E-2
 2.834348172436268E6     9.226760387973918E-1    2.685064046572861E-2    7.813473766835205E-2   -3.306938463312349E-2    7.769367276051180E-2   -3.407775513123559E-2    9.226054383934379E-1    2.823745181602147E-2
 2.855973859684773E6     9.227509635666206E-1    2.639108988349193E-2    7.797941858230469E-2   -3.296606240114931E-2    7.754511230922116E-2   -3.394747726724085E-2    9.227079635422976E-1    2.801215556201653E-2
 2.877764547956619E6     9.228851115366190E-1    2.620551982346905E-2    7.784985887737421E-2   -3.282477648872759E-2    7.739389366975211E-2   -3.382452480256048E-2    9.228424959336993E-1    2.773882902684072E-2
 2.899721496186967E6     9.230237509304013E-1    2.609407711083089E-2    7.769491286478306E-2   -3.271686975330637E-2    7.726640928293969E-2   -3.368992259834276E-2    9.229436718033521E-1    2.765816733335733E-2
 2.921845972916440E6     9.232112811396680E-1    2.596755114698731E-2    7.755247489852395E-2   -3.258292317124547E-2    7.712485429292953E-2   -3.355526770706963E-2    9.230765982531485E-1    2.736067304519863E-2
 2.944139256364495E6     9.233364833813937E-1    2.587608903411644E-2    7.740563490695013E-2   -3.246337124867670E-2    7.699911057042055E-2   -3.341514302878646E-2    9.232962758849068E-1    2.733376555681772E-2
 2.966602634503201E6     9.234666132636137E-1    2.552735209073313E-2    7.724955938275217E-2   -3.234729001136909E-2    7.685186336582712E-2   -3.329313891824865E-2    9.234970018244550E-1    2.730839217265582E-2
 2.989237405131679E6     9.236166958861917E-1    2.551184322402636E-2    7.709366518469918E-2   -3.224119867493914E-2    7.671711463867649E-2   -3.315303295405744E-2    9.236403751549155E-1    2.726409891564050E-2
 3.012044875951098E6     9.236626182527312E-1    2.586434643027398E-2    7.697176207857996E-2   -3.229910734101469E-2    7.672121391435165E-2   -3.266947204251110E-2    9.237961935097169E-1    2.695561527609571E-2
 3.035026364640187E6     9.238779309055182E-1    2.571472550349009E-2    7.684875424860219E-2   -3.216866373399927E-2    7.657765250680793E-2   -3.255684379384897E-2    9.239494574808615E-1    2.672681086448209E-2
 3.058183198931389E6     9.239842053915583E-1    2.553478803192687E-2    7.669573548133263E-2   -3.205241927589438E-2    7.642802132928464E-2   -3.243251219189845E-2    9.240863393458808E-1    2.639912257435827E-2
 3.081516716687564E6     9.240730879974459E-1    2.519066214994406E-2    7.656215270573445E-2   -3.193067462727887E-2    7.630032964865306E-2   -3.229841786471844E-2    9.242067829613713E-1    2.632827919103431E-2
 3.105028265979277E6     9.242840523202106E-1    2.528210714479449E-2    7.643057702350212E-2   -3.178773137066827E-2    7.617546865417872E-2   -3.216474333252090E-2    9.243478005763454E-1    2.611987376332693E-2
 3.128719205162701E6     9.243501662927684E-1    2.501061419098083E-2    7.628906985090597E-2   -3.167315280091990E-2    7.602018338373831E-2   -3.205432598793791E-2    9.244854023264821E-1    2.597638347535013E-2
 3.152590902958065E6     9.244911246799953E-1    2.459186872988304E-2    7.614207573799892E-2   -3.156562105835740E-2    7.589143283900450E-2   -3.191602531731559E-2    9.246390060146975E-1    2.588341638826007E-2
 3.176644738528751E6     9.245906035882631E-1    2.448213387309085E-2    7.600595744472911E-2   -3.143055166616976E-2    7.575629516650260E-2   -3.179671153402844E-2    9.248035704909630E-1    2.569723129944949E-2
 3.200882101560967E6     9.247183014809399E-1    2.435942777911590E-2    7.587293948241106E-2   -3.130601220440300E-2    7.562290286496130E-2   -3.166889111644839E-2    9.248686769232113E-1    2.549727968808340E-2
 3.225304392344028E6     9.248694867999290E-1    2.410795914275820E-2    7.573149865932099E-2   -3.119880853929353E-2    7.548843156889481E-2   -3.155603958906125E-2    9.249842650707433E-1    2.516344816893109E-2
 3.249913021851289E6     9.250703810733222E-1    2.410346096258403E-2    7.561255236833224E-2   -3.105259325224049E-2    7.535344654489436E-2   -3.142673675322174E-2    9.251445302173016E-1    2.519797866805755E-2
 3.274709411821612E6     9.251432506480011E-1    2.386160073830336E-2    7.547032119299903E-2   -3.093364463567751E-2    7.522480699526320E-2   -3.129506986413673E-2    9.252569284078316E-1    2.497952707606328E-2
 3.299694994841541E6     9.253016196419117E-1    2.383465715011469E-2    7.535170104036809E-2   -3.080008102020557E-2    7.508790210187261E-2   -3.118708753090660E-2    9.253736447256493E-1    2.467344189455719E-2
 3.324871214428060E6     9.254868152586037E-1    2.360485603899546E-2    7.522119856065422E-2   -3.062629216240258E-2    7.491096514483869E-2   -3.112428052284791E-2    9.255396346721489E-1    2.476331999490711E-2
 3.350239525111979E6     9.255957645005422E-1    2.336321129599088E-2    7.508779316185715E-2   -3.050758898602826E-2    7.477580425848486E-2   -3.101151814923595E-2    9.256059868690696E-1    2.440899979429675E-2
 3.375801392522001E6     9.257256776880551E-1    2.323940623777564E-2    7.495587861478974E-2   -3.039497623563276E-2    7.462953490431154E-2   -3.089664074494635E-2    9.257669495019343E-1    2.431679020000019E-2
 3.401558293469354E6     9.258107428924365E-1    2.299982807998812E-2    7.481948329778972E-2   -3.033743294474911E-2    7.454646579132071E-2   -3.071273502898898E-2    9.258636226822257E-1    2.400589359614538E-2
 3.427511716033138E6     9.259068369562869E-1    2.275612194010831E-2    7.468935702187714E-2   -3.020986716346091E-2    7.440530928315883E-2   -3.059620962112593E-2    9.259437928610686E-1    2.381063659076505E-2
 3.453663159646295E6     9.261160248956471E-1    2.262220786431563E-2    7.455558337800883E-2   -3.010682289337014E-2    7.429058810241730E-2   -3.046940333401079E-2    9.261740275368360E-1    2.375636409047263E-2
 3.480014135182226E6     9.262568490791779E-1    2.264159552589450E-2    7.442854684794377E-2   -2.997063835115685E-2    7.415473478127500E-2   -3.035389030238706E-2    9.262830611780286E-1    2.356684136996927E-2
 3.506566165042107E6     9.264236134582344E-1    2.265131134247501E-2    7.428882429104465E-2   -2.991313485267413E-2    7.408180935782158E-2   -3.017895213077184E-2    9.264728701313747E-1    2.346069800152051E-2
 3.533320783242811E6     9.265404088328248E-1    2.236856357744901E-2    7.415068482312057E-2   -2.978934534049948E-2    7.394289981186268E-2   -3.006383526369885E-2    9.266275669966036E-1    2.338558471695044E-2
 3.560279535505542E6     9.266249245942393E-1    2.223584461307217E-2    7.402644858544685E-2   -2.965854459282613E-2    7.381906307725448E-2   -2.994643526665949E-2    9.267391690792309E-1    2.318384048793402E-2
 3.587443979345170E6     9.267653991843496E-1    2.204736022511387E-2    7.389403554541536E-2   -2.955003316836358E-2    7.368647437477063E-2   -2.982195993611324E-2    9.268888181014242E-1    2.307060665032128E-2
 3.614815684160168E6     9.268835279457472E-1    2.170450369855428E-2    7.374958309989543E-2   -2.944260092125206E-2    7.356347679679434E-2   -2.970419378635286E-2    9.270159061712502E-1    2.282245422529296E-2
 3.642396231323309E6     9.270355521374550E-1    2.161780375734354E-2    7.363552209554562E-2   -2.931519431672862E-2    7.342618544067514E-2   -2.959329149401350E-2    9.271234322695792E-1    2.254465201130300E-2
 3.670187214273024E6     9.272314988291265E-1    2.111198408301005E-2    7.349459831052588E-2   -2.893700491516387E-2    7.312948569098136E-2   -2.983463142127614E-2    9.271366348092233E-1    2.254696465132010E-2
 3.698190238605455E6     9.273802225178123E-1    2.098472147942450E-2    7.336279081667607E-2   -2.882099230013479E-2    7.298573998337204E-2   -2.973030890540153E-2    9.272774402883168E-1    2.238045372666882E-2
 3.726406922167240E6     9.275456538795828E-1    2.077134706812057E-2    7.324567873595461E-2   -2.870054302199113E-2    7.286385909421651E-2   -2.961523323364702E-2    9.274217779966643E-1    2.217825768706779E-2
 3.754838895148946E6     9.276231756534273E-1    2.057871693456062E-2    7.311576236468392E-2   -2.857965534876216E-2    7.274459504637579E-2   -2.948540414962894E-2    9.275701417824387E-1    2.202464589519109E-2
 3.783487800179276E6     9.276556127886433E-1    2.041087499226814E-2    7.299644664711218E-2   -2.852619636360543E-2    7.264989819956934E-2   -2.923316386761025E-2    9.277298000577222E-1    2.194964287428275E-2
 3.812355292419964E6     9.278151050276158E-1    2.041829453276691E-2    7.287577298259611E-2   -2.840575683888684E-2    7.251674175748143E-2   -2.912725019153364E-2    9.278859723895370E-1    2.182590185458659E-2
 3.841443039661395E6     9.279321368710340E-1    2.028214422225241E-2    7.275912746646823E-2   -2.826746736737776E-2    7.239140351378581E-2   -2.900162155551023E-2    9.280083418842671E-1    2.167547138722848E-2
 3.870752722418987E6     9.280830638924150E-1    2.025112408532566E-2    7.263615049861055E-2   -2.814897846448850E-2    7.226685938111964E-2   -2.887940566183372E-2    9.281195932652219E-1    2.157459186868160E-2
 3.900286034030236E6     9.281991678443807E-1    2.012310816830990E-2    7.252704813484756E-2   -2.801976396353280E-2    7.213811245412766E-2   -2.877128274412854E-2    9.282374487355460E-1    2.131882510486785E-2
 3.930044680752580E6     9.283064447518872E-1    1.987850094137045E-2    7.240203900335468E-2   -2.790369393216994E-2    7.201284551604605E-2   -2.865601411945621E-2    9.283411274275839E-1    2.114016175500819E-2
 3.960030381861967E6     9.284837192917963E-1    1.971605879273931E-2    7.227566323051493E-2   -2.779098265234389E-2    7.187974367671783E-2   -2.854672257206727E-2    9.284459604111424E-1    2.077842967072495E-2
 3.990244869752173E6     9.285862681616897E-1    1.948948866568793E-2    7.213207355552219E-2   -2.769444331137344E-2    7.175707978698737E-2   -2.843792428855110E-2    9.285632023434788E-1    2.065400645896827E-2
 4.020689890034929E6     9.286946932591422E-1    1.965792547227086E-2    7.201916303275867E-2   -2.771284124201522E-2    7.174753472384669E-2   -2.810972660113082E-2    9.287165161619089E-1    2.043961937158967E-2
 4.051367201640718E6     9.288493577204320E-1    1.961842821090914E-2    7.190527952074080E-2   -2.759315917939872E-2    7.160764704581682E-2   -2.801721412491851E-2    9.287925298395741E-1    2.015090269978966E-2
 4.082278576920427E6     9.289414698014051E-1    1.927369310510032E-2    7.178533694505468E-2   -2.748362748372188E-2    7.149763288599283E-2   -2.789633580167546E-2    9.289391459993378E-1    2.013776885587017E-2
 4.113425801747740E6     9.290396926034818E-1    1.915505313223403E-2    7.166910326894090E-2   -2.735356674553990E-2    7.136635327244605E-2   -2.778848672245439E-2    9.290628032977690E-1    1.988904734491739E-2
 4.144810675622302E6     9.291539810067120E-1    1.896632050869148E-2    7.154108964614828E-2   -2.724868859824469E-2    7.125780227347964E-2   -2.766710371363426E-2    9.292726885546148E-1    1.989401445001944E-2
 4.176435011773718E6     9.292759522904295E-1    1.888056503955351E-2    7.142838457516773E-2   -2.712747061440498E-2    7.114177003746608E-2   -2.754690938042137E-2    9.293820679848596E-1    1.974107283107089E-2
 4.208300637266261E6     9.293487673305918E-1    1.850966867472800E-2    7.128747497588157E-2   -2.702352073543873E-2    7.101904791425372E-2   -2.743333918549761E-2    9.295001265445714E-1    1.951780157568777E-2
 4.240409393104453E6     9.294782569904226E-1    1.831599994241328E-2    7.118171772362976E-2   -2.690591798283346E-2    7.090167682199031E-2   -2.731300419156529E-2    9.296014212901700E-1    1.938053722652531E-2
 4.272763134339464E6     9.295899673086528E-1    1.829403890604763E-2    7.108090543287676E-2   -2.678060369660675E-2    7.078211382698293E-2   -2.720220488265255E-2    9.297820463593073E-1    1.926566716056842E-2
 4.305363730176185E6     9.296911147889911E-1    1.801772589119614E-2    7.094888683910885E-2   -2.667653709261629E-2    7.065670534728670E-2   -2.709268344141572E-2    9.298463472324172E-1    1.906163640906332E-2
 4.338213064081349E6     9.298352786183862E-1    1.781950387372667E-2    7.083848040147993E-2   -2.649817649525162E-2    7.050885925617137E-2   -2.703150701832020E-2    9.299444815942769E-1    1.889309955635905E-2
 4.371313033892244E6     9.299485862191983E-1    1.758353379392144E-2    7.072228905718060E-2   -2.638255297214089E-2    7.037708250943733E-2   -2.692947513672971E-2    9.300508856410761E-1    1.866407265308672E-2
 4.404665551926396E6     9.300703067098336E-1    1.756137893357181E-2    7.060251893245838E-2   -2.625840753441685E-2    7.025893293514689E-2   -2.681149245824958E-2    9.302105544521384E-1    1.859931329582474E-2
 4.438272545092077E6     9.302223964917512E-1    1.739432719927319E-2    7.048437337126506E-2   -2.615385537203145E-2    7.013830761698236E-2   -2.671394083768746E-2    9.303259250673378E-1    1.830430962562756E-2
 4.472135954999580E6     9.302755585723724E-1    1.718833354600996E-2    7.035688910478538E-2   -2.603981738794215E-2    7.002656761009460E-2   -2.658901713204697E-2    9.303705559638270E-1    1.795196034891524E-2
 4.506257738073424E6     9.303969225564878E-1    1.707325110519693E-2    7.024301111174557E-2   -2.592163245995236E-2    6.989867529095953E-2   -2.649262492657517E-2    9.304161476305938E-1    1.758068563947011E-2
 4.540639865665382E6     9.305233888153156E-1    1.701171345546117E-2    7.013716283744216E-2   -2.585711962722411E-2    6.983769511400058E-2   -2.629955399664048E-2    9.306206409487386E-1    1.751379344653674E-2
 4.575284324168356E6     9.306915782271350E-1    1.674506738102627E-2    7.000862970355722E-2   -2.576254867735097E-2    6.973490561551718E-2   -2.617689551717756E-2    9.308314268260388E-1    1.764243096729229E-2
 4.610193115131186E6     9.307945848088319E-1    1.637842536118544E-2    6.988017419180910E-2   -2.550470755312343E-2    6.951466956678767E-2   -2.629254272053486E-2    9.309493901732279E-1    1.755716145274906E-2
 4.645368255374223E6     9.308844135809732E-1    1.621133053296313E-2    6.974960419145515E-2   -2.539779529011852E-2    6.938481314349638E-2   -2.618333993074156E-2    9.309491665903397E-1    1.719962057385582E-2
 4.680811777105891E6     9.309664868625811E-1    1.600682705512359E-2    6.963321656488269E-2   -2.528581461694222E-2    6.926670812411058E-2   -2.606484533496334E-2    9.310845633991933E-1    1.709642382074647E-2
 4.716525728040087E6     9.310911488592298E-1    1.579264498390395E-2    6.951890879186115E-2   -2.517868407716478E-2    6.915315570579282E-2   -2.595658028680772E-2    9.312401612927578E-1    1.693073918338205E-2
 4.752512171514469E6     9.312367263405368E-1    1.562541086382615E-2    6.941037185464637E-2   -2.506865672114579E-2    6.903761042532268E-2   -2.585819312983506E-2    9.313563178016119E-1    1.686498734719643E-2
 4.788773186609713E6     9.313272194039528E-1    1.545026530093468E-2    6.929614561336274E-2   -2.495339168612788E-2    6.892834669988179E-2   -2.576098744549857E-2    9.313931302670639E-1    1.638609578875957E-2
 4.825310868269563E6     9.314743933525113E-1    1.516128082509019E-2    6.915788013960400E-2   -2.477623048695438E-2    6.878923846132123E-2   -2.579723017120026E-2    9.315925632614460E-1    1.662117169058553E-2
 4.862127327421905E6     9.315846521515285E-1    1.495416849008470E-2    6.905240679779587E-2   -2.465531890150204E-2    6.867262486289065E-2   -2.568168527895850E-2    9.316876792067598E-1    1.626752939835571E-2
 4.899224691100715E6     9.316632998234312E-1    1.476833467240249E-2    6.892753721268383E-2   -2.456188907981923E-2    6.856085313955283E-2   -2.557845319959732E-2    9.318084770731362E-1    1.603134514556095E-2
 4.936605102568937E6     9.317626927358637E-1    1.457996792438200E-2    6.882236199301239E-2   -2.444223117995760E-2    6.846981068482204E-2   -2.544752939186583E-2    9.318991820139544E-1    1.603358887481730E-2
 4.974270721442348E6     9.318681299196326E-1    1.444846749747732E-2    6.871421990714195E-2   -2.431612121218850E-2    6.835043533763656E-2   -2.534606513540716E-2    9.320013977688163E-1    1.566185154582022E-2
 5.012223723814265E6     9.319861054255301E-1    1.433552073759090E-2    6.861794914827690E-2   -2.418591377597437E-2    6.823204683868020E-2   -2.525258280779476E-2    9.321005713446109E-1    1.544782224325627E-2
 5.050466302381308E6     9.321017413604141E-1    1.414609616614159E-2    6.849880301350793E-2   -2.408362317649628E-2    6.812242571018501E-2   -2.514912727438136E-2    9.322106155453354E-1    1.532111954184198E-2
 5.089000666570071E6     9.321596241240181E-1    1.392792774889824E-2    6.838333754169645E-2   -2.398407922677818E-2    6.800623841675510E-2   -2.504090252801441E-2    9.323157411013743E-1    1.513529910887634E-2
 5.127829042664761E6     9.323137426726760E-1    1.377146440725160E-2    6.828723653506853E-2   -2.386004107597494E-2    6.790455368447233E-2   -2.492583536738083E-2    9.325123875719706E-1    1.507661244804161E-2
 5.166953673935857E6     9.324116073217488E-1    1.358527894573181E-2    6.817215783100113E-2   -2.375113916334642E-2    6.779597701628935E-2   -2.482147826927377E-2    9.326082364728956E-1    1.506887562786601E-2
 5.206376820769652E6     9.325452775122782E-1    1.347310692416152E-2    6.805553355623657E-2   -2.363954149932088E-2    6.768743382094511E-2   -2.472166636253142E-2    9.326704014597170E-1    1.454893745010102E-2
 5.246100760798878E6     9.326517543802129E-1    1.326856382431313E-2    6.793216407486730E-2   -2.355536108500586E-2    6.757008832863827E-2   -2.462202172624486E-2    9.327324037773658E-1    1.441408681367847E-2
 5.286127789034322E6     9.328108342748231E-1    1.308929056986782E-2    6.781832942328116E-2   -2.344699402362366E-2    6.746817093324914E-2   -2.450894436628013E-2    9.328476566709477E-1    1.426210495185946E-2
 5.326460217997355E6     9.328425042145508E-1    1.346640006376497E-2    6.776009291019525E-2   -2.361930457305172E-2    6.755704854113644E-2   -2.394708295980529E-2    9.330341508489559E-1    1.396597700967438E-2
 5.367100377853584E6     9.329571882077954E-1    1.327506886646635E-2    6.764484540892754E-2   -2.351624012228129E-2    6.745640299033834E-2   -2.383400186311324E-2    9.331585719807938E-1    1.371761198587189E-2
 5.408050616547454E6     9.330699501923728E-1    1.315984878788914E-2    6.754602298306207E-2   -2.340439548889261E-2    6.734766039090904E-2   -2.372671389236133E-2    9.333226445914379E-1    1.383677062166735E-2
 5.449313299937895E6     9.331492581879131E-1    1.290849670013792E-2    6.743752853133950E-2   -2.328908837241056E-2    6.724107310754360E-2   -2.362436835348366E-2    9.333382671669608E-1    1.341435496886917E-2
 5.490890811935049E6     9.332247714226398E-1    1.222317611725905E-2    6.728696489237924E-2   -2.287845746948025E-2    6.694514557132519E-2   -2.395280741182602E-2    9.334305796482584E-1    1.358423629705972E-2
 5.532785554637930E6     9.333472557315908E-1    1.204906227302610E-2    6.718536174492964E-2   -2.275980922751606E-2    6.684342569953378E-2   -2.383106242308719E-2    9.335195391021460E-1    1.356720976126497E-2
 5.574999948473252E6     9.334540954772150E-1    1.235176154540491E-2    6.712880369728183E-2   -2.293036564064311E-2    6.692517739926168E-2   -2.329059007701406E-2    9.337078885966358E-1    1.313089620369980E-2
 5.617536432335250E6     9.335404378205394E-1    1.220084412933600E-2    6.702383796767873E-2   -2.282709288995583E-2    6.681901107414986E-2   -2.319129177575769E-2    9.337572320137816E-1    1.275206400402653E-2
 5.660397463726575E6     9.336391197145036E-1    1.203545306101384E-2    6.691724470255744E-2   -2.271058536739897E-2    6.672006744470764E-2   -2.308989582809645E-2    9.338497404409678E-1    1.244663461382412E-2
 5.703585518900323E6     9.338021774001253E-1    1.130561252837442E-2    6.676128142911002E-2   -2.233223575755549E-2    6.642607945554688E-2   -2.341637371995509E-2    9.339259318467966E-1    1.246838484335474E-2
 5.747103093003022E6     9.339264544147585E-1    1.112851768028774E-2    6.665350645142851E-2   -2.222869148336806E-2    6.632426057258625E-2   -2.331214093570715E-2    9.340299175870624E-1    1.218660814904801E-2
 5.790952700218840E6     9.339860854766683E-1    1.092702925348233E-2    6.653763940495318E-2   -2.213015547523518E-2    6.622228629803403E-2   -2.320298713414368E-2    9.340955846271590E-1    1.192654415373676E-2
 5.835136873914825E6     9.341044523148203E-1    1.133390832830383E-2    6.649845039685971E-2   -2.230049184833979E-2    6.631641074677831E-2   -2.265058525918292E-2    9.342895179412006E-1    1.179018644758280E-2
 5.879658166787256E6     9.342006974318635E-1    1.115245799378027E-2    6.637720764582167E-2   -2.220448865100081E-2    6.621483252597461E-2   -2.253056079905359E-2    9.343984295471442E-1    1.173148312451060E-2
 5.924519151009166E6     9.342892864905888E-1    1.097551790905502E-2    6.627876843460910E-2   -2.208899414473572E-2    6.612500166089393E-2   -2.240924805420721E-2    9.345197070304695E-1    1.173666526409058E-2
 5.969722418378883E6     9.343742320841197E-1    1.077823572743314E-2    6.618158795710884E-2   -2.197328905238887E-2    6.601825604356205E-2   -2.232072234858415E-2    9.346447486076686E-1    1.139568003689172E-2
 6.015270580469812E6     9.344893291578639E-1    1.058808712367692E-2    6.607181359394725E-2   -2.187382872014090E-2    6.591334616607952E-2   -2.220825239386150E-2    9.346375013309267E-1    1.097918832640753E-2
 6.061166268781302E6     9.345853818633892E-1    1.043130661368383E-2    6.596322782119132E-2   -2.177371822584748E-2    6.581116359539427E-2   -2.210655682968079E-2    9.347991382721234E-1    1.075042854562368E-2
 6.107412134890671E6     9.346405992874450E-1    1.018176816949347E-2    6.586661066418444E-2   -2.163048386412502E-2    6.567964270968621E-2   -2.202318434122128E-2    9.348691811746301E-1    1.063730331354075E-2
 6.154010850606443E6     9.347307861882374E-1    9.992016506661951E-3    6.576105641266836E-2   -2.152258522786295E-2    6.557575995472449E-2   -2.190810592113039E-2    9.349792089728123E-1    1.059578092261703E-2
 6.200965108122637E6     9.348721290759890E-1    9.814692175662790E-3    6.566624065714345E-2   -2.142083750392972E-2    6.548126255601103E-2   -2.180494126692991E-2    9.350816447456569E-1    1.042698137088020E-2
 6.248277620174343E6     9.349209038799567E-1    9.597908931087603E-3    6.556248067180757E-2   -2.130487659807824E-2    6.538148258658304E-2   -2.169074916999589E-2    9.351727968467128E-1    9.990721944615111E-3
 6.295951120194497E6     9.350421757452636E-1    9.431237117265871E-3    6.546417994686390E-2   -2.118532011841491E-2    6.528256394654215E-2   -2.158713390921749E-2    9.352743759235780E-1    9.832700552688575E-3
 6.343988362471664E6     9.351354966231520E-1    9.308296258200252E-3    6.536234685509115E-2   -2.112337843884399E-2    6.521430562619283E-2   -2.145784995723335E-2    9.353486751675203E-1    9.471599668259525E-3
 6.392392122309345E6     9.352488338809695E-1    9.085663770511421E-3    6.526743659207268E-2   -2.101864666930763E-2    6.512386007000223E-2   -2.134245848922448E-2    9.354395162728162E-1    9.444278507511407E-3
 6.441165196186168E6     9.353836402854786E-1    8.895263152223313E-3    6.516841553139185E-2   -2.090498128875684E-2    6.502542772693401E-2   -2.124024595516408E-2    9.355479819530520E-1    9.367660305310830E-3
 6.490310401917514E6     9.354576332755203E-1    8.718197806416328E-3    6.507001997118068E-2   -2.079526091645696E-2    6.493432361238329E-2   -2.111820163505820E-2    9.356548861030184E-1    9.286447251722027E-3
 6.539830578818345E6     9.355479609328269E-1    8.530464527539328E-3    6.497178367241380E-2   -2.070572772365657E-2    6.483906050346142E-2   -2.101529346066317E-2    9.357508758738408E-1    9.086436159898636E-3
 6.589728587867169E6     9.356101712722876E-1    8.359193673386903E-3    6.486926418047653E-2   -2.059139228672155E-2    6.473945755826538E-2   -2.090825488833065E-2    9.358210898139478E-1    8.881485206765644E-3
 6.640007311871376E6     9.357564838504033E-1    8.134129614694223E-3    6.477951128864315E-2   -2.048982444082641E-2    6.464429731321600E-2   -2.081096216340478E-2    9.359402601015099E-1    8.561217195783380E-3
 6.690669655633785E6     9.358197830612544E-1    7.940806035892962E-3    6.467512965629067E-2   -2.038269089820628E-2    6.454807459151124E-2   -2.070003045076670E-2    9.360169515071928E-1    8.366306146130046E-3
 6.741718546120445E6     9.358634459407976E-1    7.779487454367366E-3    6.458181789748832E-2   -2.026909264270477E-2    6.445258972940582E-2   -2.059588863160825E-2    9.360858783848859E-1    8.191198579541582E-3
 6.793156932629797E6     9.359580480877638E-1    7.564814589155029E-3    6.448644575949518E-2   -2.017202118583161E-2    6.435725192302010E-2   -2.048627132721599E-2    9.361564778962865E-1    8.032814980534125E-3
 6.844987786962981E6     9.360632569186461E-1    7.345046251548780E-3    6.438645358133764E-2   -2.006827569222881E-2    6.426600458962223E-2   -2.038347309946550E-2    9.362681462817894E-1    7.860401846712176E-3
 6.897214103595586E6     9.361151149568850E-1    6.992072702523026E-3    6.428999133834877E-2   -1.988071503765892E-2    6.408780946972309E-2   -2.035537590009598E-2    9.363264275468728E-1    7.685314528241058E-3
 6.949838899850640E6     9.361652983612679E-1    6.806585157602294E-3    6.420076731374325E-2   -1.976869001260069E-2    6.399324000423477E-2   -2.024489393568316E-2    9.364244798154655E-1    7.487819366468035E-3
 7.002865216072913E6     9.362713314039014E-1    6.268230866506387E-3    6.407491828913553E-2   -1.953962261330733E-2    6.379785633151375E-2   -2.037456890762438E-2    9.364618228576486E-1    7.408778492235400E-3
 7.056296115804635E6     9.363507418464468E-1    6.073584750006036E-3    6.397999492649782E-2   -1.943718260752064E-2    6.370382072685521E-2   -2.026869795533106E-2    9.365286767847056E-1    7.223969817465968E-3
 7.110134685962399E6     9.364816370013024E-1    5.844386568691577E-3    6.388550796483378E-2   -1.933066577147496E-2    6.360449643537626E-2   -2.016082739218917E-2    9.366318323364632E-1    6.972630109722027E-3
 7.164384037015557E6     9.366420695648680E-1    5.645588860209037E-3    6.378453316008002E-2   -1.922589069557765E-2    6.351541534569791E-2   -2.005712969622026E-2    9.366838467470072E-1    6.780269354817953E-3
 7.219047303165923E6     9.366756352962179E-1    5.440830421756329E-3    6.369274618353118E-2   -1.912090679754351E-2    6.342858457806837E-2   -1.994836088863712E-2    9.367924287063699E-1    6.564634625248590E-3
 7.274127642528819E6     9.367919348691948E-1    5.253146330713951E-3    6.360128466578464E-2   -1.901571303879786E-2    6.333707240187661E-2   -1.984659322197604E-2    9.368952639562842E-1    6.324499945564950E-3
 7.329628237315600E6     9.369206493022295E-1    4.880235307970847E-3    6.348804032320302E-2   -1.885015451062995E-2    6.322611489415486E-2   -1.989432063228057E-2    9.370324339227435E-1    6.174646111614825E-3
 7.385552294017412E6     9.370105590654604E-1    4.675015712265745E-3    6.339215796798518E-2   -1.874664027163025E-2    6.313361854932226E-2   -1.978618165558406E-2    9.371056411833475E-1    5.961252244253889E-3
 7.441903043590503E6     9.370197555969627E-1    5.041678859593712E-3    6.335286281217199E-2   -1.888278400596408E-2    6.321037577948793E-2   -1.922978127781080E-2    9.372568458673458E-1    5.728891100353159E-3
 7.498683741642874E6     9.371473027436891E-1    4.836343987459884E-3    6.326717247978178E-2   -1.877141531434529E-2    6.311793614854037E-2   -1.912023240272701E-2    9.373324603327199E-1    5.475107019946394E-3
 7.555897668622349E6     9.372354653731250E-1    4.230319488574545E-3    6.314579030093088E-2   -1.848984347193140E-2    6.288226394982814E-2   -1.931730198603001E-2    9.373644523833504E-1    5.294887740834175E-3
 7.613548130006171E6     9.373074856190776E-1    4.006859806431354E-3    6.305143415635917E-2   -1.837944085163299E-2    6.279195065187949E-2   -1.920727681349642E-2    9.375002778423001E-1    5.116291040331370E-3
 7.671638456491867E6     9.376379102430904E-1    3.413108292675459E-3    6.289112084035260E-2   -1.815108673858970E-2    6.272890263520220E-2   -1.950555923786737E-2    9.375562580485964E-1    4.903396752095844E-3
 7.730172004189732E6     9.377343092829513E-1    3.226431048938085E-3    6.280529504736461E-2   -1.804605072101287E-2    6.264352918701092E-2   -1.940536655834319E-2    9.375973392058687E-1    4.668596153076034E-3
 7.789152154816771E6     9.378777867986698E-1    2.985316042338454E-3    6.271088965544093E-2   -1.794183436142004E-2    6.255739463019599E-2   -1.930168322630643E-2    9.377107144069504E-1    4.470826774921680E-3
 7.848582315891974E6     9.377130617023477E-1    3.137587584874631E-3    6.269444581146635E-2   -1.795562724720992E-2    6.243934531385706E-2   -1.878937322092425E-2    9.378636098996799E-1    4.290142911013669E-3
 7.908465920933248E6     9.377692493851205E-1    2.953249204599947E-3    6.260316641982282E-2   -1.785084233548695E-2    6.235081586328569E-2   -1.868781546771858E-2    9.379719982535246E-1    4.057510417271984E-3
 7.968806429655775E6     9.378850531333693E-1    2.714772055035424E-3    6.251394317856472E-2   -1.774368681076659E-2    6.226040732072526E-2   -1.858151474594526E-2    9.380343974524407E-1    3.841756621138641E-3
 8.029607328171868E6     9.379644653865538E-1    2.512057259785211E-3    6.242530520367223E-2   -1.763976108194901E-2    6.217610438664834E-2   -1.847577983310560E-2    9.381105262911656E-1    3.617179741787358E-3
 8.090872129192449E6     9.380275573434317E-1    2.307024151094843E-3    6.234256466463164E-2   -1.753824342590014E-2    6.209215952373368E-2   -1.836709484604033E-2    9.381998098665428E-1    3.414007962036422E-3
 8.152604372229892E6     9.380985141951299E-1    2.088234415541194E-3    6.225473831668519E-2   -1.743268195964404E-2    6.200629102983955E-2   -1.826518985245290E-2    9.382712895651510E-1    3.157534104272515E-3
 8.214807623802581E6     9.381944941296185E-1    1.855172309458556E-3    6.216642653660018E-2   -1.732086341341409E-2    6.191473011459859E-2   -1.815808644434164E-2    9.383310631163756E-1    3.004584574144779E-3
 8.277485477640945E6     9.382454032977092E-1    1.643548758878571E-3    6.207527125818833E-2   -1.721563822014313E-2    6.183096267341207E-2   -1.805228854202091E-2    9.383827028598228E-1    2.769565726397675E-3
 8.340641554895067E6     9.383035663768218E-1    1.420977731503396E-3    6.198926205118978E-2   -1.710748424163813E-2    6.174503823122003E-2   -1.795190891703266E-2    9.385187832876588E-1    2.530433444899281E-3
 8.404279504343957E6     9.384219271180643E-1    1.207542800763615E-3    6.190912191537046E-2   -1.700015376990778E-2    6.166433652891595E-2   -1.784914811509337E-2    9.385870204533237E-1    2.319203657658268E-3
 8.468403002606256E6     9.384759466168656E-1    1.003278916707603E-3    6.182201265502750E-2   -1.690044674175739E-2    6.158238697641196E-2   -1.774537165937808E-2    9.386988222907472E-1    2.067226266140001E-3
 8.533015754352720E6     9.385394210890117E-1    9.665164589110534E-4    6.176352582057520E-2   -1.686602795729499E-2    6.154466754407172E-2   -1.746693910454768E-2    9.388068704452338E-1    1.834103597854161E-3
 8.598121492520234E6     9.386365170159677E-1    7.255605379904763E-4    6.167805749206218E-2   -1.676389079919165E-2    6.146185345646629E-2   -1.736294373784903E-2    9.388727157668495E-1    1.638853755051693E-3
 8.663723978527457E6     9.390158710367946E-1   -1.033588187263587E-4    6.149698224850084E-2   -1.646960437219355E-2    6.136386779608603E-2   -1.785456539274162E-2    9.389242358277184E-1    1.443375036110987E-3
 8.729827002492212E6     9.390818292508579E-1   -3.059573721832293E-4    6.141070331851448E-2   -1.636440726752043E-2    6.127897708369583E-2   -1.774632341943069E-2    9.390166813571371E-1    1.218903316611377E-3
 8.796434383450346E6     9.391513098635410E-1   -5.502361999877841E-4    6.132456260213375E-2   -1.625959712473174E-2    6.119987344264579E-2   -1.764781137257601E-2    9.391249864813787E-1    9.653223917037281E-4
 8.863549969576446E6     9.391357179862416E-1   -5.561454081942624E-4    6.129504745031404E-2   -1.621704268250390E-2    6.106821955501295E-2   -1.728308579477914E-2    9.391688595272294E-1    7.559897074015804E-4
 8.931177638406139E6     9.391976315792974E-1   -7.963562646627387E-4    6.120620348487422E-2   -1.611030388602759E-2    6.098689904938632E-2   -1.718186844829453E-2    9.392761081596720E-1    5.311839938956955E-4
 8.999321297060097E6     9.392781410538356E-1   -1.023223087967775E-3    6.112486232107429E-2   -1.600607391489130E-2    6.090415943146427E-2   -1.707529806696428E-2    9.392955741456257E-1    2.949513176525887E-4
 9.067984882469844E6     9.393473831291678E-1   -1.254389248298579E-3    6.104968273675220E-2   -1.590166493299209E-2    6.082008506873144E-2   -1.697260168220084E-2    9.393953981428295E-1    9.448694905906817E-5
 9.137172361605095E6     9.394342366919706E-1   -1.517177212204019E-3    6.096563284028828E-2   -1.579521684088481E-2    6.073676393474828E-2   -1.686778587281270E-2    9.395172265071757E-1   -1.408176349167019E-4
 9.206887731702998E6     9.393979455707140E-1   -1.207331381555305E-3    6.094610337511869E-2   -1.586572642398444E-2    6.076432411437844E-2   -1.632592080812062E-2    9.396089445572193E-1   -4.276242557103355E-4
 9.277135020499127E6     9.395112491003755E-1   -1.473050595145976E-3    6.086843183861955E-2   -1.576671729890084E-2    6.068435949026738E-2   -1.622187323810513E-2    9.397164888966103E-1   -6.922758770782087E-4
 9.347918286460072E6     9.395734975101728E-1   -1.680438177307534E-3    6.078684857039127E-2   -1.565930750868118E-2    6.060883132307212E-2   -1.611601355383529E-2    9.398074184904316E-1   -8.969444257873660E-4
 9.419241619017981E6     9.396639870594905E-1   -1.919781542239601E-3    6.070666822693820E-2   -1.555186630365951E-2    6.052868334002996E-2   -1.601206599332443E-2    9.398933990497033E-1   -1.125174826699797E-3
 9.491109138806809E6     9.397352267241417E-1   -2.167737302227395E-3    6.062640505657550E-2   -1.544816123594633E-2    6.044491429707310E-2   -1.590321776670629E-2    9.399413238824733E-1   -1.353484764100560E-3
 9.563524997900363E6     9.398238428773532E-1   -2.441126303185017E-3    6.054505650715410E-2   -1.533933392762416E-2    6.036375314560144E-2   -1.579752817578914E-2    9.399697650620266E-1   -1.578181348527268E-3
 9.636493380052259E6     9.398870034747215E-1   -2.634858702805982E-3    6.046675748480558E-2   -1.523180102729685E-2    6.028744377682113E-2   -1.569368991832527E-2    9.401056296281728E-1   -1.843887803468984E-3
 9.710018500937525E6     9.399816640325629E-1   -2.879675788952929E-3    6.038761247220521E-2   -1.512943080620287E-2    6.020554447423603E-2   -1.558504109516010E-2    9.401763670774861E-1   -2.078752130188267E-3
 9.784104608396223E6     9.400506933250333E-1   -3.475224581058063E-3    6.026899823386515E-2   -1.490094399492677E-2    6.003226755229955E-2   -1.576049550044586E-2    9.402410653598451E-1   -2.241114911083134E-3
 9.858755982678859E6     9.401600794863275E-1   -3.710202648165381E-3    6.018802833437331E-2   -1.478635784921138E-2    5.995562296967653E-2   -1.565810827897138E-2    9.402808699079969E-1   -2.507434663340329E-3
 9.933976936693633E6     9.402276373165368E-1   -3.956732493002565E-3    6.011437856189279E-2   -1.468276722110845E-2    5.987426093949717E-2   -1.554966679530185E-2    9.403577266371999E-1   -2.714065555337684E-3
 1.000977181625571E7     9.402758136493407E-1   -4.225478394290085E-3    6.003273170975851E-2   -1.457788233899856E-2    5.980028293909596E-2   -1.544850951516186E-2    9.404552351173087E-1   -2.950583658313487E-3
 1.008614500033817E7     9.403985717312106E-1   -4.450545417859754E-3    5.995549319362489E-2   -1.447135903935982E-2    5.972116002993520E-2   -1.534386775182364E-2    9.404761911364409E-1   -3.205601871330331E-3
 1.016310090132507E7     9.404758894393395E-1   -4.689382151446161E-3    5.987773069500504E-2   -1.436812436165554E-2    5.964824649818993E-2   -1.523768449676166E-2    9.405354762389947E-1   -3.427830845636757E-3
 1.024064396526634E7     9.404889391865729E-1   -4.602189210714857E-3    5.984281274319820E-2   -1.438192053425050E-2    5.966578199504452E-2   -1.485270615838119E-2    9.406113617173955E-1   -3.734286769433432E-3
 1.031877867213467E7     9.405891170451488E-1   -4.854311538379373E-3    5.976520187372266E-2   -1.427729190728084E-2    5.958845879628238E-2   -1.474330564754711E-2    9.406908339227373E-1   -4.007232481581680E-3
 1.039750953608436E7     9.406328254804783E-1   -5.110986079163167E-3    5.968378485187011E-2   -1.417017035577951E-2    5.951508247518443E-2   -1.463956733571887E-2    9.408303168832147E-1   -4.224397917612929E-3
 1.047684110571204E7     9.407269935373681E-1   -5.328299329321130E-3    5.960985109789590E-2   -1.406205657549729E-2    5.944251691472784E-2   -1.453112374529529E-2    9.409177313356384E-1   -4.472890900530375E-3
 1.055677796431950E7     9.408200437453504E-1   -5.606885923462625E-3    5.954061089729329E-2   -1.395540813768339E-2    5.936915930691149E-2   -1.442840083373278E-2    9.409979769770238E-1   -4.731818415767696E-3
 1.063732473017859E7     9.411504814217078E-1   -6.577504328486934E-3    5.934429761595252E-2   -1.362415860466869E-2    5.924681675787623E-2   -1.505554506642882E-2    9.409813238213289E-1   -4.939570969115526E-3
 1.071848605679777E7     9.412263727070120E-1   -6.851717814583200E-3    5.926639184674331E-2   -1.351845680364965E-2    5.917844398238355E-2   -1.495492857382430E-2    9.410497872530809E-1   -5.182048816235935E-3
 1.080026663319129E7     9.411315048759992E-1   -6.863732179114969E-3    5.924253828056725E-2   -1.346500149367061E-2    5.904283171794560E-2   -1.457348619131301E-2    9.411745712959305E-1   -5.430906029614424E-3
 1.088267118414987E7     9.412725081843821E-1   -7.121979234617892E-3    5.916924247934802E-2   -1.335589591081164E-2    5.897351540424102E-2   -1.446809764870596E-2    9.412632303233366E-1   -5.678495486712969E-3
 1.096570447051370E7     9.414874249262096E-1   -7.598038954511947E-3    5.904350355984592E-2   -1.319688036103544E-2    5.896059102419689E-2   -1.463931021031111E-2    9.413020278062766E-1   -5.934953978031798E-3
 1.104937128944762E7     9.415177887848826E-1   -7.850023902194756E-3    5.896789274360042E-2   -1.309122171088027E-2    5.888797532372485E-2   -1.453608343698905E-2    9.413696835637508E-1   -6.178649417624251E-3
 1.113367647471805E7     9.416168581487555E-1   -8.100835929484964E-3    5.889463339731872E-2   -1.298657055923897E-2    5.881509332494265E-2   -1.443405832891898E-2    9.414256816131163E-1   -6.439442233693734E-3
 1.121862489697252E7     9.414055433925589E-1   -7.437457402964563E-3    5.896347762770557E-2   -1.321520190079019E-2    5.890421781479091E-2   -1.343938810583636E-2    9.415597689276229E-1   -6.818062725606664E-3
 1.130422146402085E7     9.415627130092852E-1   -7.676294066577041E-3    5.889705569913496E-2   -1.310848348748496E-2    5.882981004091523E-2   -1.333148378320215E-2    9.415940539182795E-1   -7.084865975066585E-3
 1.139047112111875E7     9.416314712285495E-1   -7.955617846390805E-3    5.882372436955045E-2   -1.300063032263694E-2    5.876020955506004E-2   -1.321981046334922E-2    9.416666549376851E-1   -7.351703760720934E-3
 1.147737885125368E7     9.416941977066924E-1   -8.208032493841833E-3    5.875478739646611E-2   -1.289131537748055E-2    5.868635017391088E-2   -1.311616234112605E-2    9.417577983660241E-1   -7.592764213707265E-3
 1.156494967543242E7     9.417658554791432E-1   -8.477003933726746E-3    5.868424639454330E-2   -1.278829431203646E-2    5.861592425376882E-2   -1.300504811413053E-2    9.417864062204554E-1   -7.859506599271841E-3
 1.165318865297152E7     9.418102132740893E-1   -8.832155822105142E-3    5.861136242750530E-2   -1.264223306649210E-2    5.851448593454375E-2   -1.292494521430763E-2    9.418679350450085E-1   -8.096550305855318E-3
 1.174210088178934E7     9.421213123130389E-1   -9.962095463270055E-3    5.839592839508704E-2   -1.223977509184894E-2    5.832238225684429E-2   -1.368923342113982E-2    9.419144565940212E-1   -8.246707663942050E-3
 1.183169149870061E7     9.421917227295908E-1   -1.028475273319784E-2    5.832257967834838E-2   -1.213488727260878E-2    5.825707024583784E-2   -1.358695409454477E-2    9.420146448018281E-1   -8.510741761085612E-3
 1.192196567971337E7     9.422587259842616E-1   -1.052670033017639E-2    5.825217607837983E-2   -1.202627112259826E-2    5.819029647473259E-2   -1.348327013058365E-2    9.421046478345350E-1   -8.789917174274258E-3
 1.201292864032780E7     9.423359621199013E-1   -1.080500987684960E-2    5.817813257856951E-2   -1.191867125401398E-2    5.812265942507371E-2   -1.337782950203334E-2    9.421522462432380E-1   -9.037964228143160E-3
 1.210458563583766E7     9.423696326874542E-1   -1.109026259498850E-2    5.810810295080034E-2   -1.181293247189906E-2    5.805426024280425E-2   -1.327170687772499E-2    9.422289074029079E-1   -9.352201115639620E-3
 1.219694196163385E7     9.424221167778324E-1   -1.135513103682245E-2    5.803983911300563E-2   -1.170412932999507E-2    5.798370479425874E-2   -1.316588045818803E-2    9.422667006016139E-1   -9.606992841373741E-3
 1.229000295351040E7     9.421680132320609E-1   -1.104078020574174E-2    5.808347376948630E-2   -1.174738847734140E-2    5.789449672991236E-2   -1.239432202010642E-2    9.423731417963946E-1   -9.908236235477810E-3
 1.238377398797275E7     9.422775881845402E-1   -1.134168521620711E-2    5.801907135567936E-2   -1.164245811636772E-2    5.782735385055549E-2   -1.228702302463427E-2    9.424517529165354E-1   -1.019850291417500E-2
 1.247826048254829E7     9.423564026605965E-1   -1.160728249996736E-2    5.795138536336811E-2   -1.153233460984776E-2    5.776231190848173E-2   -1.217703471477000E-2    9.425090953894847E-1   -1.047033562631804E-2
 1.257346789609938E7     9.425491414653744E-1   -1.146074427189701E-2    5.792736627551612E-2   -1.162069172072802E-2    5.789347418596485E-2   -1.180150160702619E-2    9.425661939033505E-1   -1.085248639882411E-2
 1.266940172913885E7     9.425947481652717E-1   -1.175186779778073E-2    5.786035093621040E-2   -1.151489824504475E-2    5.782534303266800E-2   -1.169128474444849E-2    9.426050582625013E-1   -1.113576551641056E-2
 1.276606752414753E7     9.426566574380246E-1   -1.203796492962282E-2    5.779195041656587E-2   -1.140432819235409E-2    5.775966857035765E-2   -1.158063160252997E-2    9.427053603802119E-1   -1.141777278674314E-2
 1.286347086589479E7     9.427397730326699E-1   -1.233226783984591E-2    5.772681454473015E-2   -1.129436103254333E-2    5.769516477334406E-2   -1.147114089134024E-2    9.427284783001716E-1   -1.172070238016821E-2
 1.296161738176090E7     9.427911294467709E-1   -1.260728315528097E-2    5.766221250115298E-2   -1.118421771689374E-2    5.762805357212028E-2   -1.135940023522268E-2    9.427852343985331E-1   -1.200273759361895E-2
 1.306051274206230E7     9.428532402840388E-1   -1.289752978766299E-2    5.759335129688602E-2   -1.107529089295176E-2    5.756220938281599E-2   -1.125385526710335E-2    9.428320244858901E-1   -1.228018681879496E-2
 1.316016266037924E7     9.429281277336086E-1   -1.317431530165656E-2    5.753169241834148E-2   -1.096386721643558E-2    5.749861397703582E-2   -1.114164697501987E-2    9.429292911843624E-1   -1.254814478706121E-2
 1.326057289388563E7     9.429818014556230E-1   -1.360974404464447E-2    5.745754547212164E-2   -1.078838728123451E-2    5.737168171480734E-2   -1.107740160076209E-2    9.430161756700864E-1   -1.279456558659494E-2
 1.336174924368203E7     9.429643574338102E-1   -1.388801390117066E-2    5.739573144311807E-2   -1.067664684998962E-2    5.730647517038431E-2   -1.096578316406985E-2    9.430621248168446E-1   -1.309277306626738E-2
 1.346369755513046E7     9.430568589012738E-1   -1.409089027901781E-2    5.733566313155768E-2   -1.063375387141066E-2    5.730413485414173E-2   -1.080967616032419E-2    9.431072088593352E-1   -1.340740014393378E-2
 1.356642371819227E7     9.431097597261441E-1   -1.442060848250941E-2    5.727034908429419E-2   -1.052715985913379E-2    5.724199605081920E-2   -1.069904009455977E-2    9.431693789608094E-1   -1.370799130993999E-2
 1.366993366776852E7     9.432204460345003E-1   -1.469863757225514E-2    5.720732478371149E-2   -1.041585112927809E-2    5.717684823631073E-2   -1.058955478998178E-2    9.431999577392058E-1   -1.402418776241166E-2
 1.377423338404255E7     9.432552602360893E-1   -1.497994494584496E-2    5.714327866431580E-2   -1.030276406312799E-2    5.711377714530379E-2   -1.047828024906258E-2    9.432572112216828E-1   -1.431429595217834E-2
 1.387932889282586E7     9.432717765540622E-1   -1.590421252650952E-2    5.699758729761242E-2   -9.941176706585415E-3    5.681568210344373E-2   -1.085401464718493E-2    9.433500748773719E-1   -1.449151221806584E-2
 1.398522626590596E7     9.435678993620017E-1   -1.660310122713051E-2    5.684620247141391E-2   -9.749574703723014E-3    5.683498290434956E-2   -1.122424748333981E-2    9.433942475033573E-1   -1.477719094908224E-2
 1.409193162139728E7     9.436550322807860E-1   -1.692159327649166E-2    5.678512181334513E-2   -9.639648170775424E-3    5.677188091843733E-2   -1.111753488858538E-2    9.434484075683364E-1   -1.508678784190329E-2
 1.419945112409473E7     9.434882722600074E-1   -1.687504698219642E-2    5.681230217029635E-2   -9.608914353057791E-3    5.663159629076429E-2   -1.052919108361424E-2    9.435512005063440E-1   -1.537059738448498E-2
 1.430779098582953E7     9.435134311030027E-1   -1.714213096564977E-2    5.674736784055676E-2   -9.493180036868137E-3    5.657053382577571E-2   -1.041656547347546E-2    9.436094093127160E-1   -1.571060772622680E-2
 1.441695746582855E7     9.436014821857450E-1   -1.745884482960213E-2    5.668408848208301E-2   -9.385439046094806E-3    5.650848350754115E-2   -1.030805880848805E-2    9.436722208673880E-1   -1.601049881670831E-2
 1.452695687107559E7     9.436697561111101E-1   -1.779517004757497E-2    5.662379269691666E-2   -9.275768950717167E-3    5.644995064552068E-2   -1.019529039760352E-2    9.437268230688550E-1   -1.631023302175464E-2
 1.463779555667585E7     9.437287156345815E-1   -1.809161618703807E-2    5.656248388787533E-2   -9.164833367595807E-3    5.638567511148537E-2   -1.008409119407349E-2    9.437871946810364E-1   -1.660646406465684E-2
 1.474947992622320E7     9.437776984661808E-1   -1.840008148817795E-2    5.650004946714130E-2   -9.052386521838606E-3    5.632918804000184E-2   -9.975543775967478E-3    9.438627722842320E-1   -1.691698967648387E-2
 1.486201643216998E7     9.438110462852912E-1   -1.840490420695037E-2    5.649894041503607E-2   -9.034803934120181E-3    5.635438017390673E-2   -9.535962801565198E-3    9.439208241074967E-1   -1.727005934783477E-2
 1.497541157619987E7     9.438847083566974E-1   -1.904838026949359E-2    5.638074747777028E-2   -8.823905711782125E-3    5.621061285565844E-2   -9.750569307245448E-3    9.439693180195835E-1   -1.754272649965058E-2
 1.508967190960350E7     9.439220808809429E-1   -1.938928274015851E-2    5.631966874627710E-2   -8.712680943310435E-3    5.615409059169765E-2   -9.638034379002434E-3    9.440736430793425E-1   -1.784363798732594E-2
 1.520480403365694E7     9.439898270864954E-1   -1.971338204041068E-2    5.626023870042840E-2   -8.599918231742169E-3    5.609382918253252E-2   -9.524876952139846E-3    9.441044520825468E-1   -1.815678902222679E-2
 1.532081460000315E7     9.440066878810998E-1   -2.003443640421890E-2    5.619560314213996E-2   -8.490453605846189E-3    5.603480396866688E-2   -9.415879583711900E-3    9.441420440761168E-1   -1.850793659481595E-2
 1.543771031103615E7     9.441071398881524E-1   -2.034484274881559E-2    5.613949305962186E-2   -8.373414082723190E-3    5.597910956653573E-2   -9.301111958307177E-3    9.442180943594968E-1   -1.883854664429129E-2
 1.555549792028828E7     9.441513413582292E-1   -2.068285229610953E-2    5.608054491658022E-2   -8.261523003131941E-3    5.592136637938126E-2   -9.190869845533640E-3    9.442965815624497E-1   -1.915744015634604E-2
 1.567418423282054E7     9.441377371663627E-1   -2.070486002747901E-2    5.608576146670564E-2   -8.239982840785944E-3    5.594460882285614E-2   -8.745943443861164E-3    9.443160157920777E-1   -1.950155633068340E-2
 1.579377610561541E7     9.442232803519947E-1   -2.104768761040394E-2    5.602469924151653E-2   -8.127744699798571E-3    5.588580599350850E-2   -8.630876491369604E-3    9.443362669038941E-1   -1.984199875407347E-2
 1.591428044797338E7     9.443027720551932E-1   -2.133843697323290E-2    5.597174959209057E-2   -8.011736094162185E-3    5.582923589079741E-2   -8.518929849763515E-3    9.444009119855585E-1   -2.018495143850013E-2
 1.603570422191187E7     9.443178171044698E-1   -2.173411120100409E-2    5.591261015108322E-2   -7.899860193787423E-3    5.577325800869330E-2   -8.402774683630839E-3    9.444444147199965E-1   -2.051444824985967E-2
 1.615805444256752E7     9.444061044359551E-1   -2.203473636497170E-2    5.585569168169857E-2   -7.782011959151318E-3    5.571862440018436E-2   -8.288005983677939E-3    9.445371344304809E-1   -2.080497912257257E-2
 1.628133817860163E7     9.444210965010389E-1   -2.236900520349070E-2    5.579802636388363E-2   -7.668201452515246E-3    5.566275317487646E-2   -8.171729074494647E-3    9.446098587911720E-1   -2.115054809937573E-2
 1.640556255260818E7     9.444954740555421E-1   -2.283283686502631E-2    5.572025709913956E-2   -7.508243978276480E-3    5.556163981933637E-2   -8.180770090940807E-3    9.446198265303903E-1   -2.150003701707936E-2
 1.653073474152580E7     9.445555583164750E-1   -2.320332762490478E-2    5.566860698587668E-2   -7.396086870922860E-3    5.550974987966590E-2   -8.060148542500348E-3    9.446868084823421E-1   -2.181754432613664E-2
 1.665686197705204E7     9.446295902918810E-1   -2.354250097776118E-2    5.561188963950892E-2   -7.277422969554513E-3    5.545434786917411E-2   -7.944570516158017E-3    9.446883762080158E-1   -2.216407058243603E-2
 1.678395154606132E7     9.446815742918873E-1   -2.390628064214546E-2    5.555734803617222E-2   -7.162117142786472E-3    5.539832557911104E-2   -7.830198426593564E-3    9.447372342174793E-1   -2.250296290635813E-2
 1.691201079102603E7     9.447822122078267E-1   -2.444358706104291E-2    5.546534020665090E-2   -6.994645885424431E-3    5.531430306618781E-2   -7.928877101273529E-3    9.448429671879256E-1   -2.283657825156674E-2
 1.704104711044038E7     9.447803958706801E-1   -2.480179643834751E-2    5.540675094940291E-2   -6.878966483680132E-3    5.526046174973991E-2   -7.814931532575536E-3    9.448661290539612E-1   -2.316698022938520E-2
 1.717106795924834E7     9.448484002194605E-1   -2.516602633978105E-2    5.535462182387952E-2   -6.760373440147005E-3    5.520965150426967E-2   -7.694164272222670E-3    9.449500673898410E-1   -2.351627932589873E-2
 1.730208084927390E7     9.451535604536689E-1   -2.586203926889542E-2    5.521262109779518E-2   -6.581349164274300E-3    5.526836115197242E-2   -8.084523328717563E-3    9.449606808284565E-1   -2.387661781039800E-2
 1.743409334965526E7     9.449668201369245E-1   -2.585576969929149E-2    5.524881279433646E-2   -6.525545770954612E-3    5.510541436099571E-2   -7.469751168486031E-3    9.450164686887524E-1   -2.423561371418163E-2
 1.756711308728221E7     9.450065906703597E-1   -2.624767441940574E-2    5.519335492035970E-2   -6.409972412930352E-3    5.505204915079705E-2   -7.351297987031818E-3    9.450641408528901E-1   -2.458131382479113E-2
 1.770114774723655E7     9.450622770245521E-1   -2.658278350221345E-2    5.514347606450759E-2   -6.289548267479057E-3    5.500357431806608E-2   -7.231537092892905E-3    9.451455846140112E-1   -2.492708893843338E-2
 1.783620507323623E7     9.451232009308969E-1   -2.636427422799056E-2    5.520017345080116E-2   -6.391976296809692E-3    5.516535032573665E-2   -6.574946801297035E-3    9.451414964833172E-1   -2.542660362707534E-2
 1.797229286808272E7     9.450972709998332E-1   -2.682471739338455E-2    5.513229300003446E-2   -6.210849461352043E-3    5.505553694078593E-2   -6.513097822795176E-3    9.452312296554850E-1   -2.572134752014291E-2
 1.810941899411174E7     9.451780161703114E-1   -2.708169844374696E-2    5.509676905219438E-2   -6.153040255902869E-3    5.506604177784650E-2   -6.336314699157100E-3    9.452621136054196E-1   -2.614946747559131E-2
 1.824759137364766E7     9.452561046512415E-1   -2.750240526825906E-2    5.504623624059991E-2   -6.034260720646393E-3    5.501461754177237E-2   -6.217008225297500E-3    9.452939852458206E-1   -2.654004318674821E-2
 1.838681798946100E7     9.453002721318415E-1   -2.784147841546834E-2    5.499589369515636E-2   -5.911754694007424E-3    5.496232839218025E-2   -6.092739259972839E-3    9.453411509196188E-1   -2.684902078877859E-2
 1.852710688522972E7     9.453621729373581E-1   -2.901237747941410E-2    5.480088085735667E-2   -5.549750968101311E-3    5.472022830395114E-2   -6.722296139188169E-3    9.453753016024006E-1   -2.710119407942989E-2
 1.866846616600409E7     9.453342245425017E-1   -2.919579320259462E-2    5.478538543849788E-2   -5.457821680804049E-3    5.465308513313841E-2   -6.399971460557880E-3    9.454146447939989E-1   -2.747919759219193E-2
 1.881090399867451E7     9.454120657078545E-1   -2.902207029160110E-2    5.483901535200610E-2   -5.521169623563683E-3    5.478724855239894E-2   -5.755431185095336E-3    9.454570611675941E-1   -2.796096644494840E-2
 1.895442861244394E7     9.454267973565188E-1   -2.940915966838577E-2    5.479035934555293E-2   -5.396164518539119E-3    5.474120587243233E-2   -5.633255586638747E-3    9.454985243217090E-1   -2.833610899283444E-2
 1.909904829930285E7     9.454494929457763E-1   -2.981084555770452E-2    5.474148848852992E-2   -5.276903491865037E-3    5.469134572195743E-2   -5.509467840637775E-3    9.455381449021670E-1   -2.870376597493344E-2
 1.924477141450845E7     9.455105899321806E-1   -3.018498358707208E-2    5.469609917712117E-2   -5.156977341091580E-3    5.464560329739229E-2   -5.385549220708069E-3    9.455764210610410E-1   -2.911079268844035E-2
 1.939160637706759E7     9.455746025898846E-1   -3.057625610093272E-2    5.464744149912684E-2   -5.032832079070881E-3    5.459712168763058E-2   -5.265738168850572E-3    9.456253438251544E-1   -2.949918177196508E-2
 1.953956167022271E7     9.455887458902310E-1   -3.098798567712627E-2    5.460087764292228E-2   -4.910677777526013E-3    5.455038554661418E-2   -5.141556162435086E-3    9.456540414644228E-1   -2.987401432196726E-2
 1.968864584194249E7     9.456303938167193E-1   -3.144677917708228E-2    5.454365015158497E-2   -4.757172886826757E-3    5.446799242235530E-2   -5.054404719519249E-3    9.456707141969231E-1   -3.026276697555012E-2
 1.983886750541528E7     9.457244563298508E-1   -3.250047090266006E-2    5.436238745481737E-2   -4.461786301286221E-3    5.429937218993294E-2   -5.634774230848471E-3    9.457301431517392E-1   -3.055829933922031E-2
 1.999023533954688E7     9.457746692481486E-1   -3.290031294473679E-2    5.431446502216385E-2   -4.340193815318122E-3    5.425420234104145E-2   -5.513798998886615E-3    9.457514766668664E-1   -3.097004145088108E-2
 2.014275808946211E7     9.458155708180147E-1   -3.328894419596231E-2    5.426756718216996E-2   -4.214007920793552E-3    5.420972227818129E-2   -5.391700713568654E-3    9.458075668711711E-1   -3.136468462720398E-2
 2.029644456700960E7     9.458632729752479E-1   -3.370023412117581E-2    5.422511297239156E-2   -4.091966247156818E-3    5.416764457882271E-2   -5.270660480336076E-3    9.458672920922818E-1   -3.172932898684704E-2
 2.045130365127147E7     9.459072976977505E-1   -3.411774056749774E-2    5.417902124138341E-2   -3.967239575758887E-3    5.412412561251526E-2   -5.145054685587079E-3    9.459119747584408E-1   -3.214277458411679E-2
 2.060734428907584E7     9.459337235697821E-1   -3.454143868480503E-2    5.413133755128412E-2   -3.843875314400588E-3    5.408000557114877E-2   -5.021050078646314E-3    9.459181942994280E-1   -3.253447550774703E-2
 2.076457549551392E7     9.459427801531178E-1   -3.496236293199660E-2    5.408589683705621E-2   -3.720433331227128E-3    5.403705293115371E-2   -4.895564153787501E-3    9.459401033643592E-1   -3.297235783189139E-2
 2.092300635446098E7     9.459629491440181E-1   -3.536123294772743E-2    5.404129704129847E-2   -3.591909327904922E-3    5.399339932768830E-2   -4.772736664876816E-3    9.459966950916998E-1   -3.335631709174208E-2
 2.108264601910070E7     9.460181719477896E-1   -3.578638579719766E-2    5.399952303123039E-2   -3.466758714294653E-3    5.395187238488553E-2   -4.648286937116247E-3    9.460257514475618E-1   -3.377634330945407E-2
 2.124350371245464E7     9.460218614790383E-1   -3.548333042327270E-2    5.411126164612927E-2   -3.558506842753338E-3    5.407997861925234E-2   -3.742020270146977E-3    9.459969877343056E-1   -3.436583250091121E-2
 2.140558872791451E7     9.460584307527906E-1   -3.587258574626262E-2    5.406813733915491E-2   -3.433196830593455E-3    5.403881244777597E-2   -3.612331545306908E-3    9.460611573435280E-1   -3.473003506449641E-2
 2.156891042977939E7     9.460289646047252E-1   -3.669957486747151E-2    5.394554216138273E-2   -3.150541324957277E-3    5.382285169885609E-2   -3.830538891882284E-3    9.461232605230686E-1   -3.504998436915083E-2
 2.173347825379676E7     9.460479097999515E-1   -3.715649377651269E-2    5.390228330630646E-2   -3.022583365010302E-3    5.378261439811007E-2   -3.701688519079811E-3    9.461511119578362E-1   -3.547354201047341E-2
 2.189930170770744E7     9.460460650615169E-1   -3.759172702713730E-2    5.385850359204215E-2   -2.895054448606670E-3    5.374198016136208E-2   -3.577245450342660E-3    9.462037202194716E-1   -3.591094302358664E-2
 2.206639037179505E7     9.460828158932226E-1   -3.800056497495750E-2    5.381851805747223E-2   -2.767897218773241E-3    5.370010015542311E-2   -3.448002537311055E-3    9.462044567047256E-1   -3.632574010599337E-2
 2.223475389943947E7     9.462117879683531E-1   -3.802950196230576E-2    5.386246719752927E-2   -2.789236417534281E-3    5.383358109954192E-2   -2.973817710709850E-3    9.462397985532478E-1   -3.686726657076945E-2
 2.240440201767448E7     9.462366285931585E-1   -3.848692193643773E-2    5.382055214215475E-2   -2.661683299566732E-3    5.379189481829762E-2   -2.842424928777716E-3    9.462564968797849E-1   -3.727816571302243E-2
 2.257534452774993E7     9.462430579824415E-1   -3.891760339252480E-2    5.378025007316260E-2   -2.531671645478053E-3    5.375192438951575E-2   -2.712040108299056E-3    9.462663505906819E-1   -3.772507608944215E-2
 2.274759130569773E7     9.462739435087392E-1   -3.939727465885888E-2    5.374122359434427E-2   -2.400987450343851E-3    5.371144353198398E-2   -2.582470264698496E-3    9.462922316851388E-1   -3.817548717149374E-2
 2.292115230290256E7     9.462890840281699E-1   -3.985584440381752E-2    5.370304253392379E-2   -2.269488840468797E-3    5.367457197648590E-2   -2.450686388689257E-3    9.463294749590487E-1   -3.860990603208363E-2
 2.309603754667697E7     9.463248907322928E-1   -4.033035626757452E-2    5.366533470776887E-2   -2.139352777411681E-3    5.363593940570294E-2   -2.319587913128518E-3    9.463576794514140E-1   -3.905026970768555E-2
 2.327225714084021E7     9.463349539282411E-1   -4.077427495600775E-2    5.362521224976034E-2   -2.005914890671332E-3    5.359539375487579E-2   -2.188526350285322E-3    9.463865113650520E-1   -3.949981613404643E-2
 2.344982126630262E7     9.462945847918754E-1   -4.152414403876597E-2    5.352925061028022E-2   -1.759373943163266E-3    5.342857851020284E-2   -2.273162406746591E-3    9.464879579428460E-1   -3.981992155677173E-2
 2.362874018165328E7     9.462993144984286E-1   -4.199891567839190E-2    5.348809515960136E-2   -1.627377409682008E-3    5.338632779241161E-2   -2.142851922891320E-3    9.464906663040142E-1   -4.029944989910396E-2
 2.380902422375290E7     9.463906250069309E-1   -4.273910873445816E-2    5.338742270920845E-2   -1.429965938563884E-3    5.330608589903656E-2   -2.379228407201260E-3    9.465028606357498E-1   -4.072484601778755E-2
 2.399068380833123E7     9.463975709784088E-1   -4.324410914018189E-2    5.334599356468193E-2   -1.301042908083775E-3    5.326860892842737E-2   -2.247793689992054E-3    9.465260875492060E-1   -4.119574336050940E-2
 2.417372943058824E7     9.464133433566166E-1   -4.338564703174023E-2    5.337786065904119E-2   -1.226030260059989E-3    5.327627954123840E-2   -1.745106940958449E-3    9.465603012675640E-1   -4.165170753531324E-2
 2.435817166580120E7     9.464061624646671E-1   -4.384315451299868E-2    5.333966374788411E-2   -1.094175179134831E-3    5.323915407533838E-2   -1.611109985714980E-3    9.465898318080757E-1   -4.212740968036362E-2
 2.454402116993507E7     9.464790426134511E-1   -4.463955101472891E-2    5.323706500970957E-2   -9.003289381013706E-4    5.316314154288716E-2   -1.848967070662511E-3    9.465971085070187E-1   -4.255828157669776E-2
 2.473128868025839E7     9.464895894089841E-1   -4.512992082977681E-2    5.319923609634022E-2   -7.640001401648944E-4    5.312635592345937E-2   -1.716269927096946E-3    9.466110225164626E-1   -4.305338524370386E-2
 2.491998501596375E7     9.464986252625261E-1   -4.558481403302019E-2    5.316283823799867E-2   -6.318380900667436E-4    5.308982296077634E-2   -1.582968585690946E-3    9.466507978254828E-1   -4.351107932251636E-2
 2.511012107879237E7     9.465460983152478E-1   -4.552675245967922E-2    5.325350013505444E-2   -6.671399895845847E-4    5.322205751497443E-2   -8.453159995934342E-4    9.465782720556207E-1   -4.411688683002610E-2
 2.530170785366461E7     9.465759417944264E-1   -4.597179767737443E-2    5.321627576353780E-2   -5.247049584340281E-4    5.318363961170055E-2   -7.071218488425649E-4    9.466027920757503E-1   -4.462489685227937E-2
 2.549475640931404E7     9.465957143719873E-1   -4.647585962088822E-2    5.317708338804988E-2   -3.851183065107061E-4    5.314482665925725E-2   -5.675230205548825E-4    9.466049243770360E-1   -4.509370979064406E-2
 2.568927789892715E7     9.466301101060122E-1   -4.697674847143270E-2    5.314295653585466E-2   -2.422600034689110E-4    5.310874553292516E-2   -4.254132328064260E-4    9.466412567662553E-1   -4.558009518236805E-2
 2.588528356078789E7     9.465860595310329E-1   -4.756130628257741E-2    5.308509748216077E-2   -4.170656469899218E-5    5.301683429247361E-2   -3.505861660836126E-4    9.466762221788962E-1   -4.601652601461251E-2
 2.608278471892660E7     9.466327514834761E-1   -4.796360258901790E-2    5.307689135805628E-2    5.136671450063884E-5    5.304722976671382E-2   -1.300442547732926E-4    9.466651410701715E-1   -4.655102352851757E-2
 2.628179278377446E7     9.466611239784962E-1   -4.845068552596598E-2    5.305252538046334E-2    1.948828822978404E-4    5.302053581648658E-2    1.396355610983665E-5    9.466982035226090E-1   -4.705143685755812E-2
 2.648231925282269E7     9.466081369027493E-1   -4.925107935627730E-2    5.296095628402295E-2    4.473467206449347E-4    5.286996260958005E-2   -7.478313389205091E-5    9.467644724071670E-1   -4.742606420538981E-2
 2.668437571128672E7     9.466127143580916E-1   -4.975679498777174E-2    5.293462076488494E-2    5.867609594216189E-4    5.284410895497278E-2    6.698971317100038E-5    9.467784050130215E-1   -4.793037707192735E-2
 2.688797383277575E7     9.466286021462879E-1   -5.027482634693137E-2    5.290747145224005E-2    7.278938464282160E-4    5.281505152971767E-2    2.066575523570500E-4    9.467841792412243E-1   -4.843641968593682E-2
 2.709312537996687E7     9.466599300967640E-1   -5.066062764301962E-2    5.292009066116235E-2    8.138907091552180E-4    5.285562088796833E-2    5.076605836343921E-4    9.468050588089182E-1   -4.899236864350568E-2
 2.729984220528475E7     9.466895376258295E-1   -5.114888798423039E-2    5.289169648639975E-2    9.556160566600366E-4    5.282957845854899E-2    6.476200362003387E-4    9.467815276752134E-1   -4.953264716127445E-2
 2.750813625158667E7     9.467202083430223E-1   -5.166277086075766E-2    5.286327667462026E-2    1.097340383364941E-3    5.280261395691773E-2    7.901529350455937E-4    9.468278625887123E-1   -5.003021052355457E-2
 2.771801955285188E7     9.467613391898457E-1   -5.285774722427501E-2    5.270294763423872E-2    1.350801203244691E-3    5.272582586128931E-2    1.785210129908944E-4    9.468400827668162E-1   -5.047047537901316E-2
 2.792950423487763E7     9.466693021037288E-1   -5.301954111845086E-2    5.274334555754445E-2    1.458628638431773E-3    5.265465059099060E-2    7.744958699539355E-4    9.468550408093118E-1   -5.100938307257056E-2
 2.814260251597910E7     9.466851490911685E-1   -5.361000728120665E-2    5.271593249782407E-2    1.601676990588252E-3    5.262835174036265E-2    9.171366861032742E-4    9.468568812569357E-1   -5.154607963687715E-2
 2.835732670769557E7     9.467095279451960E-1   -5.413389333580089E-2    5.269247096959747E-2    1.743197148386043E-3    5.260588454169687E-2    1.061571816044604E-3    9.468897860893941E-1   -5.205139685034984E-2
 2.857368921550186E7     9.467503627648836E-1   -5.428421510297037E-2    5.275970083849448E-2    1.761441050755354E-3    5.272754689685950E-2    1.583565616614013E-3    9.468353652426114E-1   -5.270574931693361E-2
 2.879170253952448E7     9.467739068654232E-1   -5.486206849833949E-2    5.273594811286925E-2    1.910276169134973E-3    5.270100743646691E-2    1.726359768851556E-3    9.468162509041438E-1   -5.324862172752576E-2
 2.901137927526460E7     9.467840303848578E-1   -5.539073219306715E-2    5.271067818217073E-2    2.053250074853160E-3    5.267599905639959E-2    1.873094816208524E-3    9.468529288080302E-1   -5.378610539255711E-2
 2.923273211432508E7     9.468041467675337E-1   -5.597388233454770E-2    5.268340009604028E-2    2.199010453068620E-3    5.265126281602165E-2    2.019277769765666E-3    9.468318700081823E-1   -5.432920162792882E-2
 2.945577384514398E7     9.467860199567306E-1   -5.653963967025261E-2    5.266030892777573E-2    2.347523491651228E-3    5.262782224032247E-2    2.165782504695012E-3    9.468512343089110E-1   -5.487254577490717E-2
 2.968051735373363E7     9.468087305688049E-1   -5.710870856683782E-2    5.263619535751662E-2    2.495047860136655E-3    5.260284709752042E-2    2.312583690879362E-3    9.468328579354338E-1   -5.543590987994729E-2
 2.990697562442441E7     9.467263996211271E-1   -5.786692938171282E-2    5.256883964526400E-2    2.716749580987689E-3    5.249193117638133E-2    2.319080018366356E-3    9.468959430491828E-1   -5.591090812677728E-2
 3.013516174061584E7     9.467434054808067E-1   -5.833263488910695E-2    5.256353993297268E-2    2.844409461385765E-3    5.250128896791734E-2    2.539298677115119E-3    9.468896191879368E-1   -5.650110861621387E-2
 3.036508888553168E7     9.467279884643135E-1   -5.898525700993058E-2    5.252198470187676E-2    3.017401880769744E-3    5.244601898695348E-2    2.617916816438226E-3    9.468872727605876E-1   -5.703225221895501E-2
 3.059677034298190E7     9.467376932534975E-1   -5.957709965208535E-2    5.249878066937935E-2    3.165126904891529E-3    5.242608607981485E-2    2.768864300082620E-3    9.468964810724592E-1   -5.759831986817561E-2
 3.083021949813037E7     9.469288643602710E-1   -6.093419283982220E-2    5.233815768488459E-2    3.382893117488117E-3    5.258144636633283E-2    1.905524478952824E-3    9.468889916185320E-1   -5.810592270164885E-2
 3.106544983826748E7     9.469303521737319E-1   -6.150127521329301E-2    5.231797433896343E-2    3.534160435204965E-3    5.256523469635337E-2    2.051674842751421E-3    9.468888695289353E-1   -5.865890231150582E-2
 3.130247495359022E7     9.467978214580974E-1   -6.116058131691882E-2    5.248448514371958E-2    3.550230069719073E-3    5.244702758010373E-2    3.365979814813458E-3    9.468474981976048E-1   -5.937606764938343E-2
 3.154130853798668E7     9.467895057098593E-1   -6.174759466212458E-2    5.246308086959067E-2    3.700172873526330E-3    5.242759449708030E-2    3.518020407448594E-3    9.468324215136293E-1   -5.997920461928789E-2
 3.178196438982744E7     9.467900123161045E-1   -6.236583621330814E-2    5.244361870542173E-2    3.853921964943795E-3    5.240859994248136E-2    3.670352630217596E-3    9.468311411855028E-1   -6.057348883473929E-2
 3.202445641276293E7     9.467232403025124E-1   -6.306178621083602E-2    5.239458237284399E-2    4.055048868289849E-3    5.233479880582645E-2    3.745413737274895E-3    9.468529870066581E-1   -6.110694888785772E-2
 3.226879861652631E7     9.467753700365281E-1   -6.356441829514690E-2    5.240500071034219E-2    4.166942408222886E-3    5.237018943746109E-2    3.980007467319888E-3    9.468123923824480E-1   -6.176372719872424E-2
 3.251500511774320E7     9.467021207524385E-1   -6.491980108623381E-2    5.223108136712832E-2    4.447006254358035E-3    5.229390445831871E-2    3.280888661876475E-3    9.468661902657218E-1   -6.219913177087853E-2
 3.276309014074709E7     9.466868836719251E-1   -6.555830728111738E-2    5.221204577837726E-2    4.602686268206210E-3    5.227713975611181E-2    3.436372859077099E-3    9.468539984541410E-1   -6.279315095833152E-2
 3.301306801840112E7     9.466635338358159E-1   -6.618507509247527E-2    5.219290090186914E-2    4.753071500428665E-3    5.225960163753019E-2    3.587639789395221E-3    9.468385724047945E-1   -6.340333122452767E-2
 3.326495319292643E7     9.466610222005171E-1   -6.681046799082804E-2    5.217586108300324E-2    4.911342333476666E-3    5.224404684833352E-2    3.742627202813328E-3    9.468287270267840E-1   -6.403331896957092E-2
 3.351876021673609E7     9.467151741615291E-1   -6.671750256030401E-2    5.231254969387970E-2    4.941682662709727E-3    5.227617929333189E-2    4.757130828565452E-3    9.467430333830478E-1   -6.480630916177410E-2
 3.377450375327612E7     9.466897360697127E-1   -6.734484744717202E-2    5.229294678237885E-2    5.100045903410949E-3    5.225626973142709E-2    4.916973160113029E-3    9.467253523122181E-1   -6.541536995704056E-2
 3.403219857787284E7     9.465960980070006E-1   -6.813220840094801E-2    5.222220770864982E-2    5.325661724343241E-3    5.215580360755184E-2    4.924054207390602E-3    9.467752324732840E-1   -6.595779550588858E-2
 3.429185957858586E7     9.465610099900623E-1   -6.881990879393712E-2    5.220202820223513E-2    5.480841804793670E-3    5.213386393834181E-2    5.082262161448829E-3    9.467389733215568E-1   -6.658199377705247E-2
 3.455350175706909E7     9.465316600572751E-1   -6.942524239995826E-2    5.218070441723042E-2    5.640817485107817E-3    5.211107123179817E-2    5.243348388256622E-3    9.467090018117771E-1   -6.718844973873625E-2
 3.481714022943672E7     9.465100628838709E-1   -7.068146936659102E-2    5.205362177223470E-2    5.852301845739262E-3    5.213317122201364E-2    4.695293597540600E-3    9.467071041993232E-1   -6.778306737330220E-2
 3.508279022713681E7     9.464599277505835E-1   -7.136004851852915E-2    5.202558761628570E-2    6.019782544719469E-3    5.210807503745222E-2    4.860167979807187E-3    9.466725530283057E-1   -6.840535397983490E-2
 3.535046709783159E7     9.464285746387697E-1   -7.195820650156874E-2    5.200041669578982E-2    6.191984710156122E-3    5.208328629578553E-2    5.031994027992866E-3    9.466401557937805E-1   -6.904929209123550E-2
 3.562018630628331E7     9.463828406279273E-1   -7.261765802252058E-2    5.197322192082118E-2    6.376041077292394E-3    5.206104870490481E-2    5.216209147006235E-3    9.466225913849796E-1   -6.968155162812226E-2
 3.589196343524875E7     9.463339970166520E-1   -7.326073225416797E-2    5.195950763332583E-2    6.570605967510166E-3    5.204962613182586E-2    5.410781680906531E-3    9.465847845094880E-1   -7.030067849587125E-2
 3.616581418637872E7     9.463208820945999E-1   -7.389737114474668E-2    5.196508532588168E-2    6.764990725622373E-3    5.205964448756430E-2    5.600806196415604E-3    9.465753013141365E-1   -7.091916373062768E-2
 3.644175438112541E7     9.463339473268783E-1   -7.458142958058545E-2    5.198207051942819E-2    6.938949469920470E-3    5.207532469615935E-2    5.778984525265424E-3    9.465733967405656E-1   -7.158694123157720E-2
 3.671979996165685E7     9.462927331272694E-1   -7.489175952842718E-2    5.204064676943540E-2    7.096946096430640E-3    5.199265623467272E-2    6.412258598499613E-3    9.465635044665908E-1   -7.228259234931016E-2
 3.699996699177712E7     9.462634338175108E-1   -7.557357943479466E-2    5.204562578598471E-2    7.258937179788478E-3    5.199554056311585E-2    6.578291706163853E-3    9.465458430402621E-1   -7.296212895977906E-2
 3.728227165785540E7     9.462397264204744E-1   -7.628410719053660E-2    5.204416799100055E-2    7.425612212165803E-3    5.199721458476748E-2    6.741766318163890E-3    9.465248636453342E-1   -7.364674532024587E-2
 3.756673026976037E7     9.462161364286050E-1   -7.700294691989798E-2    5.203971370560941E-2    7.588893486362418E-3    5.199534255200875E-2    6.905539199296257E-3    9.465013698284513E-1   -7.432156555693381E-2
 3.785335926180276E7     9.463408519261227E-1   -7.730254604794985E-2    5.213440670740624E-2    7.665549954161180E-3    5.209887662751189E-2    7.486909118215515E-3    9.463974857032935E-1   -7.512472837062255E-2
 3.814217519368506E7     9.463354559645937E-1   -7.803432267679868E-2    5.212993141888682E-2    7.834610851160639E-3    5.209564679379675E-2    7.654848748715097E-3    9.463705759696587E-1   -7.582888844494542E-2
 3.843319475145779E7     9.462858435870679E-1   -7.872374144828470E-2    5.212761406321972E-2    8.007705654396974E-3    5.209240269714478E-2    7.828197513647684E-3    9.463359489902966E-1   -7.651522921721475E-2
 3.872643474848381E7     9.462656700701674E-1   -7.944190531329294E-2    5.212364455542835E-2    8.179740080371409E-3    5.209140569018827E-2    8.001484088443441E-3    9.463100812798908E-1   -7.721600930319591E-2
 3.902191212640966E7     9.462289694095869E-1   -8.016029481293996E-2    5.212089061499638E-2    8.355542628938905E-3    5.208856022191750E-2    8.173020290156282E-3    9.462829335920984E-1   -7.791436325820698E-2
 3.931964395614420E7     9.462118939722112E-1   -8.088500443582478E-2    5.211852655899249E-2    8.531330990907648E-3    5.208799991343623E-2    8.348703690316610E-3    9.462613944615479E-1   -7.859643355463328E-2
 3.961964743884522E7     9.461041194398283E-1   -8.171599407613332E-2    5.208512418247732E-2    8.748141177167582E-3    5.203677754365013E-2    8.436899679632695E-3    9.462654261268708E-1   -7.926285632743689E-2
 3.992193990691278E7     9.460671333846867E-1   -8.246798152858863E-2    5.208177918011411E-2    8.923139316248743E-3    5.203705633130612E-2    8.611066398050151E-3    9.462243742639016E-1   -7.998957141206230E-2
 4.022653882499073E7     9.459269433150135E-1   -8.352650660246480E-2    5.201626513848735E-2    9.143095061669358E-3    5.198514833444808E-2    8.459332052032326E-3    9.462280064653138E-1   -8.062954878413046E-2
 4.053346179097611E7     9.458713605457880E-1   -8.427386661880830E-2    5.201638400266946E-2    9.320999982976107E-3    5.198995919714533E-2    8.633111882793778E-3    9.461858754491091E-1   -8.139298159276367E-2
 4.084272653703488E7     9.458357834525833E-1   -8.500440230317845E-2    5.201505985054632E-2    9.501020128746155E-3    5.198935225832366E-2    8.812812484118360E-3    9.461343555677046E-1   -8.211877542009535E-2
 4.115435093062763E7     9.457563029927506E-1   -8.598467860349389E-2    5.198742423236424E-2    9.684379633648574E-3    5.203148269806749E-2    8.734153452178756E-3    9.461102730452349E-1   -8.283996692088695E-2
 4.146835297554084E7     9.457034721988387E-1   -8.677442606075576E-2    5.198578817374811E-2    9.864217443700802E-3    5.203520374776641E-2    8.913859167775675E-3    9.460572497561723E-1   -8.358231470033788E-2
 4.178475081292742E7     9.457901058391058E-1   -8.799563055792164E-2    5.196708878461130E-2    1.004014950468997E-2    5.233826961398562E-2    8.569766827504653E-3    9.460196416853704E-1   -8.430094306794229E-2
 4.210356272235513E7     9.457446279037612E-1   -8.875346606434492E-2    5.196719798228005E-2    1.022219986923162E-2    5.234316652938439E-2    8.750638738936497E-3    9.459597382715221E-1   -8.504846001182058E-2
 4.242480712286174E7     9.456894740225613E-1   -8.953499701048834E-2    5.197334007881334E-2    1.040771907543545E-2    5.235286515724646E-2    8.930787976208405E-3    9.459149582949342E-1   -8.582739410143136E-2
 4.274850257402029E7     9.456399064294387E-1   -9.034256748574673E-2    5.197760023596847E-2    1.059160692012459E-2    5.235992496681553E-2    9.115762704807266E-3    9.458653813962445E-1   -8.659086387903075E-2
 4.307466777701053E7     9.456481656542620E-1   -9.004124672340594E-2    5.212692301935409E-2    1.070591402386068E-2    5.210078785336599E-2    1.050990017541810E-2    9.457215584084989E-1   -8.750428368929287E-2
 4.340332157569963E7     9.455102025672044E-1   -9.192292844549826E-2    5.198737145532044E-2    1.096320062994612E-2    5.237875112157610E-2    9.491137122976752E-3    9.457562900589567E-1   -8.810977485540424E-2
 4.373448295773120E7     9.454381514817706E-1   -9.270947790036758E-2    5.199226490593218E-2    1.115329119884309E-2    5.238932344376803E-2    9.676177071566434E-3    9.457122941195033E-1   -8.889621159172498E-2
 4.406817105562137E7     9.452614490414160E-1   -9.305715242796966E-2    5.201583930009637E-2    1.135076384288830E-2    5.208472864825868E-2    1.038774057215056E-2    9.456561207589558E-1   -8.969200162269618E-2
 4.440440514786536E7     9.451875681690585E-1   -9.388310503812659E-2    5.202280176405717E-2    1.154144219531860E-2    5.209499867673160E-2    1.057694828040441E-2    9.455962411445780E-1   -9.048622151947250E-2
 4.474320466005030E7     9.451332588115194E-1   -9.469770826900877E-2    5.203000416218541E-2    1.173272130811956E-2    5.210573785459108E-2    1.076814955321528E-2    9.455315954793511E-1   -9.129372857089023E-2
 4.508458916597787E7     9.451187719495979E-1   -9.518011286286497E-2    5.208404791935588E-2    1.190886807004813E-2    5.206435482177291E-2    1.137033883393171E-2    9.454642177780813E-1   -9.212942872267756E-2
 4.542857838879555E7     9.450614813000066E-1   -9.599881034821879E-2    5.209355196953358E-2    1.210344037208468E-2    5.207335539027643E-2    1.156404814851577E-2    9.453947433002301E-1   -9.292869882472087E-2
 4.577519220213508E7     9.449852921887381E-1   -9.684061776926985E-2    5.210530824846833E-2    1.229776022807147E-2    5.208640887107495E-2    1.175627194705757E-2    9.453332853725716E-1   -9.373024798571526E-2
 4.612445063126191E7     9.449371604612007E-1   -9.767883122017307E-2    5.211481047731284E-2    1.249425417286427E-2    5.210017039219755E-2    1.195250579350309E-2    9.452619441177393E-1   -9.456825358555394E-2
 4.647637385423118E7     9.448462334758332E-1   -9.850835887059013E-2    5.212553325448711E-2    1.269255610562594E-2    5.210917862266541E-2    1.214934839355077E-2    9.452006139004465E-1   -9.538410787759120E-2
 4.683098220305377E7     9.447638653401396E-1   -9.935982359964930E-2    5.213546582478361E-2    1.288950029658124E-2    5.212217337895995E-2    1.234656358023145E-2    9.451198724140957E-1   -9.623229363388879E-2
 4.718829616487134E7     9.446756794748006E-1   -1.002118436953267E-1    5.214618498974021E-2    1.308921370654088E-2    5.213509614670236E-2    1.254299572787382E-2    9.450486964645410E-1   -9.708829876196026E-2
 4.754833638313931E7     9.445192565809887E-1   -1.014592322762952E-1    5.211317139780940E-2    1.330401690286050E-2    5.221060653076644E-2    1.233229616778431E-2    9.450049238092497E-1   -9.786441490990778E-2
 4.791112365881994E7     9.444272446169105E-1   -1.023108213751928E-1    5.212222480086703E-2    1.350720813235681E-2    5.222761007485923E-2    1.253448326641757E-2    9.449075439385551E-1   -9.870395725317824E-2
 4.827667895158397E7     9.443333012403196E-1   -1.031957240725571E-1    5.213739678746110E-2    1.371498669944900E-2    5.224583642507950E-2    1.274024754125945E-2    9.448204035768680E-1   -9.955091182916266E-2
 4.864502338102144E7     9.442587469904614E-1   -1.040686530968906E-1    5.215335091389230E-2    1.392348997046891E-2    5.226506902026946E-2    1.294416133141460E-2    9.447522288204415E-1   -1.004126865954327E-1
 4.901617822786229E7     9.441543806535181E-1   -1.049402185289663E-1    5.217166601429429E-2    1.413647195415625E-2    5.228676059758196E-2    1.315145719301815E-2    9.446691299813690E-1   -1.012512298489689E-1
 4.939016493520518E7     9.440758304530403E-1   -1.058304372947056E-1    5.219258943327543E-2    1.434270775870264E-2    5.230968062947289E-2    1.335668141401085E-2    9.445871193812064E-1   -1.021292105867644E-1
 4.976700510975666E7     9.439846644004521E-1   -1.067280448270514E-1    5.221205174115817E-2    1.455179958570436E-2    5.233234894378333E-2    1.356449439469443E-2    9.445047844871007E-1   -1.030224245668706E-1
 5.014672052307993E7     9.438911538290450E-1   -1.076487821115913E-1    5.223349034492378E-2    1.476220105769912E-2    5.235881172541033E-2    1.377705461169285E-2    9.444240433663537E-1   -1.039008512039482E-1
 5.052933311285146E7     9.437992559597066E-1   -1.085400740634079E-1    5.225647867256644E-2    1.497506451974526E-2    5.238574964710649E-2    1.398540480582902E-2    9.443338638486481E-1   -1.047987787625662E-1
 5.091486498412994E7     9.436952910650949E-1   -1.094540521513314E-1    5.228087198526817E-2    1.518982067232449E-2    5.241470225010855E-2    1.419746579249691E-2    9.442373227581939E-1   -1.056633892546652E-1
 5.130333841063219E7     9.435990657274299E-1   -1.104024718007040E-1    5.230925329829277E-2    1.540251087658038E-2    5.244657244050741E-2    1.440875963500848E-2    9.441398879974953E-1   -1.065738573127418E-1
 5.169477583602042E7     9.435072949632158E-1   -1.113125984294703E-1    5.233496947329856E-2    1.561846790231960E-2    5.247920696303916E-2    1.462277531297158E-2    9.440550469397833E-1   -1.074947301961265E-1
 5.208919987519933E7     9.434294903629871E-1   -1.122678662193318E-1    5.236281193462586E-2    1.583321254313659E-2    5.251350871047596E-2    1.483204345024819E-2    9.439650142804477E-1   -1.083901208840206E-1
 5.248663331562151E7     9.433023988873779E-1   -1.132310758408747E-1    5.238902906753123E-2    1.604918847877615E-2    5.254567012164361E-2    1.504289511424927E-2    9.438598851997468E-1   -1.093103471183280E-1
 5.288709911860541E7     9.432056068083406E-1   -1.141791532724131E-1    5.241907317777415E-2    1.626717736959207E-2    5.257530393350890E-2    1.525715372232214E-2    9.437596890128824E-1   -1.102359780302487E-1
 5.329062042066076E7     9.430936826397286E-1   -1.151228563429720E-1    5.244932116649043E-2    1.648505422889881E-2    5.260970348145814E-2    1.547590888212618E-2    9.436682841196319E-1   -1.111585113922482E-1
 5.369722053482568E7     9.429835348964500E-1   -1.160898736177861E-1    5.247799122758372E-2    1.670116922772135E-2    5.264592793964373E-2    1.569256377366605E-2    9.435465283271054E-1   -1.120939912363787E-1
 5.410692295201402E7     9.428577040966351E-1   -1.170531517323013E-1    5.250695588536314E-2    1.692324243801176E-2    5.267905801088345E-2    1.591025342230890E-2    9.434471120477804E-1   -1.130371691986647E-1
 5.451975134237129E7     9.427555953637314E-1   -1.180436899221933E-1    5.253856862659338E-2    1.714579516412566E-2    5.271533456184430E-2    1.612922767503545E-2    9.433328912134307E-1   -1.139874891848237E-1
 5.493572955664375E7     9.426135923659530E-1   -1.190307640985667E-1    5.256923104451187E-2    1.736634930216882E-2    5.275288345305731E-2    1.634856999940710E-2    9.432226682833128E-1   -1.149546076039345E-1
 5.535488162755510E7     9.425121698502186E-1   -1.200255907490534E-1    5.260294169250358E-2    1.759368462491117E-2    5.279104126541902E-2    1.657059957079012E-2    9.431132509987772E-1   -1.159142655500570E-1
 5.577723177119546E7     9.423724776023921E-1   -1.209938192934988E-1    5.263513580502164E-2    1.782053855596465E-2    5.283140883437446E-2    1.679323852674203E-2    9.429850777559589E-1   -1.168920083039175E-1
 5.620280438842070E7     9.422403507573406E-1   -1.220264185305984E-1    5.267309127088523E-2    1.804751478090119E-2    5.287311924154351E-2    1.701820527892479E-2    9.428576595875297E-1   -1.178790574009121E-1
 5.663162406626155E7     9.421218126763017E-1   -1.230403789474980E-1    5.270855351009794E-2    1.827650161070274E-2    5.291389365778932E-2    1.724523514369763E-2    9.427478820509891E-1   -1.189053797074590E-1
 5.706371557934452E7     9.419735859487612E-1   -1.240655706044238E-1    5.274535740838501E-2    1.850774899302537E-2    5.295829562464364E-2    1.747049453922827E-2    9.426277728683403E-1   -1.198898562286901E-1
 5.749910389132310E7     9.418535679770320E-1   -1.251005202655603E-1    5.278620070730718E-2    1.873980199777624E-2    5.300161112044716E-2    1.769747494836275E-2    9.424895300299958E-1   -1.208862976991396E-1
 5.793781415631992E7     9.417257915078747E-1   -1.261444890126995E-1    5.282242585670490E-2    1.897259979391029E-2    5.304558809501311E-2    1.792879462861569E-2    9.423628619939906E-1   -1.218840045422152E-1
 5.837987172038046E7     9.418990800247500E-1   -1.264153901223218E-1    5.299709168152449E-2    1.911114588110141E-2    5.302621492001273E-2    1.889567477816064E-2    9.421427109446866E-1   -1.230504432860885E-1
 5.882530212293670E7     9.417505269204848E-1   -1.274940988200319E-1    5.304132477932098E-2    1.933923125323584E-2    5.307037964898950E-2    1.913039751947292E-2    9.419866356772851E-1   -1.240793609571227E-1
 5.927413109828297E7     9.416024052742517E-1   -1.285373377195712E-1    5.308471258002467E-2    1.957849423991001E-2    5.311890332487006E-2    1.936428643663198E-2    9.418504756364966E-1   -1.250977261487588E-1
 5.972638457706322E7     9.414431532797216E-1   -1.295711230026392E-1    5.312765122754039E-2    1.981686474861137E-2    5.316464198939334E-2    1.960324332724447E-2    9.417166889471054E-1   -1.261368188834917E-1
 6.018208868776779E7     9.413079278521259E-1   -1.306321909413730E-1    5.317585838456960E-2    2.005526158071253E-2    5.321392805557846E-2    1.984518671977067E-2    9.415768860048496E-1   -1.271707703864166E-1
 6.064126975824468E7     9.411455438792272E-1   -1.316990341004933E-1    5.322268475694344E-2    2.029971606755891E-2    5.326589024746876E-2    2.008304596927115E-2    9.414332137205647E-1   -1.282225192023059E-1
 6.110395431721926E7     9.410089023150756E-1   -1.327884446623644E-1    5.327579392178761E-2    2.053980796229322E-2    5.331754864791447E-2    2.032605451409971E-2    9.412820397489593E-1   -1.292698824594430E-1
 6.157016909582742E7     9.408306443562860E-1   -1.338828947357243E-1    5.332398691785242E-2    2.078202400020931E-2    5.337082679333321E-2    2.056683897433573E-2    9.411280410380384E-1   -1.303692045044906E-1
 6.203994102916045E7     9.406727487334093E-1   -1.349666258368635E-1    5.337608950289310E-2    2.102514089576154E-2    5.342390939584161E-2    2.081032163414528E-2    9.409665418411683E-1   -1.314298167737607E-1
 6.251329725781982E7     9.404888712598416E-1   -1.360673519247400E-1    5.342822248958303E-2    2.126997192084169E-2    5.347779696972103E-2    2.105641386071063E-2    9.407982687003793E-1   -1.325017230737464E-1
 6.299026512948693E7     9.403054728274225E-1   -1.371740701030155E-1    5.348005527721755E-2    2.151631538498200E-2    5.353637791967334E-2    2.130320559525782E-2    9.406506547908173E-1   -1.336009822998925E-1
 6.347087220050172E7     9.401373287648712E-1   -1.383044718484822E-1    5.353483812479823E-2    2.176131279324328E-2    5.359342249471397E-2    2.154990662109699E-2    9.404933009839552E-1   -1.346815072820234E-1
 6.395514623745525E7     9.399867045907000E-1   -1.394343139442588E-1    5.359357495388804E-2    2.201374395157991E-2    5.365036495442595E-2    2.179614385940137E-2    9.403239080397693E-1   -1.357875389543829E-1
 6.444311521879433E7     9.398173191344447E-1   -1.405791698423316E-1    5.364892138684595E-2    2.226590677246619E-2    5.370752039479079E-2    2.204798114018445E-2    9.401544214425395E-1   -1.369403945206781E-1
 6.493480733643661E7     9.396244678712310E-1   -1.417373555311186E-1    5.370500074805844E-2    2.251667733851528E-2    5.376526241234029E-2    2.229885186451108E-2    9.399601114549696E-1   -1.380369568720355E-1
 6.543025099740107E7     9.394195227219997E-1   -1.428738026797770E-1    5.376127562732943E-2    2.276859855783885E-2    5.382278220014519E-2    2.255213852332675E-2    9.397832888382290E-1   -1.391738840142651E-1
 6.592947482544785E7     9.389913468933792E-1   -1.454337715879823E-1    5.358328976943107E-2    2.323313378987488E-2    5.440392140365886E-2    2.158668418622112E-2    9.397006424702697E-1   -1.401368457680929E-1
 6.643250766273243E7     9.388191788320981E-1   -1.466461707737984E-1    5.364545141932111E-2    2.349533375473708E-2    5.448692778099307E-2    2.182999344068709E-2    9.395246500377883E-1   -1.412876024009706E-1
 6.693937857147253E7     9.386561779941847E-1   -1.478231811267842E-1    5.370436422933748E-2    2.375837731956736E-2    5.455786508144480E-2    2.208940840883621E-2    9.393509837791322E-1   -1.423772075586438E-1
 6.745011683562562E7     9.384526167962712E-1   -1.490555713395611E-1    5.375650278013071E-2    2.403043733217865E-2    5.462939782475459E-2    2.235128140234329E-2    9.391513822762246E-1   -1.435517451947097E-1
 6.796475196258274E7     9.382754635367637E-1   -1.501861820085958E-1    5.381988982103662E-2    2.430972129215423E-2    5.470557297958523E-2    2.263152895711197E-2    9.389789114099268E-1   -1.447028008063666E-1
 6.848331368487169E7     9.380763974760502E-1   -1.513262922013434E-1    5.388987397314134E-2    2.459095393390561E-2    5.478807195964323E-2    2.291633789933958E-2    9.387975697076140E-1   -1.458281216220820E-1
 6.900583196187538E7     9.377185153483031E-1   -1.518439746771145E-1    5.403942584498912E-2    2.481939530186884E-2    5.440807144063182E-2    2.369213944999241E-2    9.386063087277052E-1   -1.469849911106985E-1
 6.953233698156311E7     9.375057783017779E-1   -1.530316573892175E-1    5.411448449050372E-2    2.509721333712973E-2    5.449635494735112E-2    2.394668923978514E-2    9.383547580011128E-1   -1.483068870006722E-1
 7.006285916223384E7     9.372797591283026E-1   -1.543105774591520E-1    5.418556591649383E-2    2.538579347121831E-2    5.459011331397734E-2    2.419442704367470E-2    9.381316285221509E-1   -1.495760027772146E-1
 7.059742915427396E7     9.370104087134695E-1   -1.557043200779017E-1    5.426303912133949E-2    2.565890997689538E-2    5.467824204835241E-2    2.445631356156043E-2    9.379272524668258E-1   -1.507173939522658E-1
 7.113607784192866E7     9.367979805581174E-1   -1.569305036070557E-1    5.434622781033305E-2    2.592358229566704E-2    5.476726430553311E-2    2.473011466337196E-2    9.377301634430435E-1   -1.519501284010858E-1
 7.167883634508467E7     9.366044983728524E-1   -1.581284543872024E-1    5.442855417071386E-2    2.619396636416905E-2    5.485379952479399E-2    2.500959225531970E-2    9.375231001961735E-1   -1.531399156065328E-1
 7.222573602107021E7     9.364029750359464E-1   -1.593768768960677E-1    5.450783816652586E-2    2.647168193396385E-2    5.494059480693398E-2    2.529467300852352E-2    9.373089698743479E-1   -1.543478891741512E-1
 7.277680846646504E7     9.361512346739541E-1   -1.605786868597762E-1    5.458792176203776E-2    2.675391083059550E-2    5.502522339171857E-2    2.558160985628974E-2    9.370954343344304E-1   -1.556041791543952E-1
 7.333208551892644E7     9.359383447908628E-1   -1.618126630420107E-1    5.466829234545814E-2    2.705292113149799E-2    5.512038568740077E-2    2.585759196863440E-2    9.368026078029871E-1   -1.569950127663318E-1
 7.389159925902925E7     9.356798004390040E-1   -1.631972001011442E-1    5.474946349179508E-2    2.735470089543233E-2    5.522542456227474E-2    2.611791601856247E-2    9.365692726782529E-1   -1.582937336404230E-1
 7.445538201211768E7     9.354019169484726E-1   -1.646367046714703E-1    5.483991719208321E-2    2.764229346075248E-2    5.532654663097750E-2    2.639698187195458E-2    9.363366322097796E-1   -1.594991501904567E-1
 7.502346635017487E7     9.351546007347903E-1   -1.659461633572859E-1    5.493866910722871E-2    2.791670608333461E-2    5.542266882930274E-2    2.668862839624023E-2    9.361013955235361E-1   -1.607418473900175E-1
 7.559588509370317E7     9.349244026925189E-1   -1.672012390432543E-1    5.503373176358581E-2    2.819916915771770E-2    5.552682638349014E-2    2.698074671239677E-2    9.358709599357053E-1   -1.620219168958390E-1
 7.617267131362079E7     9.347059047662628E-1   -1.684843755779826E-1    5.513035249111559E-2    2.848309118009437E-2    5.562238903834847E-2    2.727271240319067E-2    9.356362956485439E-1   -1.633038235827299E-1
 7.675385833317320E7     9.344271213109490E-1   -1.697431016569641E-1    5.521917435148557E-2    2.877539953407706E-2    5.571975864826227E-2    2.756742534071639E-2    9.353544041459364E-1   -1.646201133972525E-1
 7.733947972985649E7     9.341752933525753E-1   -1.710821724204752E-1    5.530496040967509E-2    2.908546902361425E-2    5.582856604022049E-2    2.784384402411685E-2    9.350723067611857E-1   -1.660573831755806E-1
 7.792956933735959E7     9.338615577410702E-1   -1.725379396645079E-1    5.539224164130225E-2    2.939713344625947E-2    5.594382142005011E-2    2.812164286910487E-2    9.347896671255649E-1   -1.673934683610814E-1
 7.852416124751715E7     9.335456574847512E-1   -1.740068110765390E-1    5.549108310145847E-2    2.969369128240260E-2    5.605256424658948E-2    2.841513769935615E-2    9.345288547293655E-1   -1.687000420873036E-1
 7.912328981227988E7     9.332769142472456E-1   -1.753292784581745E-1    5.559140068486821E-2    2.999492398612962E-2    5.615593523266875E-2    2.872359158404272E-2    9.342396481392472E-1   -1.700284847084544E-1
 7.972698964569975E7     9.330085326210736E-1   -1.766604775801233E-1    5.569153091113430E-2    3.029899935505105E-2    5.626206770495592E-2    2.903226649182216E-2    9.339558461642641E-1   -1.713922027915354E-1
 8.033529562592810E7     9.327297010352706E-1   -1.780283365843927E-1    5.579115528906128E-2    3.061408149444632E-2    5.637938599689328E-2    2.933689424075108E-2    9.336619373298054E-1   -1.727694268082866E-1
 8.094824289723292E7     9.324223977974320E-1   -1.794384967373078E-1    5.590023377123560E-2    3.092829725742893E-2    5.650104301286726E-2    2.964375482081814E-2    9.333721987715330E-1   -1.741396556381733E-1
 8.156586687202743E7     9.321098927923280E-1   -1.808595301765693E-1    5.600697206886368E-2    3.124558368412675E-2    5.662090048624555E-2    2.995364282286323E-2    9.330849144074438E-1   -1.755207548566579E-1
 8.218820323291673E7     9.317937186125973E-1   -1.823187374041543E-1    5.611976985553736E-2    3.155920716425337E-2    5.674045404116464E-2    3.027158028716035E-2    9.327896568681688E-1   -1.769109831091153E-1
 8.281528793475981E7     9.314764454675576E-1   -1.836993187355865E-1    5.623747570799362E-2    3.188249967382729E-2    5.686107130463525E-2    3.059560524068833E-2    9.324803941256031E-1   -1.783005367365984E-1
 8.344715720674579E7     9.311979808246837E-1   -1.851414552173992E-1    5.635697884958899E-2    3.220825492188334E-2    5.699490387375092E-2    3.091886628393069E-2    9.321786450527482E-1   -1.797222644627604E-1
 8.408384755448765E7     9.309006989306201E-1   -1.865887041909852E-1    5.648050346375479E-2    3.253652609387604E-2    5.712597969995301E-2    3.124404489817786E-2    9.318902067890383E-1   -1.811623205488459E-1
 8.472539576213124E7     9.305788766489641E-1   -1.880389355141324E-1    5.659931394367262E-2    3.286641377868020E-2    5.725341720661817E-2    3.156959342417849E-2    9.315513529244204E-1   -1.825870442301009E-1
 8.537183889448020E7     9.301969294010611E-1   -1.894714783704848E-1    5.671950576737914E-2    3.321031133742421E-2    5.738623740875141E-2    3.191088664409533E-2    9.312274184765559E-1   -1.840179893577480E-1
 8.602321429913802E7     9.298540096425814E-1   -1.909244791220421E-1    5.685951936117940E-2    3.355921167794115E-2    5.754020924033832E-2    3.225526091012544E-2    9.309360584006209E-1   -1.854808500035846E-1
 8.667955960866481E7     9.295321988076746E-1   -1.924039242134458E-1    5.700647780972723E-2    3.390128727522585E-2    5.769524161202545E-2    3.259136548993456E-2    9.306281628581137E-1   -1.869413922830342E-1
 8.734091274275188E7     9.292125496340750E-1   -1.939053560240693E-1    5.714847770643522E-2    3.424303891943681E-2    5.784772724977577E-2    3.293201612616920E-2    9.302862389553377E-1   -1.884027426046150E-1
 8.800731191041334E7     9.288796193039232E-1   -1.954042288885008E-1    5.729694606973686E-2    3.459289459781904E-2    5.800558731677288E-2    3.327883628865626E-2    9.299601007433281E-1   -1.898807607043393E-1
 8.867879561219153E7     9.285506972112711E-1   -1.968977886027266E-1    5.745495070100717E-2    3.494730289851318E-2    5.817412104499295E-2    3.363105203444616E-2    9.296506304659710E-1   -1.913750507508104E-1
 8.935540264238395E7     9.282311157872359E-1   -1.984386910175636E-1    5.763060810382900E-2    3.529820882339878E-2    5.835404943389505E-2    3.397694185074544E-2    9.292922231483494E-1   -1.928642253594641E-1
 9.003717209128250E7     9.278623907363680E-1   -1.999390298815930E-1    5.778570929932807E-2    3.563729757791734E-2    5.851684742302598E-2    3.431895089082191E-2    9.289770606528845E-1   -1.943694209211345E-1
 9.072414334743266E7     9.275304386367416E-1   -2.015005032885141E-1    5.796371335399687E-2    3.597755982614306E-2    5.870297907353529E-2    3.465524119138028E-2    9.286517263263310E-1   -1.959138013821466E-1
 9.141635609990983E7     9.271654250184003E-1   -2.030895331782868E-1    5.813561927544371E-2    3.631646357815816E-2    5.888682651224535E-2    3.499255766730520E-2    9.283060802229403E-1   -1.974650330235957E-1
 9.211385034061028E7     9.267939452037139E-1   -2.046553088717032E-1    5.831351820704370E-2    3.666359714419967E-2    5.907390521721755E-2    3.533405626169663E-2    9.279071773785963E-1   -1.990206205727907E-1
 9.281666636656430E7     9.264179852076107E-1   -2.062388458396603E-1    5.849939493508748E-2    3.700854170780053E-2    5.926853563280043E-2    3.567869036614012E-2    9.275879916678355E-1   -2.006068141602438E-1
 9.352484478226222E7     9.260470061128410E-1   -2.078541492784625E-1    5.868809256346074E-2    3.734826930495803E-2    5.946004025835227E-2    3.601527169327175E-2    9.272025366949118E-1   -2.021850716431650E-1
 9.423842650200106E7     9.256683434619082E-1   -2.094826329980744E-1    5.887451927571110E-2    3.768515717752451E-2    5.965644430163512E-2    3.635132196362682E-2    9.268217698603556E-1   -2.037791527842300E-1
 9.495745275224906E7     9.252541753629538E-1   -2.111137564756321E-1    5.905983986367785E-2    3.801764213305855E-2    5.985287447368942E-2    3.668476124676785E-2    9.264424758337425E-1   -2.054186366383785E-1
 9.568196507402541E7     9.248161464305731E-1   -2.127601719411630E-1    5.924582978279448E-2    3.835751233533490E-2    6.004558590232944E-2    3.701802799925985E-2    9.260372506849026E-1   -2.070349686132381E-1
 9.641200532530291E7     9.243819670699170E-1   -2.144266426811755E-1    5.943194769024988E-2    3.870093317777466E-2    6.023603792028080E-2    3.735774331630348E-2    9.256276359300724E-1   -2.086724479204860E-1
 9.714761568342420E7     9.239558090803970E-1   -2.160805947746345E-1    5.961657989283615E-2    3.904845817455563E-2    6.042360373116849E-2    3.770572989689970E-2    9.251552068748756E-1   -2.102962590748941E-1
 9.788883864753923E7     9.234789988677566E-1   -2.177604296690709E-1    5.980780286705704E-2    3.940007439800440E-2    6.061889890773108E-2    3.805676309165897E-2    9.247153281097326E-1   -2.119405014840510E-1
 9.863571704106140E7     9.230213483041000E-1   -2.194605039455538E-1    5.999975067571845E-2    3.975473634120377E-2    6.081709167291851E-2    3.840749781216196E-2    9.242792500878899E-1   -2.136080879681597E-1
 9.938829401413949E7     9.225469336223280E-1   -2.211572121132572E-1    6.018987196485431E-2    4.011175300410847E-2    6.101392998336057E-2    3.876446615635029E-2    9.238349811928399E-1   -2.152852576872385E-1
 1.001466130461536E8     9.220781905413207E-1   -2.228936256745518E-1    6.038861006016442E-2    4.048389563324475E-2    6.121457264495958E-2    3.913611429287572E-2    9.233593973951750E-1   -2.169558704406050E-1
 1.009107179482240E8     9.215744692174780E-1   -2.245869459632783E-1    6.059427605367790E-2    4.086039599431937E-2    6.142968365061115E-2    3.951332808476294E-2    9.228931794141643E-1   -2.186354969703544E-1
 1.016806528657447E8     9.210298073492664E-1   -2.263026572776785E-1    6.081537879955023E-2    4.123799501109978E-2    6.165475181171516E-2    3.988802416375714E-2    9.224330226876394E-1   -2.203223408370755E-1
 1.024564622809335E8     9.205170956740374E-1   -2.280443173858682E-1    6.104223914709331E-2    4.161319839218665E-2    6.188729497421290E-2    4.026166493444260E-2    9.219826921576938E-1   -2.220460634220629E-1
 1.032381910153997E8     9.200042742553248E-1   -2.297805918962355E-1    6.127912012998940E-2    4.198879331326989E-2    6.212823509018358E-2    4.063460139236181E-2    9.214933649653531E-1   -2.237560269831190E-1
 1.040258842327368E8     9.194551341960703E-1   -2.315492623529432E-1    6.152672432512050E-2    4.235244103687924E-2    6.237234416694492E-2    4.099305199027466E-2    9.209836157249508E-1   -2.254845705998683E-1
 1.048195874411304E8     9.189160779750233E-1   -2.333232359198884E-1    6.176311878149952E-2    4.270913770106911E-2    6.261652685421155E-2    4.135104470720296E-2    9.204987429475210E-1   -2.272183136520277E-1
 1.056193464959857E8     9.183399321882104E-1   -2.350808160250642E-1    6.199791282180734E-2    4.306561874641143E-2    6.285310867822372E-2    4.170977496411966E-2    9.200146563252853E-1   -2.289877487001009E-1
 1.064252076025801E8     9.177872913990189E-1   -2.368615319890267E-1    6.222546689466320E-2    4.343229987789472E-2    6.308508280897862E-2    4.207084950962941E-2    9.195343907343826E-1   -2.307708271247400E-1
 1.072372173187304E8     9.172067578172726E-1   -2.386524279774019E-1    6.245884315539450E-2    4.380899119189757E-2    6.332081233760725E-2    4.245414388923936E-2    9.190238915142593E-1   -2.325773512154429E-1
 1.080554225574824E8     9.166029421328828E-1   -2.404831707046356E-1    6.270382173707525E-2    4.418734896057858E-2    6.356509591279941E-2    4.283352884403473E-2    9.185101187372788E-1   -2.343804477818210E-1
 1.088798705898232E8     9.160262966823611E-1   -2.422717666237545E-1    6.295210979872813E-2    4.457580885047020E-2    6.381379186359769E-2    4.321975569683614E-2    9.179634933920268E-1   -2.362114504261197E-1
 1.097106090474096E8     9.154410239240596E-1   -2.440680229709250E-1    6.321462878162494E-2    4.496457170071981E-2    6.407296534885781E-2    4.361207345941102E-2    9.174078306430546E-1   -2.380554757326767E-1
 1.105476859253232E8     9.148537183075082E-1   -2.458978335361410E-1    6.348927355870536E-2    4.534017056470261E-2    6.435132358266148E-2    4.399168371870474E-2    9.168746212413644E-1   -2.399068093007454E-1
 1.113911495848395E8     9.142820529475786E-1   -2.477601011879439E-1    6.375362409465082E-2    4.571320126275823E-2    6.461799698847820E-2    4.436595988816838E-2    9.163062082883038E-1   -2.417999693901263E-1
 1.122410487562254E8     9.137286066150485E-1   -2.496606247203106E-1    6.401533588804768E-2    4.610062254445620E-2    6.488015028576417E-2    4.474583864193173E-2    9.157215409829271E-1   -2.437020120646838E-1
 1.130974325415529E8     9.131388464762084E-1   -2.516063275370747E-1    6.428541411991963E-2    4.649233063093941E-2    6.514951457635873E-2    4.513884143356325E-2    9.151297144741398E-1   -2.456117893232197E-1
 1.139603504175348E8     9.125276174142664E-1   -2.535594472147571E-1    6.456718900556251E-2    4.688190466203749E-2    6.543379514501070E-2    4.552771743744479E-2    9.145431734776689E-1   -2.475223917092904E-1
 1.148298522383858E8     9.118983231891674E-1   -2.555109241443426E-1    6.484323283158686E-2    4.727161729039404E-2    6.570895604335042E-2    4.591827049453279E-2    9.139335514041630E-1   -2.494561311894458E-1
 1.157059882387014E8     9.112666609000558E-1   -2.574912327149375E-1    6.512356004884802E-2    4.767278196653339E-2    6.598844162195873E-2    4.631502588992123E-2    9.132941090557649E-1   -2.514145210383004E-1
 1.165888090363587E8     9.105976591595885E-1   -2.595036343048113E-1    6.541044921305873E-2    4.806962051810647E-2    6.627038584351287E-2    4.671505994702578E-2    9.126560991730573E-1   -2.534026703691787E-1
 1.174783656354443E8     9.099158258472081E-1   -2.615219563662831E-1    6.569781369889655E-2    4.847363445023327E-2    6.655814148133761E-2    4.711887163380908E-2    9.120040969361098E-1   -2.553806868806952E-1
 1.183747094291968E8     9.092341621979854E-1   -2.635431800308786E-1    6.599278193779722E-2    4.888149524960857E-2    6.684885615367793E-2    4.753149595691275E-2    9.113612660709113E-1   -2.573894567113776E-1
 1.192778922029803E8     9.085678089607341E-1   -2.656066167784092E-1    6.629291062343032E-2    4.929884123822691E-2    6.715003563129496E-2    4.794588307353194E-2    9.106890971840454E-1   -2.594102168814243E-1
 1.201879661372721E8     9.078581856176815E-1   -2.677017321824053E-1    6.660833186120528E-2    4.971781758646210E-2    6.746531480502339E-2    4.836946264760032E-2    9.100118379369253E-1   -2.614360828078644E-1
 1.211049838106809E8     9.071329354408271E-1   -2.697901825959382E-1    6.693173886565658E-2    5.012265773292640E-2    6.779085181345178E-2    4.877315767661871E-2    9.093135483163807E-1   -2.634592343510188E-1
 1.220289982029829E8     9.064437264066926E-1   -2.718949502799260E-1    6.724076591603026E-2    5.052622157875587E-2    6.809786928876356E-2    4.917256145779164E-2    9.086287071859779E-1   -2.655048528620901E-1
 1.229600626981811E8     9.057265742237828E-1   -2.740485684149044E-1    6.754201102276733E-2    5.094571280306392E-2    6.840140934417627E-2    4.959038375051610E-2    9.079360953893542E-1   -2.675860812844555E-1
 1.238982310875929E8     9.049864338864372E-1   -2.762426024361782E-1    6.785532974538387E-2    5.138772437872317E-2    6.871468673065506E-2    5.003277051565931E-2    9.072244599226129E-1   -2.696888744459794E-1
 1.248435575729559E8     9.042098433822289E-1   -2.784548160419804E-1    6.819440887356139E-2    5.182865924252678E-2    6.905247878078684E-2    5.047507657964356E-2    9.064747843830693E-1   -2.718008969957327E-1
 1.257960967695579E8     9.034007659586077E-1   -2.806636698351301E-1    6.852085056591865E-2    5.225402207615255E-2    6.937622173542908E-2    5.090385877849413E-2    9.057163551271897E-1   -2.739053061487768E-1
 1.267559037093956E8     9.026037546446917E-1   -2.829042447605927E-1    6.885210822177158E-2    5.268546279492286E-2    6.970638990665047E-2    5.133183265628756E-2    9.049947395728136E-1   -2.760143879067152E-1
 1.277230338443520E8     9.017772768389336E-1   -2.851731559611129E-1    6.918332594197972E-2    5.314514413412123E-2    7.003922612008620E-2    5.178745971728825E-2    9.042687033712137E-1   -2.781872123602144E-1
 1.286975430493991E8     9.009381589360490E-1   -2.874438778121931E-1    6.953633294531444E-2    5.361889420350487E-2    7.039476839922879E-2    5.225596663794687E-2    9.034992488156971E-1   -2.803968632031049E-1
 1.296794876258291E8     9.000636322757776E-1   -2.897106429468568E-1    6.990639063758894E-2    5.408381968950062E-2    7.076726779397766E-2    5.271625492894041E-2    9.026934397513936E-1   -2.826068366149319E-1
 1.306689243045034E8     8.991913428809820E-1   -2.919778323437439E-1    7.028212210432762E-2    5.454652722508425E-2    7.114473979018275E-2    5.317668217533530E-2    9.018824974797939E-1   -2.848137733915259E-1
 1.316659102491341E8     8.983249029775303E-1   -2.942654224439473E-1    7.066665481033400E-2    5.501583279541804E-2    7.152878910290564E-2    5.363972150306840E-2    9.010550839819294E-1   -2.870484003830353E-1
 1.326705030595824E8     8.974749957484065E-1   -2.965696492736866E-1    7.105799672120489E-2    5.548978954870438E-2    7.192304784709630E-2    5.411052848710804E-2    9.002180795184305E-1   -2.892590978705127E-1
 1.336827607751903E8     8.966104788930851E-1   -2.989112462707816E-1    7.146626229152693E-2    5.595910662898496E-2    7.233207913356204E-2    5.456930292519029E-2    8.993831915741995E-1   -2.914928345387645E-1
 1.347027418781318E8     8.957398334644339E-1   -3.012965720351255E-1    7.187414256713404E-2    5.642089419005800E-2    7.274600190172918E-2    5.502678690935088E-2    8.985502727578033E-1   -2.937646323074236E-1
 1.357305052967905E8     8.948419364260290E-1   -3.036876701862527E-1    7.227938716900627E-2    5.688203094049228E-2    7.314966456389436E-2    5.548210576723079E-2    8.976846036913211E-1   -2.960463769255499E-1
 1.367661104091667E8     8.939138316033086E-1   -3.061114101423396E-1    7.268183146565582E-2    5.735372770515367E-2    7.355508638825722E-2    5.595031666028551E-2    8.967898043402783E-1   -2.983266928741370E-1
 1.378096170463071E8     8.929600264456649E-1   -3.085544420778892E-1    7.308999348443834E-2    5.783065836301106E-2    7.396911335180950E-2    5.642061982437342E-2    8.958959918943785E-1   -3.006348625913253E-1
 1.388610854957592E8     8.919953495802627E-1   -3.110085531904254E-1    7.350119659364589E-2    5.831601194820932E-2    7.438588260321442E-2    5.690028055820579E-2    8.950185306693854E-1   -3.029352591599374E-1
 1.399205765050585E8     8.910007586797271E-1   -3.134628732907460E-1    7.391328162016299E-2    5.881350281060503E-2    7.480444613157544E-2    5.738899290741407E-2    8.941386944801883E-1   -3.052587724992130E-1
 1.409881512852336E8     8.899966497742315E-1   -3.159528016377491E-1    7.434132971808659E-2    5.932778232357117E-2    7.523970366780269E-2    5.789040214930979E-2    8.932242447945047E-1   -3.076506070009682E-1
 1.420638715143470E8     8.889627399181677E-1   -3.184180700550822E-1    7.478186264822989E-2    5.984906222130000E-2    7.568942022582413E-2    5.840533155492536E-2    8.923040959876952E-1   -3.100425844483199E-1
 1.431477993410541E8     8.879354125669889E-1   -3.209154086911667E-1    7.523681394293646E-2    6.037428600267730E-2    7.614908056635705E-2    5.892292243870724E-2    8.913680791120221E-1   -3.124452708973440E-1
 1.442399973881980E8     8.868734544695234E-1   -3.234321055800339E-1    7.570482309094811E-2    6.090188236976916E-2    7.662703652011306E-2    5.944360013193996E-2    8.903696054363254E-1   -3.149329144279859E-1
 1.453405287564251E8     8.857865430184602E-1   -3.259554060004337E-1    7.619042617356414E-2    6.143726038225075E-2    7.712068223701367E-2    5.997119073146479E-2    8.893373479112172E-1   -3.173798253436161E-1
 1.464494570278296E8     8.846959405355967E-1   -3.285085366214493E-1    7.669143455055719E-2    6.196810607977068E-2    7.762718372851209E-2    6.049147024511228E-2    8.882914574257389E-1   -3.198062586380865E-1
 1.475668462696298E8     8.836007991452690E-1   -3.310575920923877E-1    7.719992722805460E-2    6.249602509874948E-2    7.813963766570890E-2    6.101337668594979E-2    8.872414503439970E-1   -3.222505543624667E-1
 1.486927610378684E8     8.824258028741172E-1   -3.336410695630475E-1    7.772552641149036E-2    6.301770032298888E-2    7.866870717866573E-2    6.153283719145117E-2    8.861742633969268E-1   -3.247225254192682E-1
 1.498272663811400E8     8.812756436808634E-1   -3.362352088694455E-1    7.825436388339486E-2    6.353588566649711E-2    7.920121403711027E-2    6.204677527692316E-2    8.850919232582916E-1   -3.272099655480907E-1
 1.509704278443526E8     8.801032714849738E-1   -3.388364194229054E-1    7.877657088772561E-2    6.405773750971849E-2    7.972718633464618E-2    6.256671322044138E-2    8.839771104263399E-1   -3.297253496776938E-1
 1.521223114725131E8     8.789092804854378E-1   -3.414352302049948E-1    7.929737254887705E-2    6.460023743193871E-2    8.025879925713823E-2    6.310391525568466E-2    8.828571394225926E-1   -3.322269671588875E-1
 1.532829838145407E8     8.776720274026357E-1   -3.440743837553131E-1    7.984114546048399E-2    6.515080067255324E-2    8.080688144350180E-2    6.365767349327806E-2    8.817575245465276E-1   -3.347662674104968E-1
 1.544525119271165E8     8.764532100195489E-1   -3.466989705707011E-1    8.041303300695195E-2    6.572326380539296E-2    8.139122741198490E-2    6.421034415230240E-2    8.806476442886552E-1   -3.373343596307574E-1
 1.556309633785520E8     8.752049237048889E-1   -3.493801687668466E-1    8.099369603840849E-2    6.627633564556665E-2    8.199577856312253E-2    6.474066553243045E-2    8.795083182972606E-1   -3.399383027958175E-1
 1.568184062526983E8     8.739509875611554E-1   -3.520446253042532E-1    8.156549338971418E-2    6.684409583350368E-2    8.260717685030432E-2    6.527216651224212E-2    8.783619581167786E-1   -3.425514745242073E-1
 1.580149091528745E8     8.726963391281298E-1   -3.547598150330364E-1    8.214614708660219E-2    6.744025986636708E-2    8.323674546615890E-2    6.581085213427146E-2    8.771784433705357E-1   -3.451484004298492E-1
 1.592205412058353E8     8.713987248316496E-1   -3.574513579037111E-1    8.275824993224307E-2    6.802504325926811E-2    8.390072163530171E-2    6.634356252911393E-2    8.759873004224473E-1   -3.477528336509855E-1
 1.604353720657634E8     8.700941699182256E-1   -3.601334923168271E-1    8.337712199672506E-2    6.860326757000453E-2    8.457574765143654E-2    6.686558216000608E-2    8.747509240349957E-1   -3.504294132646182E-1
 1.616594719182909E8     8.687824126754792E-1   -3.628684136043963E-1    8.400533429824307E-2    6.917302670896716E-2    8.524836495324013E-2    6.738335128291167E-2    8.734846026308435E-1   -3.530673730530576E-1
 1.628929114845590E8     8.674348329810873E-1   -3.655361322067416E-1    8.463053890579293E-2    6.973657122204133E-2    8.592968214041001E-2    6.789644499452133E-2    8.721433695741855E-1   -3.557475405963119E-1
 1.641357620253014E8     8.661559043791905E-1   -3.680220758080339E-1    8.525997551705303E-2    7.030431963926002E-2    8.658344221662673E-2    6.844162517616800E-2    8.708244070796958E-1   -3.584268645327160E-1
 1.653880953449593E8     8.647654740018345E-1   -3.707440351069113E-1    8.591191755229902E-2    7.086179537991819E-2    8.725265189549146E-2    6.898914396595054E-2    8.694729780601913E-1   -3.611196692003106E-1
 1.666499837958347E8     8.633598936707596E-1   -3.735882309153867E-1    8.658716403956096E-2    7.142157204696445E-2    8.793719016021820E-2    6.954401874995877E-2    8.680914067570181E-1   -3.638429826581417E-1
 1.679215002822650E8     8.619007492031010E-1   -3.764221752290568E-1    8.728452013512791E-2    7.198210871326295E-2    8.863632920068448E-2    7.010484720057480E-2    8.666718150768562E-1   -3.665898549452523E-1
 1.692027182648404E8     8.604183326934283E-1   -3.792802751584969E-1    8.799727380802404E-2    7.254173081382950E-2    8.936013188277694E-2    7.066384160009481E-2    8.652496671405200E-1   -3.693562896472972E-1
 1.704937117646426E8     8.588966427030421E-1   -3.821891677329798E-1    8.872242038501110E-2    7.309807195174184E-2    9.009967119868811E-2    7.120723408645917E-2    8.637976827921258E-1   -3.721528161963228E-1
 1.717945553675260E8     8.573742386903870E-1   -3.851086858834296E-1    8.943661011004547E-2    7.364362129749991E-2    9.083371417087545E-2    7.174400091073371E-2    8.623159957280837E-1   -3.749157960301033E-1
 1.731053242284249E8     8.557917871837836E-1   -3.879954112222404E-1    9.014243720750098E-2    7.421559361511464E-2    9.156332603513517E-2    7.229906365027494E-2    8.608092825755959E-1   -3.777252042464688E-1
 1.744260940756933E8     8.542063795727974E-1   -3.909228359141840E-1    9.087474368330943E-2    7.479730256564718E-2    9.231506573094622E-2    7.286027256689345E-2    8.592700872228040E-1   -3.805572316425860E-1
 1.757569412154842E8     8.525455298333430E-1   -3.938584633446874E-1    9.159086930978941E-2    7.538151211490855E-2    9.304498408893311E-2    7.343229867982079E-2    8.576627652504486E-1   -3.833423819597937E-1
 1.770979425361561E8     8.508347008733251E-1   -3.967655334532317E-1    9.232151933275264E-2    7.600715833683230E-2    9.379142908602817E-2    7.404416384245255E-2    8.560804356542062E-1   -3.861154438496501E-1
 1.784491755127131E8     8.491154753083230E-1   -3.996803745267590E-1    9.309726780238485E-2    7.665708390462674E-2    9.458283794368109E-2    7.468070620193586E-2    8.545061383675435E-1   -3.889569470628460E-1
 1.798107182112848E8     8.473851941125869E-1   -4.025698345199530E-1    9.391468949902247E-2    7.729867553022300E-2    9.541139841756074E-2    7.530446713989489E-2    8.528589412502846E-1   -3.917935145906115E-1
 1.811826492936349E8     8.455886764630132E-1   -4.054771365611258E-1    9.473796104950606E-2    7.793579893257269E-2    9.624148565430789E-2    7.593296830301231E-2    8.511891944668578E-1   -3.946501857213745E-1
 1.825650480217040E8     8.437871576048187E-1   -4.083886569544605E-1    9.559680208255719E-2    7.856708264860880E-2    9.712070446330329E-2    7.654844719839968E-2    8.495166854183657E-1   -3.975735569235098E-1
 1.839579942621904E8     8.419729749907241E-1   -4.113253193538334E-1    9.647643501012781E-2    7.919227745078340E-2    9.800836457233846E-2    7.715514646373803E-2    8.477873820798387E-1   -4.004695672338405E-1
 1.853615684911660E8     8.401298856780295E-1   -4.142685899323965E-1    9.735910737682986E-2    7.982230501783127E-2    9.890354261445110E-2    7.776649345807450E-2    8.460348733645573E-1   -4.033661766220030E-1
 1.867758517987237E8     8.382368491103744E-1   -4.172438098324993E-1    9.826374271021997E-2    8.044219115547474E-2    9.980845328738494E-2    7.837505101096656E-2    8.442492638741316E-1   -4.063427459704094E-1
 1.882009258936609E8     8.363266752664862E-1   -4.202250476656582E-1    9.917647944251440E-2    8.108009406508264E-2    1.007314563370688E-1    7.900146771984105E-2    8.424031066960238E-1   -4.093238232948976E-1
 1.896368731082037E8     8.343146577431639E-1   -4.232175630742929E-1    1.000913409589601E-1    8.171727562210418E-2    1.016521124281868E-1    7.963144413612977E-2    8.404889712225716E-1   -4.123060982248095E-1
 1.910837764027621E8     8.322830675027258E-1   -4.262317710677373E-1    1.010307861274608E-1    8.238256462618657E-2    1.025883872526468E-1    8.027637999570772E-2    8.385724603271649E-1   -4.152542554872627E-1
 1.925417193707203E8     8.301444229530728E-1   -4.292642046178759E-1    1.019805972985101E-1    8.305382889138477E-2    1.035445772103958E-1    8.094080641960472E-2    8.366217798293631E-1   -4.182307138954186E-1
 1.940107862432706E8     8.279414460081372E-1   -4.322566661869565E-1    1.029358085709859E-1    8.375110031709369E-2    1.045024629025603E-1    8.163401242676406E-2    8.346314314175586E-1   -4.212266591071239E-1
 1.954910618942780E8     8.257092840026375E-1   -4.352266926059572E-1    1.039447113942304E-1    8.451683179345364E-2    1.055095861693539E-1    8.239021075376141E-2    8.326145008658231E-1   -4.241824544870702E-1
 1.969826318451810E8     8.234578717557433E-1   -4.381890767693174E-1    1.050293929942969E-1    8.526765935545703E-2    1.065920113279177E-1    8.312772126215771E-2    8.306305174001711E-1   -4.272211399295206E-1
 1.984855822699381E8     8.211181846084488E-1   -4.410927658274539E-1    1.061199553793325E-1    8.602399752928587E-2    1.076813639570996E-1    8.388635879931045E-2    8.285788157922499E-1   -4.302837955214805E-1
 2.000000000000000E8     8.188081129903383E-1   -4.439549464320218E-1    1.072658549026028E-1    8.682607376466188E-2    1.088301684271476E-1    8.468457820647803E-2    8.264505608909892E-1   -4.333636937904548E-1
