#  HZ   S   RI   R     50.00 
! Rohde & Schwarz Vector Network Analyzer 
! Rohde-Schwarz,ZNLE6-2Port,1323001256200024,1.71.1.10-23.02.1.238
! Created: UTC 4/11/2025, 7:02:53 AM
! freq[Hz]                re:S11                  im:S11                  re:S21                  im:S21                  re:S12                  im:S12                  re:S22                  im:S22
 1.000000000000000E5     8.310045135666208E-1    1.124447742070645E-1    1.708305963826887E-1   -1.131531175897491E-1    1.710536592911538E-1   -1.132534324710609E-1    8.306990488851150E-1    1.122994380207677E-1
 1.007629862646662E5     8.313581073799740E-1    1.120441851886616E-1    1.704746728074899E-1   -1.127702054583088E-1    1.706900760461679E-1   -1.128685495134165E-1    8.310531417218157E-1    1.119119457512582E-1
 1.015317940097331E5     8.316914812274310E-1    1.116680274024013E-1    1.701182917175171E-1   -1.123845920666744E-1    1.703361807876495E-1   -1.124809736631738E-1    8.313806257010641E-1    1.115343669049151E-1
 1.023064676522963E5     8.320152412656787E-1    1.112673709667975E-1    1.697578569103237E-1   -1.120009831505840E-1    1.699726857040920E-1   -1.121005773879748E-1    8.317242710692602E-1    1.111544587037959E-1
 1.030870519483485E5     8.323355326327222E-1    1.108824986765804E-1    1.694076567799336E-1   -1.116248998260219E-1    1.696235099520015E-1   -1.117200497619606E-1    8.320319000941345E-1    1.107670778080418E-1
 1.038735919953636E5     8.326858679876686E-1    1.105006926463661E-1    1.690447309087020E-1   -1.112460060886624E-1    1.692675023039814E-1   -1.113402285540013E-1    8.324132322973984E-1    1.103885451717610E-1
 1.046661332349037E5     8.330072219898015E-1    1.101068851094672E-1    1.686882399204696E-1   -1.108677938899750E-1    1.689188536530551E-1   -1.109746542409717E-1    8.328103220073957E-1    1.100448067426417E-1
 1.054647214552430E5     8.333801848366297E-1    1.097593274844999E-1    1.683359120883470E-1   -1.105049310123385E-1    1.685593632086420E-1   -1.106020526723975E-1    8.331230039014285E-1    1.096621921339107E-1
 1.062694027940149E5     8.337363721648001E-1    1.093772689375282E-1    1.679864485118487E-1   -1.101405159141947E-1    1.682143127894274E-1   -1.102337234900365E-1    8.334777228471320E-1    1.092944123021105E-1
 1.070802237408760E5     8.340544902383495E-1    1.090133423701874E-1    1.676368874592041E-1   -1.097704536405659E-1    1.678580567571189E-1   -1.098758540259638E-1    8.338069584069880E-1    1.089370082652563E-1
 1.078972311401927E5     8.343988843542198E-1    1.086554252220113E-1    1.672857130886754E-1   -1.094075641806123E-1    1.675068759407770E-1   -1.095106481131533E-1    8.341535636659445E-1    1.085874845657627E-1
 1.087204721937475E5     8.347715078543163E-1    1.082969989997080E-1    1.669408465489911E-1   -1.090548357543665E-1    1.671574505803635E-1   -1.091563447355818E-1    8.345150924466925E-1    1.082165107454119E-1
 1.095499944634658E5     8.351121858771617E-1    1.079555620059123E-1    1.665892063993708E-1   -1.086960239512240E-1    1.668081174755852E-1   -1.087963913754269E-1    8.348599651824239E-1    1.078780677200553E-1
 1.103858458741646E5     8.354438069845420E-1    1.075817106349349E-1    1.662327636053446E-1   -1.083429307420386E-1    1.664545486758288E-1   -1.084410884898418E-1    8.351794655347582E-1    1.075162303267095E-1
 1.112280747163201E5     8.357633206490660E-1    1.072345113067479E-1    1.658825479603715E-1   -1.079894016541629E-1    1.660983271865686E-1   -1.080912173004180E-1    8.355201861778357E-1    1.071782175674650E-1
 1.120767296488583E5     8.361217811773224E-1    1.068699272533015E-1    1.655298645343113E-1   -1.076384591988112E-1    1.657444704208847E-1   -1.077455344927308E-1    8.358570453773280E-1    1.068074597677383E-1
 1.129318597019661E5     8.364355569006562E-1    1.065260269457412E-1    1.651725063168802E-1   -1.072898970331626E-1    1.653917911014318E-1   -1.073980877889821E-1    8.362088196795312E-1    1.064645374825864E-1
 1.137935142799240E5     8.367971008937382E-1    1.061919206739037E-1    1.648238531471926E-1   -1.069496236163387E-1    1.650381464098270E-1   -1.070476312747529E-1    8.365600077764634E-1    1.061260369515604E-1
 1.146617431639607E5     8.371506537635101E-1    1.058569742596580E-1    1.644749808934315E-1   -1.066137636818040E-1    1.646833532830974E-1   -1.067041948163357E-1    8.368813226469952E-1    1.057835481974070E-1
 1.155365965151286E5     8.374934111775768E-1    1.055124800086598E-1    1.641269640848086E-1   -1.062745681558553E-1    1.643391444509986E-1   -1.063690920680425E-1    8.372457810241959E-1    1.054370221499058E-1
 1.164181248772018E5     8.378385281617912E-1    1.051735604361403E-1    1.637847805595292E-1   -1.059374506375937E-1    1.639857787865326E-1   -1.060324343896562E-1    8.375741440683135E-1    1.051089064480804E-1
 1.173063791795965E5     8.381637358935553E-1    1.048421279974410E-1    1.634291820201029E-1   -1.055991200443932E-1    1.636304090007273E-1   -1.056975808537477E-1    8.379525108915972E-1    1.047853295353081E-1
 1.182014107403141E5     8.385266592360398E-1    1.045059388647113E-1    1.630779292496265E-1   -1.052716302379743E-1    1.632802816792091E-1   -1.053566919593179E-1    8.382792911837041E-1    1.044541874944913E-1
 1.191032712689044E5     8.388518531947173E-1    1.041671441239628E-1    1.627155400035644E-1   -1.049379344218008E-1    1.629243648740743E-1   -1.050354277075771E-1    8.386212431737503E-1    1.040991333470791E-1
 1.200120128694542E5     8.392085625570338E-1    1.038358099734468E-1    1.623687858919356E-1   -1.046120783829766E-1    1.625759535281640E-1   -1.047035024310371E-1    8.389783661087740E-1    1.037956562611463E-1
 1.209276880435975E5     8.395404190591893E-1    1.035192375721359E-1    1.620180228737525E-1   -1.042789643771810E-1    1.622256354114608E-1   -1.043780027651207E-1    8.393179844924128E-1    1.034736870835774E-1
 1.218503496935483E5     8.398975487239417E-1    1.031993618726934E-1    1.616743983922354E-1   -1.039582705597851E-1    1.618679638345183E-1   -1.040543834217677E-1    8.396459431573309E-1    1.031486334222714E-1
 1.227800511251578E5     8.402525633140002E-1    1.028858269512959E-1    1.613317068382477E-1   -1.036392055663099E-1    1.615191145784512E-1   -1.037310456449162E-1    8.399985320760699E-1    1.028157171540477E-1
 1.237168460509929E5     8.405714755602235E-1    1.025555039407666E-1    1.609736799784422E-1   -1.033177533443702E-1    1.611730246621137E-1   -1.034099366584470E-1    8.403644683849318E-1    1.025021355140896E-1
 1.246607885934402E5     8.409018547943110E-1    1.022406020805298E-1    1.606182601342700E-1   -1.029968448201651E-1    1.608136695169214E-1   -1.030936606030796E-1    8.407058777032790E-1    1.021932737398528E-1
 1.256119332878327E5     8.412622214521966E-1    1.019352427182290E-1    1.602727835447418E-1   -1.026819483491408E-1    1.604741783567163E-1   -1.027789559893663E-1    8.410672170717476E-1    1.018833395901862E-1
 1.265703350856002E5     8.416180987178294E-1    1.016167884253545E-1    1.599157357844266E-1   -1.023740546093787E-1    1.601214832826824E-1   -1.024701104864996E-1    8.414081429603983E-1    1.015616223948232E-1
 1.275360493574453E5     8.419669592379229E-1    1.013098304811592E-1    1.595733847593167E-1   -1.020597857615223E-1    1.597663581013509E-1   -1.021552030652102E-1    8.417434176249617E-1    1.012460856994774E-1
 1.285091318965405E5     8.422966292132209E-1    1.009847698633374E-1    1.592239800466220E-1   -1.017497737710612E-1    1.594201098999887E-1   -1.018457205073684E-1    8.421170586811920E-1    1.009444549864456E-1
 1.294896389217529E5     8.426003038676819E-1    1.006857756933003E-1    1.588715233544831E-1   -1.014399050577984E-1    1.590647379425187E-1   -1.015377167885818E-1    8.424623033137181E-1    1.006379983797216E-1
 1.304776270808914E5     8.429370222604374E-1    1.003747383121308E-1    1.585171386812215E-1   -1.011414703948588E-1    1.587130993955944E-1   -1.012339847475669E-1    8.428114465191446E-1    1.003375483864523E-1
 1.314731534539810E5     8.433249071999790E-1    1.000826606550066E-1    1.581771800009821E-1   -1.008379518070771E-1    1.583559582613115E-1   -1.009275375354337E-1    8.431148413743685E-1    1.000286013803668E-1
 1.324762755565583E5     8.436548453820262E-1    9.978169992516171E-2    1.578226304061831E-1   -1.005308984833498E-1    1.580106809422276E-1   -1.006251534978826E-1    8.434839012154219E-1    9.971811441498851E-2
 1.334870513429962E5     8.440170217449126E-1    9.946128489023101E-2    1.574685250070720E-1   -1.002383677541483E-1    1.576693273549207E-1   -1.003258543294720E-1    8.438595135614717E-1    9.943758187031526E-2
 1.345055392098512E5     8.443660110459753E-1    9.916454406688789E-2    1.571154244734390E-1   -9.993642921316576E-2    1.573122167247284E-1   -1.000247317442407E-1    8.441669824837261E-1    9.911733385373563E-2
 1.355317979992373E5     8.447309675581367E-1    9.887155059044007E-2    1.567691374899275E-1   -9.964067020943901E-2    1.569585925616491E-1   -9.972626805466113E-2    8.445471542286820E-1    9.884067699594805E-2
 1.365658870022265E5     8.450469328265348E-1    9.858005659140055E-2    1.564189324323475E-1   -9.934040373241597E-2    1.566113087610170E-1   -9.942812790310648E-2    8.449050088835761E-1    9.853710701875899E-2
 1.376078659622731E5     8.453881145792156E-1    9.828027146459510E-2    1.560684724104497E-1   -9.904594933217653E-2    1.562517562975841E-1   -9.913745379439189E-2    8.452307484709591E-1    9.824051783794704E-2
 1.386577950786655E5     8.457352118706758E-1    9.799625161605047E-2    1.557241890421162E-1   -9.876032238081510E-2    1.559003454190609E-1   -9.884824226868051E-2    8.455545351861433E-1    9.793430940276340E-2
 1.397157350100044E5     8.460769400764001E-1    9.767839001456149E-2    1.553658945553630E-1   -9.846123193694498E-2    1.555517729253119E-1   -9.855636579499784E-2    8.459135859657912E-1    9.765718186098220E-2
 1.407817468777081E5     8.464018381058902E-1    9.740061267366683E-2    1.550130782183878E-1   -9.817247354935049E-2    1.551958875732071E-1   -9.826691921521444E-2    8.462512483074193E-1    9.737024496223032E-2
 1.418558922695422E5     8.467426163429825E-1    9.711618422493939E-2    1.546624415311970E-1   -9.788049501962925E-2    1.548387578246551E-1   -9.797281760790458E-2    8.465802326299119E-1    9.707898880086968E-2
 1.429382332431784E5     8.471100120116490E-1    9.682624520060604E-2    1.543148850594012E-1   -9.759515399169053E-2    1.544936972193262E-1   -9.768853857294772E-2    8.469393401313863E-1    9.679910737647668E-2
 1.440288323297804E5     8.474669374213217E-1    9.654450031442596E-2    1.539583018729635E-1   -9.731575869722060E-2    1.541421849594335E-1   -9.740357082943119E-2    8.473041374037147E-1    9.651331407012166E-2
 1.451277525376154E5     8.477882517403164E-1    9.625446067795401E-2    1.536068543726207E-1   -9.703251622043088E-2    1.537922146004842E-1   -9.712602086188998E-2    8.476458053188168E-1    9.623992906181804E-2
 1.462350573556962E5     8.481203086770043E-1    9.598174214598792E-2    1.532509486867249E-1   -9.675008842255081E-2    1.534486282742593E-1   -9.684657669683669E-2    8.479864893884175E-1    9.594154931820260E-2
 1.473508107574468E5     8.484693907363878E-1    9.568825184601222E-2    1.529049272335866E-1   -9.647318316315213E-2    1.530891424962535E-1   -9.656269645151341E-2    8.483084845832062E-1    9.567367352930108E-2
 1.484750772044004E5     8.488569060596962E-1    9.542900950529172E-2    1.525585992350491E-1   -9.619127005982887E-2    1.527453581019392E-1   -9.628795422170969E-2    8.486797305244476E-1    9.539816356069304E-2
 1.496079216499225E5     8.492229254576185E-1    9.515141832911754E-2    1.522123796160860E-1   -9.591401213192612E-2    1.523843487377345E-1   -9.600703367469483E-2    8.490105766079091E-1    9.510399734962402E-2
 1.507494095429637E5     8.495570585835046E-1    9.487371562204945E-2    1.518569616855572E-1   -9.563737889341427E-2    1.520311916193783E-1   -9.573063274579426E-2    8.493812366677608E-1    9.484092369882145E-2
 1.518996068318418E5     8.498825034955046E-1    9.458358296855224E-2    1.515054677363064E-1   -9.536692078783852E-2    1.516787482730426E-1   -9.545247591856511E-2    8.497213788599034E-1    9.456511019104576E-2
 1.530585799680507E5     8.502255052356851E-1    9.431947759668743E-2    1.511576916195331E-1   -9.508461238524124E-2    1.513317361954252E-1   -9.517650818424586E-2    8.500621202632813E-1    9.429264808824438E-2
 1.542263959101001E5     8.505763355933124E-1    9.403439184468791E-2    1.508073232931865E-1   -9.481494389323636E-2    1.509749529472328E-1   -9.490890430229747E-2    8.503897473745042E-1    9.402028648044752E-2
 1.554031221273835E5     8.509258934117621E-1    9.377013161004415E-2    1.504515474041760E-1   -9.454969382990382E-2    1.506281144997685E-1   -9.463676901059356E-2    8.507286850483115E-1    9.375289237488614E-2
 1.565888266040779E5     8.512749030278742E-1    9.350771926477161E-2    1.501031255577289E-1   -9.427929136862820E-2    1.502755237135733E-1   -9.436913938630710E-2    8.511032666269407E-1    9.347455240463237E-2
 1.577835778430689E5     8.516244320905360E-1    9.321804384146223E-2    1.497587369173552E-1   -9.401445246214375E-2    1.499305590827855E-1   -9.409943502318287E-2    8.514668278930825E-1    9.320543156183149E-2
 1.589874448699104E5     8.519548254012280E-1    9.295942675973441E-2    1.494021326468598E-1   -9.374112155004806E-2    1.495812414484549E-1   -9.383261939095237E-2    8.518337839465178E-1    9.295419658989235E-2
 1.602004972368116E5     8.523268583939699E-1    9.269882976662019E-2    1.490530544479703E-1   -9.347697562670536E-2    1.492257650178535E-1   -9.356325991338191E-2    8.521366214241645E-1    9.269004373242881E-2
 1.614228050266550E5     8.526807217185502E-1    9.244237862216689E-2    1.486997210627796E-1   -9.321290380182089E-2    1.488778665723330E-1   -9.330279038665273E-2    8.525021011188192E-1    9.242078370936622E-2
 1.626544388570473E5     8.529999847038785E-1    9.217600541301896E-2    1.483452096948047E-1   -9.294188277590186E-2    1.485235649402291E-1   -9.303491003965560E-2    8.528643747029790E-1    9.214240161500328E-2
 1.638954698843964E5     8.533304418056609E-1    9.190100561435834E-2    1.479956239456932E-1   -9.267412551037270E-2    1.481743907524164E-1   -9.277598621316739E-2    8.531937727553699E-1    9.187795030568600E-2
 1.651459698080244E5     8.536962775904459E-1    9.163890980233526E-2    1.476430532232749E-1   -9.241822211865719E-2    1.478196962794579E-1   -9.251392858911751E-2    8.535564094211859E-1    9.159960221148830E-2
 1.664060108743095E5     8.540785822206360E-1    9.137833234012022E-2    1.472925411019566E-1   -9.215705168261815E-2    1.474652696738121E-1   -9.224556043749732E-2    8.538413304868884E-1    9.136033944987619E-2
 1.676756658808590E5     8.543723139135583E-1    9.111612969697908E-2    1.469376118583112E-1   -9.190043734335039E-2    1.471123740726911E-1   -9.198828781471213E-2    8.541995480218608E-1    9.109560399687124E-2
 1.689550081807175E5     8.547411434725007E-1    9.085916140929205E-2    1.465873649116241E-1   -9.163784987591546E-2    1.467617674595115E-1   -9.173381651854701E-2    8.545363982309350E-1    9.085005112918564E-2
 1.702441116866020E5     8.550990970402754E-1    9.058260710726238E-2    1.462363898425921E-1   -9.138423418561152E-2    1.464103363133498E-1   -9.147184843642404E-2    8.549096662479297E-1    9.059669296405547E-2
 1.715430508751738E5     8.554482027623370E-1    9.035600595313849E-2    1.458896102423921E-1   -9.112684153242923E-2    1.460610394959018E-1   -9.121582627790092E-2    8.552785000565212E-1    9.033462921543653E-2
 1.728519007913403E5     8.557980744743048E-1    9.009469677850272E-2    1.455409365614792E-1   -9.086935653984263E-2    1.457127980858265E-1   -9.096225113445161E-2    8.556375990389754E-1    9.008621591011660E-2
 1.741707370525927E5     8.561682944457033E-1    8.984446110925509E-2    1.451939651513799E-1   -9.061447485438312E-2    1.453663063381136E-1   -9.070977512361655E-2    8.559948147073645E-1    8.982687577863524E-2
 1.754996358533718E5     8.565364495383023E-1    8.959881080283234E-2    1.448509574679459E-1   -9.035844417647376E-2    1.450121679023571E-1   -9.045384342297132E-2    8.563244283718086E-1    8.954868975636054E-2
 1.768386739694722E5     8.568605482642291E-1    8.932875862858515E-2    1.444925664759041E-1   -9.010695000325876E-2    1.446551579205580E-1   -9.020121659958968E-2    8.566805969080366E-1    8.930717142163030E-2
 1.781879287624771E5     8.572015679340628E-1    8.908529091929976E-2    1.441382131286100E-1   -8.985310468909637E-2    1.443168331772042E-1   -8.994433496405153E-2    8.570164900019795E-1    8.905865237089702E-2
 1.795474781842276E5     8.575662111294596E-1    8.882391290616792E-2    1.437888459630998E-1   -8.960018405597531E-2    1.439550628758943E-1   -8.969213041169480E-2    8.573538638750319E-1    8.880192641943076E-2
 1.809174007813277E5     8.579070233482948E-1    8.856879825317085E-2    1.434415489332790E-1   -8.934815874996944E-2    1.436084284832779E-1   -8.944109617578976E-2    8.576844334791557E-1    8.856052007045059E-2
 1.822977756996804E5     8.582467195312972E-1    8.832028429179448E-2    1.430947359929378E-1   -8.909448243725038E-2    1.432628554318819E-1   -8.918931294316766E-2    8.580562819655788E-1    8.830171073986266E-2
 1.836886826890609E5     8.585916822418258E-1    8.806479181522206E-2    1.427379645149879E-1   -8.884990803752653E-2    1.429132638575297E-1   -8.894277596149386E-2    8.584205975961683E-1    8.805106445011746E-2
 1.850902021077247E5     8.589310923909781E-1    8.781608626800431E-2    1.423918603842999E-1   -8.860100884853120E-2    1.425636857181632E-1   -8.869827399611357E-2    8.587582214994990E-1    8.780638116410579E-2
 1.865024149270491E5     8.592667908788429E-1    8.756010390839819E-2    1.420474434109820E-1   -8.835187499047438E-2    1.422120056944833E-1   -8.844586519846019E-2    8.591287807489050E-1    8.755389263642717E-2
 1.879254027362132E5     8.596182954633041E-1    8.732101980361706E-2    1.416906348976354E-1   -8.810482640429858E-2    1.418588710937428E-1   -8.819596197407459E-2    8.594527062374774E-1    8.731021434267729E-2
 1.893592477469092E5     8.600292271406164E-1    8.703255663239283E-2    1.413474891329497E-1   -8.787429273340205E-2    1.414889993043129E-1   -8.793604501949338E-2    8.597624109845311E-1    8.707572762530226E-2
 1.908040327980933E5     8.603320607376018E-1    8.682998754514078E-2    1.410050740600429E-1   -8.761546755854928E-2    1.411662013219790E-1   -8.770238310510056E-2    8.601240064007546E-1    8.680846671791537E-2
 1.922598413607715E5     8.606544053551876E-1    8.657816831325274E-2    1.406523867607507E-1   -8.736857374583128E-2    1.408190356804591E-1   -8.746055671280986E-2    8.604856852698859E-1    8.655566809551987E-2
 1.937267575428232E5     8.609893783060427E-1    8.632802541674618E-2    1.402966780981310E-1   -8.712314189215198E-2    1.404642937278804E-1   -8.721119867355014E-2    8.608475483585118E-1    8.632154847885556E-2
 1.952048660938581E5     8.613396281697949E-1    8.609154237541577E-2    1.399524742373062E-1   -8.688044296755018E-2    1.401214987516312E-1   -8.697195210119839E-2    8.612169292529920E-1    8.608292972760992E-2
 1.966942524101142E5     8.616843856684092E-1    8.583811337048806E-2    1.396025711147810E-1   -8.663755856661906E-2    1.397720920681996E-1   -8.672808291904692E-2    8.615540403390398E-1    8.583780403543990E-2
 1.981950025393913E5     8.620199484626878E-1    8.559661026658864E-2    1.392513753255661E-1   -8.639438131621288E-2    1.394171796358425E-1   -8.648220867421490E-2    8.618867451764524E-1    8.558037598162001E-2
 1.997072031860212E5     8.624120788266809E-1    8.536220235806374E-2    1.389161687537712E-1   -8.614880614089872E-2    1.390726611806481E-1   -8.623989198568292E-2    8.622619954937628E-1    8.533864028111279E-2
 2.012309417158795E5     8.627457033153304E-1    8.511528997568291E-2    1.385602523033448E-1   -8.590828488064911E-2    1.387262129625857E-1   -8.599580389427175E-2    8.625634586266735E-1    8.507941622545093E-2
 2.027663061614301E5     8.630907002323427E-1    8.487471561906013E-2    1.382174013823905E-1   -8.566992922158316E-2    1.383799064051058E-1   -8.575923777112435E-2    8.629125204545665E-1    8.485658489203185E-2
 2.043133852268128E5     8.634254163470025E-1    8.462596496638403E-2    1.378695849943764E-1   -8.542614130271979E-2    1.380282137514590E-1   -8.551227902781226E-2    8.632549979575793E-1    8.461983640673854E-2
 2.058722682929675E5     8.637608430959707E-1    8.439853373700568E-2    1.375242117621526E-1   -8.518146128869017E-2    1.376783874099696E-1   -8.527140153141234E-2    8.635972025428502E-1    8.435940093432208E-2
 2.074430454227995E5     8.641134802497967E-1    8.415660022984690E-2    1.371798242506838E-1   -8.494490740240718E-2    1.373304061105232E-1   -8.503142959172888E-2    8.639507840347174E-1    8.411937942270456E-2
 2.090258073663807E5     8.644630699416610E-1    8.391794006996804E-2    1.368296781627101E-1   -8.470281065886151E-2    1.369831378350917E-1   -8.479344647781870E-2    8.642982277085878E-1    8.387486861129734E-2
 2.106206455661938E5     8.648175112024676E-1    8.367257858651914E-2    1.364906088092593E-1   -8.447061229936158E-2    1.366339523693167E-1   -8.455179127615235E-2    8.646182208520165E-1    8.364857751983587E-2
 2.122276521624151E5     8.651540355872958E-1    8.342865264293511E-2    1.361456694664597E-1   -8.422862613407633E-2    1.362884445325841E-1   -8.431184289129992E-2    8.649607933081662E-1    8.339867825003222E-2
 2.138469199982374E5     8.654775743876392E-1    8.318058638280794E-2    1.357916841231894E-1   -8.399020254623879E-2    1.359440766743092E-1   -8.407462402338037E-2    8.653076998572330E-1    8.314152002259435E-2
 2.154785426252357E5     8.658128858297324E-1    8.293855405846062E-2    1.354437025249870E-1   -8.375278407051841E-2    1.355954863287579E-1   -8.383368003121440E-2    8.656488325874291E-1    8.291689351343116E-2
 2.171226143087691E5     8.661558172152983E-1    8.270204506927741E-2    1.350979268680177E-1   -8.350878018769567E-2    1.352488028513516E-1   -8.359438561573261E-2    8.659735298907513E-1    8.267609754888161E-2
 2.187792300334291E5     8.665227510170862E-1    8.246338421365006E-2    1.347604221475407E-1   -8.327793367052744E-2    1.349081020448548E-1   -8.335628744975025E-2    8.663262255122892E-1    8.243267608198698E-2
 2.204484855085266E5     8.668436103449860E-1    8.222633128102438E-2    1.344129642062512E-1   -8.304342152332427E-2    1.345686202611234E-1   -8.312651856392392E-2    8.666867914454406E-1    8.218593546827427E-2
 2.221304771736209E5     8.672156944182238E-1    8.198776215097987E-2    1.340698969913129E-1   -8.280631527921317E-2    1.342306642301482E-1   -8.288942408737701E-2    8.670142373097738E-1    8.195152640949387E-2
 2.238253022040931E5     8.675489976221873E-1    8.176413851856279E-2    1.337271523382165E-1   -8.256666260112085E-2    1.338860447689847E-1   -8.264942918083036E-2    8.673694896259273E-1    8.171010810161231E-2
 2.255330585167579E5     8.678826633068593E-1    8.151449884859839E-2    1.333823173202461E-1   -8.233973084641473E-2    1.335344973025229E-1   -8.241812954564323E-2    8.676729360867098E-1    8.146184761348622E-2
 2.272538447755223E5     8.682151339322206E-1    8.128320711845004E-2    1.330403296000431E-1   -8.208748881200183E-2    1.331925237499796E-1   -8.217423276054064E-2    8.680570277294398E-1    8.123527133506701E-2
 2.289877603970853E5     8.685596888116418E-1    8.103725544872442E-2    1.326914153740077E-1   -8.185885434560146E-2    1.328528688495900E-1   -8.194083528158579E-2    8.683495715197133E-1    8.100565999137166E-2
 2.307349055566813E5     8.688978785830076E-1    8.081893846527193E-2    1.323495999811052E-1   -8.161927938001029E-2    1.325034462204878E-1   -8.170085867473525E-2    8.686963764878904E-1    8.074777844214190E-2
 2.324953811938693E5     8.692176581616110E-1    8.057212144629390E-2    1.320098194365890E-1   -8.138145502476343E-2    1.321710568233342E-1   -8.146661675791397E-2    8.690219660657662E-1    8.051571777292860E-2
 2.342692890183618E5     8.695582674349027E-1    8.032574891682275E-2    1.316639929806820E-1   -8.114462225968805E-2    1.318271898461426E-1   -8.123067014974496E-2    8.693506088417829E-1    8.028895641035527E-2
 2.360567315159030E5     8.699091786453148E-1    8.009404684081428E-2    1.313241211864445E-1   -8.091102575498675E-2    1.314850968777773E-1   -8.099331889235949E-2    8.696884246133564E-1    8.004370455094731E-2
 2.378578119541888E5     8.702761401734133E-1    7.986147176974447E-2    1.309804049119796E-1   -8.068094619655625E-2    1.311406070884326E-1   -8.075875189732254E-2    8.700079586528420E-1    7.980338770713749E-2
 2.396726343888348E5     8.705784663499332E-1    7.960930518575879E-2    1.306439651141237E-1   -8.044044083481099E-2    1.308058640073005E-1   -8.052487656382952E-2    8.703427652275516E-1    7.957209593414499E-2
 2.415013036693852E5     8.708761526846055E-1    7.936593007025462E-2    1.302959383831356E-1   -8.020193844500779E-2    1.304701443711786E-1   -8.028716207296109E-2    8.706906852262868E-1    7.935542534111949E-2
 2.433439254453724E5     8.712513041275518E-1    7.914679336998011E-2    1.299638611648676E-1   -7.996976535416314E-2    1.301243102841487E-1   -8.005113697323263E-2    8.710078742369084E-1    7.910188898285392E-2
 2.452006061724201E5     8.715632551376342E-1    7.890075878188568E-2    1.296337751173126E-1   -7.973438493889434E-2    1.297892652333514E-1   -7.981756473165925E-2    8.713577001336823E-1    7.888764259400416E-2
 2.470714531183934E5     8.718996168091309E-1    7.866498959750237E-2    1.292958120909676E-1   -7.949778840542690E-2    1.294494697309267E-1   -7.958859776843479E-2    8.716965624738126E-1    7.864791882062526E-2
 2.489565743695979E5     8.722355672978955E-1    7.841496876983549E-2    1.289561002214613E-1   -7.926102558880466E-2    1.291052713463345E-1   -7.934940994005474E-2    8.720208573123709E-1    7.840898950179351E-2
 2.508560788370214E5     8.725942719796912E-1    7.819002701775016E-2    1.286284509432707E-1   -7.902728488104829E-2    1.287676271137492E-1   -7.911543989137391E-2    8.723599028867108E-1    7.818730399357249E-2
 2.527700762626280E5     8.728823125138132E-1    7.794052464316889E-2    1.282867437181964E-1   -7.879524856635925E-2    1.284432751959164E-1   -7.888323714852981E-2    8.727009857159369E-1    7.795477719823979E-2
 2.546986772256976E5     8.731961371022938E-1    7.770018041819234E-2    1.279568492441216E-1   -7.855942829940281E-2    1.281031997613584E-1   -7.864568118812879E-2    8.730092064197885E-1    7.771099543313505E-2
 2.566419931492161E5     8.735199337095061E-1    7.744144315368956E-2    1.276171786249918E-1   -7.832230825628790E-2    1.277731150344587E-1   -7.841417408919645E-2    8.733451763805075E-1    7.748723387711751E-2
 2.586001363063102E5     8.738542230478943E-1    7.721437389503487E-2    1.272894369950851E-1   -7.808948431690245E-2    1.274387374657410E-1   -7.818193416016739E-2    8.736799850060383E-1    7.725609290034174E-2
 2.605732198267354E5     8.741452246358872E-1    7.696948432389537E-2    1.269617469819088E-1   -7.785680382406289E-2    1.271055823103359E-1   -7.794935577450431E-2    8.739998074097942E-1    7.702196034555168E-2
 2.625613577034118E5     8.745023920841788E-1    7.675315850600078E-2    1.266284215504597E-1   -7.762141031302777E-2    1.267752735708560E-1   -7.771334124358895E-2    8.743244302102012E-1    7.677607454007311E-2
 2.645646647990093E5     8.748229201412749E-1    7.651508667262441E-2    1.263025369357106E-1   -7.738857839451536E-2    1.264467054419988E-1   -7.748022106645179E-2    8.746191463120951E-1    7.655208884644014E-2
 2.665832568525859E5     8.751198923853132E-1    7.627597156684870E-2    1.259665269019009E-1   -7.715051210591237E-2    1.261158897421822E-1   -7.724660011877153E-2    8.749410109504180E-1    7.630112616267538E-2
 2.686172504862709E5     8.754293807021952E-1    7.605415601308381E-2    1.256459300485045E-1   -7.691815732711323E-2    1.257850535321855E-1   -7.700942932672286E-2    8.752688783309318E-1    7.608481140670652E-2
 2.706667632120051E5     8.757449168110242E-1    7.581210420725265E-2    1.253170379193670E-1   -7.668546340476504E-2    1.254583487508317E-1   -7.677981112883855E-2    8.756103239739440E-1    7.584824825313667E-2
 2.727319134383292E5     8.760843397696998E-1    7.558549617051992E-2    1.249899630796580E-1   -7.644852719608804E-2    1.251354515077808E-1   -7.654639380923038E-2    8.759535366160419E-1    7.561716335765094E-2
 2.748128204772244E5     8.763943839904165E-1    7.535756158209962E-2    1.246712144909722E-1   -7.621683699226557E-2    1.248087467312198E-1   -7.631453281128968E-2    8.762784300952193E-1    7.538553483454520E-2
 2.769096045510074E5     8.767280190344788E-1    7.514053445939788E-2    1.243531700875900E-1   -7.598712646894969E-2    1.244773111987636E-1   -7.607729362039711E-2    8.765683690761036E-1    7.515427237490595E-2
 2.790223867992730E5     8.770441556825501E-1    7.490600933410738E-2    1.240309405109401E-1   -7.575051071715808E-2    1.241556030339389E-1   -7.584813597786953E-2    8.768721563787244E-1    7.492431788497547E-2
 2.811512892858952E5     8.773758152870146E-1    7.467720583139727E-2    1.237058027107532E-1   -7.552065010732181E-2    1.238312052233801E-1   -7.561003184670116E-2    8.772111806341806E-1    7.468968782042631E-2
 2.832964350060779E5     8.776933017925326E-1    7.444609494002860E-2    1.233862672690523E-1   -7.528666246829353E-2    1.235107729370971E-1   -7.538165977775141E-2    8.775312618906098E-1    7.445267342563693E-2
 2.854579478934632E5     8.779934574182354E-1    7.421309214236141E-2    1.230654286257671E-1   -7.505556724867057E-2    1.231913922607504E-1   -7.514811789481370E-2    8.778679589830385E-1    7.421652371857979E-2
 2.876359528272883E5     8.783169815239127E-1    7.398024096496240E-2    1.227533929046106E-1   -7.482385829599270E-2    1.228728893310229E-1   -7.491590151268061E-2    8.782020982603532E-1    7.399822244038314E-2
 2.898305756396023E5     8.786309622917954E-1    7.374761503690863E-2    1.224399948512505E-1   -7.459081887410186E-2    1.225582070402157E-1   -7.468919422821155E-2    8.785354991876033E-1    7.375775540808038E-2
 2.920419431225354E5     8.789121111812110E-1    7.350933844745595E-2    1.221223184054699E-1   -7.436316423532731E-2    1.222444770320102E-1   -7.445536907017521E-2    8.788560459680828E-1    7.352244349107384E-2
 2.942701830356239E5     8.792423275651390E-1    7.327611920817211E-2    1.218121132440030E-1   -7.413287704627861E-2    1.219317901367670E-1   -7.422684663532841E-2    8.791792295319796E-1    7.329062658275538E-2
 2.965154241131938E5     8.795711308869323E-1    7.304386722628330E-2    1.214967925424356E-1   -7.390196183029965E-2    1.216176926059768E-1   -7.399530162866361E-2    8.794794163312598E-1    7.307035613684371E-2
 2.987777960717941E5     8.798909634654344E-1    7.282707983812446E-2    1.211875464878742E-1   -7.367237221959390E-2    1.213022519665748E-1   -7.376133128298247E-2    8.797972468193948E-1    7.282951996107255E-2
 3.010574296176943E5     8.802277205341226E-1    7.260621170709212E-2    1.208807485192005E-1   -7.344647392950879E-2    1.209963836970354E-1   -7.353484214866872E-2    8.800900346143925E-1    7.260484846735947E-2
 3.033544564544337E5     8.804903454076503E-1    7.237168425577188E-2    1.205731071035951E-1   -7.321360516551961E-2    1.206851812612570E-1   -7.330326714881386E-2    8.803917517556595E-1    7.236667520887330E-2
 3.056690092904338E5     8.808111271360431E-1    7.213351440237259E-2    1.202670485590763E-1   -7.298894378469713E-2    1.203790794788599E-1   -7.307662377735637E-2    8.807083961466516E-1    7.214115246634911E-2
 3.080012218466610E5     8.811280933640356E-1    7.191044036408664E-2    1.199666861776818E-1   -7.275896694121638E-2    1.200682104314670E-1   -7.284841744728252E-2    8.809836736375488E-1    7.191031427403956E-2
 3.103512288643551E5     8.814467293892175E-1    7.168479631601669E-2    1.196557000885883E-1   -7.253005821310095E-2    1.197592918011326E-1   -7.261515397250214E-2    8.813120803029194E-1    7.167986433472284E-2
 3.127191661128128E5     8.817166631526518E-1    7.145033091128332E-2    1.193474119659930E-1   -7.230165645007444E-2    1.194592850245004E-1   -7.239379764203943E-2    8.816265860553527E-1    7.144009554064806E-2
 3.151051703972316E5     8.820306955487314E-1    7.122965354743967E-2    1.190479451738124E-1   -7.207926892176772E-2    1.191551789351290E-1   -7.216177134827273E-2    8.819187683874932E-1    7.123601531986642E-2
 3.175093795666154E5     8.823314052345151E-1    7.099051535050740E-2    1.187462404189173E-1   -7.185291791401724E-2    1.188476414954137E-1   -7.193536685585165E-2    8.822141735985474E-1    7.098919947448608E-2
 3.199319325217355E5     8.826215754913418E-1    7.075876769222170E-2    1.184465586961138E-1   -7.162525949375335E-2    1.185436597904489E-1   -7.170933923939793E-2    8.824962395319444E-1    7.075813358532997E-2
 3.223729692231574E5     8.828857617211663E-1    7.052732116350670E-2    1.181412279581257E-1   -7.139912443769127E-2    1.182414343269494E-1   -7.147966891992236E-2    8.827958278915932E-1    7.051875152501881E-2
 3.248326306993267E5     8.832201346909174E-1    7.030332365218689E-2    1.178494595915205E-1   -7.118059899606546E-2    1.179431888375252E-1   -7.125686123431596E-2    8.831156601825217E-1    7.031296584054285E-2
 3.273110590547157E5     8.834873152582680E-1    7.007642265472680E-2    1.175511327332226E-1   -7.095904645537959E-2    1.176469892634561E-1   -7.103509663601988E-2    8.833897039307372E-1    7.006520945176659E-2
 3.298083974780366E5     8.838493237441499E-1    6.985416293126730E-2    1.172541146418231E-1   -7.072883482249355E-2    1.173514804156913E-1   -7.081067347481916E-2    8.836802831573818E-1    6.984330154633650E-2
 3.323247902505097E5     8.841180871975468E-1    6.962086010180532E-2    1.169575508109161E-1   -7.051159023436793E-2    1.170608523652138E-1   -7.058842360953356E-2    8.840037197579118E-1    6.962792678146579E-2
 3.348603827542018E5     8.843814942036869E-1    6.939812115350287E-2    1.166675766688327E-1   -7.029136993889484E-2    1.167662899514176E-1   -7.037067770175305E-2    8.842904759414674E-1    6.939079755073463E-2
 3.374153214804250E5     8.847039833315512E-1    6.917756812879031E-2    1.163790728724280E-1   -7.006888355507859E-2    1.164687060669816E-1   -7.014742595652941E-2    8.845787772391045E-1    6.917387545170156E-2
 3.399897540381991E5     8.850196889631667E-1    6.895713205824977E-2    1.160888465949114E-1   -6.984754143419125E-2    1.161786193754953E-1   -6.992137489187700E-2    8.848663289042799E-1    6.894578619322891E-2
 3.425838291627830E5     8.852996194350082E-1    6.872797029904976E-2    1.157924394388564E-1   -6.963074985293906E-2    1.158875408513432E-1   -6.970111260413175E-2    8.851460301388805E-1    6.872531957660705E-2
 3.451976967242625E5     8.856093730952194E-1    6.851575409261840E-2    1.155045669982583E-1   -6.940661260513187E-2    1.155976322880957E-1   -6.948277280567330E-2    8.854521579534239E-1    6.850512790010431E-2
 3.478315077362126E5     8.858936719787077E-1    6.829267489856530E-2    1.152150623745513E-1   -6.919317546346000E-2    1.153124523843822E-1   -6.926399115910450E-2    8.857836370671751E-1    6.828851003862517E-2
 3.504854143644205E5     8.861646132134947E-1    6.806350293486850E-2    1.149245636331138E-1   -6.897351231890643E-2    1.150169722647249E-1   -6.904235603817899E-2    8.860526369307424E-1    6.806004447405704E-2
 3.531595699356794E5     8.864787341722169E-1    6.784606443704970E-2    1.146498534862213E-1   -6.876146386444826E-2    1.147318142691463E-1   -6.882590262770552E-2    8.863699616557325E-1    6.783849659335685E-2
 3.558541289466428E5     8.867513367832629E-1    6.762413812302495E-2    1.143594009001607E-1   -6.854513421236322E-2    1.144444826376888E-1   -6.860914038054415E-2    8.866223056741782E-1    6.761623786488430E-2
 3.585692470727532E5     8.870007002781224E-1    6.739751152042826E-2    1.140737074947285E-1   -6.833309513360167E-2    1.141527334086959E-1   -6.839027450836781E-2    8.868780498418518E-1    6.740217341082642E-2
 3.613050811772345E5     8.873081062743298E-1    6.718629282939413E-2    1.137912488375930E-1   -6.811609971741743E-2    1.138655989332968E-1   -6.817042500010442E-2    8.871683425625423E-1    6.717056037905146E-2
 3.640617893201578E5     8.875743822573423E-1    6.695489214494124E-2    1.135087586926046E-1   -6.790470687708117E-2    1.135890369783188E-1   -6.796022904157828E-2    8.874689257915191E-1    6.695696430734309E-2
 3.668395307675686E5     8.878781683358040E-1    6.674402374865525E-2    1.132234279449671E-1   -6.768766166649315E-2    1.133112420579532E-1   -6.774512583264770E-2    8.877243290800709E-1    6.673729574889192E-2
 3.696384660006910E5     8.881632905664330E-1    6.653066883405574E-2    1.129435815236511E-1   -6.747972695270250E-2    1.130270959438906E-1   -6.753250282585141E-2    8.880032684582045E-1    6.651848774681970E-2
 3.724587567251991E5     8.884403588052820E-1    6.631370685593753E-2    1.126624026425737E-1   -6.726595846889202E-2    1.127452012439002E-1   -6.732217260271553E-2    8.882692547790161E-1    6.630286814691508E-2
 3.753005658805580E5     8.887436007581699E-1    6.608945953010591E-2    1.123854875917491E-1   -6.706102799024828E-2    1.124711955337746E-1   -6.711145596125037E-2    8.885504057169810E-1    6.609019815184052E-2
 3.781640576494411E5     8.890312389731919E-1    6.588062926528611E-2    1.121142062907528E-1   -6.685444649296758E-2    1.121897181870727E-1   -6.689730952226641E-2    8.888600621791654E-1    6.586453338489349E-2
 3.810493974672107E5     8.893156495771360E-1    6.566748918633054E-2    1.118340960179126E-1   -6.664471662014450E-2    1.119137553494275E-1   -6.668849608158667E-2    8.891098339529002E-1    6.566616117959914E-2
 3.839567520314787E5     8.895967184684579E-1    6.544774423177098E-2    1.115533132944414E-1   -6.643618849010680E-2    1.116341038853783E-1   -6.647703486410181E-2    8.893760434294002E-1    6.545165542682392E-2
 3.868862893117373E5     8.898584075747467E-1    6.523244543880963E-2    1.112794055462719E-1   -6.623085096155008E-2    1.113589656767611E-1   -6.626621166924179E-2    8.896696495545858E-1    6.523505202126745E-2
 3.898381785590618E5     8.901412524262987E-1    6.502466765772125E-2    1.110041377302431E-1   -6.602746374607393E-2    1.110867910415567E-1   -6.606036286277554E-2    8.899296531526709E-1    6.502122655861442E-2
 3.928125903158922E5     8.904111513113872E-1    6.480359793613699E-2    1.107249103984800E-1   -6.581989155400821E-2    1.108103059501845E-1   -6.585334303170411E-2    8.901791689080016E-1    6.480523917741295E-2
 3.958096964258819E5     8.906997476413371E-1    6.459853908630965E-2    1.104484369138235E-1   -6.561324300521064E-2    1.105442520946844E-1   -6.565469379863041E-2    8.904912524472989E-1    6.458847726677848E-2
 3.988296700438284E5     8.909513733657349E-1    6.438422215554962E-2    1.101796264418951E-1   -6.540873893607256E-2    1.102735628125468E-1   -6.545077611763918E-2    8.907431333091043E-1    6.437091585301445E-2
 4.018726856456762E5     8.912520845642485E-1    6.418248799823538E-2    1.099097708540209E-1   -6.520821520921186E-2    1.100007398834544E-1   -6.524361264853816E-2    8.909905856878108E-1    6.416762883493443E-2
 4.049389190385970E5     8.914948184789423E-1    6.398153635033546E-2    1.096357300601372E-1   -6.500481118286201E-2    1.097310190288817E-1   -6.503883975539865E-2    8.912922845723665E-1    6.394964139380925E-2
 4.080285473711492E5     8.917465936601043E-1    6.376156103973629E-2    1.093613420541367E-1   -6.480664875530205E-2    1.094552265289633E-1   -6.483754570376390E-2    8.915670042291186E-1    6.374120936055630E-2
 4.111417491435081E5     8.920280725961633E-1    6.355410522728445E-2    1.090853404078943E-1   -6.460020645255538E-2    1.091781284557798E-1   -6.462970286209346E-2    8.918310223129484E-1    6.355211797124209E-2
 4.142787042177814E5     8.923070470526585E-1    6.333451676208202E-2    1.088200438586121E-1   -6.440125098772477E-2    1.089153512125980E-1   -6.442942461923755E-2    8.920972795105314E-1    6.332814417466215E-2
 4.174395938283992E5     8.925560120151407E-1    6.313627802522911E-2    1.085508116587890E-1   -6.420051415951579E-2    1.086488331430902E-1   -6.423278674137156E-2    8.923893243226648E-1    6.312772835098684E-2
 4.206246005925882E5     8.928229425224183E-1    6.291323131361848E-2    1.082817297524046E-1   -6.400307699006903E-2    1.083845484556122E-1   -6.403316503861127E-2    8.926363631786589E-1    6.291684278913946E-2
 4.238339085209167E5     8.931300213546066E-1    6.270751382562800E-2    1.080102886450758E-1   -6.380274687280001E-2    1.081094303474345E-1   -6.383123758854480E-2    8.928987810990688E-1    6.272039206445006E-2
 4.270677030279291E5     8.933736768702296E-1    6.250477514759939E-2    1.077441798547394E-1   -6.360247508691716E-2    1.078444155439003E-1   -6.363115269461449E-2    8.931778381782345E-1    6.250854089387754E-2
 4.303261709428567E5     8.936769505544501E-1    6.229149201493196E-2    1.074781845812831E-1   -6.340708919110041E-2    1.075778332268257E-1   -6.342958892653375E-2    8.934260775774007E-1    6.230177895084018E-2
 4.336095005204146E5     8.939556987251912E-1    6.208929189856603E-2    1.072177909855014E-1   -6.320777777633579E-2    1.073149267956339E-1   -6.323601604280742E-2    8.937168480272685E-1    6.209723766139280E-2
 4.369178814516730E5     8.941751959775376E-1    6.189100452749566E-2    1.069434128433473E-1   -6.300951273252277E-2    1.070473764615534E-1   -6.303944624732369E-2    8.939913697064514E-1    6.189128044680660E-2
 4.402515048750198E5     8.944373375766145E-1    6.167284779091626E-2    1.066716531880332E-1   -6.281021638565014E-2    1.067815511483862E-1   -6.283995854685738E-2    8.942885482962296E-1    6.168311165773549E-2
 4.436105633872023E5     8.947148973350575E-1    6.147077280812560E-2    1.064122924253619E-1   -6.261397899447520E-2    1.065234278218621E-1   -6.264614572623321E-2    8.945670627607083E-1    6.147097227662162E-2
 4.469952510544541E5     8.949553986794221E-1    6.126577693879977E-2    1.061480382848432E-1   -6.242009214898884E-2    1.062542312866370E-1   -6.244649975364027E-2    8.948210572290951E-1    6.128037773798414E-2
 4.504057634237097E5     8.952084697188737E-1    6.105453162710278E-2    1.058834014482020E-1   -6.222144209516452E-2    1.059912150900490E-1   -6.224906250268600E-2    8.951005567242941E-1    6.108178309464159E-2
 4.538422975338975E5     8.954539504242620E-1    6.085710497611675E-2    1.056177207662326E-1   -6.202261916314667E-2    1.057316913282830E-1   -6.205619304709906E-2    8.953769964650173E-1    6.086706617143164E-2
 4.573050519273265E5     8.957267213731996E-1    6.065420166012103E-2    1.053521858576876E-1   -6.182724927450892E-2    1.054679476894772E-1   -6.186200704700024E-2    8.956356219295499E-1    6.065723543439681E-2
 4.607942266611566E5     8.959841227706472E-1    6.045101191716108E-2    1.050892278177053E-1   -6.163011311800681E-2    1.052112487985174E-1   -6.166958075211914E-2    8.958588696755371E-1    6.046403609891927E-2
 4.643100233189550E5     8.962867997011628E-1    6.025089590042275E-2    1.048359040297113E-1   -6.144112405309227E-2    1.049448578137599E-1   -6.147054424286864E-2    8.961268707852869E-1    6.024213117062115E-2
 4.678526450223470E5     8.965107905864025E-1    6.003168769483008E-2    1.045712433356192E-1   -6.124074587851922E-2    1.046904186711413E-1   -6.127950933785968E-2    8.963794237680999E-1    6.004466539277339E-2
 4.714222964427450E5     8.967488418832982E-1    5.982796102981592E-2    1.043145245120858E-1   -6.104768038529507E-2    1.044293644330972E-1   -6.108471090593696E-2    8.966482044943458E-1    5.984730418946784E-2
 4.750191838131770E5     8.970253907875024E-1    5.963039035264269E-2    1.040501240583782E-1   -6.085428087505765E-2    1.041715188322291E-1   -6.088973536387060E-2    8.969119056153920E-1    5.964439549179824E-2
 4.786435149402010E5     8.972864286622251E-1    5.942314153362209E-2    1.037929801594632E-1   -6.065822862432828E-2    1.039097397968844E-1   -6.069237848883022E-2    8.971328341709753E-1    5.943760892952117E-2
 4.822954992159092E5     8.975130056815283E-1    5.921591387327764E-2    1.035310259673566E-1   -6.046156122164251E-2    1.036478299035384E-1   -6.050346867218281E-2    8.973872205684470E-1    5.923704900022540E-2
 4.859753476300298E5     8.977672188091838E-1    5.901402602027766E-2    1.032738125158373E-1   -6.026323433150998E-2    1.033980562507115E-1   -6.030935857294157E-2    8.976601886726820E-1    5.903047855545479E-2
 4.896832727821107E5     8.980229407117756E-1    5.881478203885514E-2    1.030170960248372E-1   -6.007026714333585E-2    1.031344347863688E-1   -6.011278340128965E-2    8.978872525962206E-1    5.883069613119685E-2
 4.934194888938060E5     8.982697095288721E-1    5.860702712136689E-2    1.027666900485625E-1   -5.987583130695279E-2    1.028884591336855E-1   -5.992529062553181E-2    8.981752224566392E-1    5.861155457530587E-2
 4.971842118212518E5     8.985013299428782E-1    5.840389854275475E-2    1.025162298997573E-1   -5.968428960454795E-2    1.026318828998730E-1   -5.972610275523233E-2    8.984149143222400E-1    5.843233419616644E-2
 5.009776590675358E5     8.987709764692217E-1    5.819847504498105E-2    1.022635374503501E-1   -5.949148053732335E-2    1.023718294582398E-1   -5.953300664798560E-2    8.986376691490731E-1    5.821656454184508E-2
 5.048000497952673E5     8.990379709844529E-1    5.798727309406801E-2    1.020145976580773E-1   -5.929859213208792E-2    1.021249172384919E-1   -5.934215418821973E-2    8.989241867804368E-1    5.801918422808913E-2
 5.086516048392332E5     8.993371655758879E-1    5.779044386396884E-2    1.017654393718133E-1   -5.910818164905624E-2    1.018769010753875E-1   -5.915073155747544E-2    8.991746843376516E-1    5.781279146146917E-2
 5.125325467191607E5     8.995416102407692E-1    5.759698649791652E-2    1.015198531747204E-1   -5.891320575720662E-2    1.016222583716094E-1   -5.895816942380003E-2    8.993902895749635E-1    5.762002736066706E-2
 5.164430996525706E5     8.997504605420857E-1    5.738646112221481E-2    1.012642269756859E-1   -5.871960940002069E-2    1.013762233012785E-1   -5.876836033510571E-2    8.996468874140162E-1    5.741820914509944E-2
 5.203834895677360E5     9.000007674211534E-1    5.717960554656794E-2    1.010162914213980E-1   -5.853168098773198E-2    1.011282180993682E-1   -5.857539456654513E-2    8.998894175626453E-1    5.722751245690184E-2
 5.243539441167285E5     9.002649485110721E-1    5.698468997238528E-2    1.007721697904563E-1   -5.833598521072892E-2    1.008780897404048E-1   -5.838575656475783E-2    9.001657641481926E-1    5.701423948226813E-2
 5.283546926885745E5     9.004857909896102E-1    5.677821201699997E-2    1.005230794496243E-1   -5.814449663552281E-2    1.006301475399912E-1   -5.818564787629605E-2    9.003480919439829E-1    5.681761169088392E-2
 5.323859664225065E5     9.007349836500770E-1    5.657688759252137E-2    1.002782197742254E-1   -5.794909425098398E-2    1.003827101504911E-1   -5.799940854995311E-2    9.005952359046856E-1    5.660506335730921E-2
 5.364479982213206E5     9.009803995190959E-1    5.639118454844104E-2    1.000357041657209E-1   -5.775773527519406E-2    1.001394936813190E-1   -5.780919386880075E-2    9.008488440630693E-1    5.640561472537348E-2
 5.405410227648258E5     9.012399552894603E-1    5.617815675049397E-2    9.979156100923199E-2   -5.756766713908995E-2    9.990501293800512E-2   -5.762179088620947E-2    9.011296963394209E-1    5.620221967873519E-2
 5.446652765234077E5     9.014494018701850E-1    5.597260558056497E-2    9.955278464512528E-2   -5.737971768424959E-2    9.966143740454933E-2   -5.743324528643785E-2    9.013860537309553E-1    5.601288386214893E-2
 5.488209977716873E5     9.017117200038705E-1    5.577684145875934E-2    9.930880382974365E-2   -5.718773062196077E-2    9.941777566062338E-2   -5.724123213554703E-2    9.015625249086543E-1    5.581514493739327E-2
 5.530084266022880E5     9.019231344897949E-1    5.558452864328060E-2    9.907204933904781E-2   -5.699502616375588E-2    9.918227021834918E-2   -5.705550338837995E-2    9.018115192214906E-1    5.561724693655843E-2
 5.572278049397101E5     9.021190681797475E-1    5.538374013932781E-2    9.883369290099620E-2   -5.680805214106881E-2    9.894812102478254E-2   -5.686848781337805E-2    9.020611618084069E-1    5.542039363495355E-2
 5.614793765543010E5     9.023673355381776E-1    5.518678336175836E-2    9.859570519972061E-2   -5.661803847699275E-2    9.871736941452564E-2   -5.668452301731045E-2    9.023051747892052E-1    5.522208256161616E-2
 5.657633870763436E5     9.025815614063707E-1    5.498308530425436E-2    9.836331664706056E-2   -5.643379260896132E-2    9.847726275939796E-2   -5.649782387075359E-2    9.025410154751267E-1    5.500993776646697E-2
 5.700800840102463E5     9.028428071531035E-1    5.480708599309502E-2    9.812464227316482E-2   -5.624360087403306E-2    9.823651826745872E-2   -5.630418776188256E-2    9.027443162093798E-1    5.483625265271116E-2
 5.744297167488408E5     9.030622014423153E-1    5.459914071896536E-2    9.789262973305124E-2   -5.605369463969892E-2    9.800535202406450E-2   -5.612422253450777E-2    9.029598153803000E-1    5.462835386514379E-2
 5.788125365877954E5     9.033080097191551E-1    5.439693027731068E-2    9.766038570452262E-2   -5.586919763365940E-2    9.777940404110029E-2   -5.593469923178680E-2    9.032044152166313E-1    5.444907118044409E-2
 5.832287967401261E5     9.035247427419494E-1    5.420458626979517E-2    9.743025017055679E-2   -5.568441913441344E-2    9.754452357243733E-2   -5.574823312507710E-2    9.034158311601613E-1    5.426089765348271E-2
 5.876787523508312E5     9.037191670227313E-1    5.399947420367220E-2    9.719643695056082E-2   -5.550020415868258E-2    9.730784326852399E-2   -5.556329995997561E-2    9.036060301780546E-1    5.405942353009750E-2
 5.921626605116295E5     9.039817071396508E-1    5.380661916539597E-2    9.697653195250062E-2   -5.531980694709791E-2    9.708184228648080E-2   -5.538236090791142E-2    9.038462366039426E-1    5.386247463421377E-2
 5.966807802758140E5     9.042108359909006E-1    5.362391462941984E-2    9.675076130783290E-2   -5.513897584557650E-2    9.685700966795481E-2   -5.519471679782607E-2    9.040985906223409E-1    5.368652190000314E-2
 6.012333726732214E5     9.044412174128004E-1    5.342742485445576E-2    9.652784536144104E-2   -5.496115595440060E-2    9.662925739799365E-2   -5.501925509149645E-2    9.042468768447839E-1    5.349461472830717E-2
 6.058207007253073E5     9.046562012408440E-1    5.323592835184336E-2    9.628852381771631E-2   -5.477079826064845E-2    9.640022549713038E-2   -5.483478518252543E-2    9.044662539655618E-1    5.329718240543622E-2
 6.104430294603459E5     9.048755470735186E-1    5.303763660137122E-2    9.607458847843579E-2   -5.459126322016582E-2    9.617953048150153E-2   -5.465739155805160E-2    9.046774758809597E-1    5.310278631864210E-2
 6.151006259287392E5     9.050972465725222E-1    5.286950049705209E-2    9.584885364877169E-2   -5.441109324957315E-2    9.595611300315138E-2   -5.447891305968779E-2    9.049306571351922E-1    5.291580959179864E-2
 6.197937592184512E5     9.053049072398949E-1    5.266933928178109E-2    9.562732465059610E-2   -5.423884959158506E-2    9.573172508168859E-2   -5.430034710092300E-2    9.051747843608318E-1    5.272110535151962E-2
 6.245227004705463E5     9.055030291739194E-1    5.249402974740692E-2    9.540709338572183E-2   -5.405962819823887E-2    9.551057463325688E-2   -5.411753678727310E-2    9.054055912693378E-1    5.253295170816540E-2
 6.292877228948588E5     9.057465273235438E-1    5.230334284568926E-2    9.519230156500798E-2   -5.388752809226950E-2    9.528521517143336E-2   -5.394425203373326E-2    9.055862479251958E-1    5.235499868159896E-2
 6.340891017857760E5     9.059849155125768E-1    5.210331319234923E-2    9.497400969480650E-2   -5.371576489466636E-2    9.506310228940536E-2   -5.376785925885602E-2    9.058048588235383E-1    5.216167685069352E-2
 6.389271145381465E5     9.061615168075114E-1    5.192273615218194E-2    9.475252312100663E-2   -5.353853660599283E-2    9.484247261023249E-2   -5.359556245486784E-2    9.060310253534598E-1    5.197032539392015E-2
 6.438020406633007E5     9.063932232375308E-1    5.173785423855781E-2    9.453197207427197E-2   -5.337041855060582E-2    9.462804288891929E-2   -5.342167186235499E-2    9.062602492669835E-1    5.179096551747123E-2
 6.487141618052023E5     9.066136021075843E-1    5.156611630920343E-2    9.431808167967562E-2   -5.319596673249850E-2    9.441233546323796E-2   -5.325220299257512E-2    9.064851574876731E-1    5.159780662851375E-2
 6.536637617567203E5     9.068006623829515E-1    5.137713331979753E-2    9.409828876838978E-2   -5.302242056844075E-2    9.419286942478175E-2   -5.307909245950766E-2    9.067242359876160E-1    5.139859177153711E-2
 6.586511264760230E5     9.070333551498265E-1    5.120664458623447E-2    9.388157286269475E-2   -5.284723640997047E-2    9.396929377707673E-2   -5.290416645823699E-2    9.069197118391463E-1    5.123423570522048E-2
 6.636765441031042E5     9.072367443304036E-1    5.102035529411945E-2    9.366571895565472E-2   -5.267791088013084E-2    9.375867123823131E-2   -5.273880914651651E-2    9.071523267092936E-1    5.104897225706483E-2
 6.687403049764220E5     9.074429334810130E-1    5.082756340904284E-2    9.345111151522091E-2   -5.251466673869395E-2    9.354521278877417E-2   -5.256874217556386E-2    9.073293825460355E-1    5.088079372537745E-2
 6.738427016496789E5     9.076601851228754E-1    5.065491647724894E-2    9.323349575959405E-2   -5.234261958663026E-2    9.332201474681476E-2   -5.239680469291863E-2    9.075164597195864E-1    5.071359417069363E-2
 6.789840289087215E5     9.078668688296960E-1    5.047307716325759E-2    9.301523437270132E-2   -5.217083861985868E-2    9.310881525823965E-2   -5.223172143388136E-2    9.077277732175852E-1    5.053318331267997E-2
 6.841645837885707E5     9.080617346718749E-1    5.030245148219016E-2    9.280029035646839E-2   -5.200587728115563E-2    9.289330739852554E-2   -5.206677829359156E-2    9.079733936286202E-1    5.035370521186862E-2
 6.893846655905881E5     9.083033581752636E-1    5.012272364995358E-2    9.258605899316610E-2   -5.183518622675109E-2    9.268104146112852E-2   -5.190208002548239E-2    9.081859642667601E-1    5.018856502560413E-2
 6.946445758997592E5     9.084980278910889E-1    4.994215766093676E-2    9.237453287109942E-2   -5.167697140562851E-2    9.246754667064155E-2   -5.174047627904584E-2    9.084077855802277E-1    4.998037213915876E-2
 6.999446186021230E5     9.086817078648561E-1    4.977542513872021E-2    9.215706361195979E-2   -5.151188826882262E-2    9.225484554966129E-2   -5.157894280878712E-2    9.086358417061854E-1    4.979744242477062E-2
 7.052850999023273E5     9.089301071991128E-1    4.958780331091893E-2    9.194748569483252E-2   -5.134981221587413E-2    9.204071259759933E-2   -5.141288105866508E-2    9.088255020516013E-1    4.963119858757054E-2
 7.106663283413178E5     9.091137589941566E-1    4.942953053639157E-2    9.173279765292768E-2   -5.118826226000892E-2    9.183147394615707E-2   -5.125014171982235E-2    9.090555338515472E-1    4.947802064473893E-2
 7.160886148141696E5     9.093544441934440E-1    4.923962075077067E-2    9.151947254724654E-2   -5.102276445656678E-2    9.161689511976190E-2   -5.108993426023423E-2    9.092447453895232E-1    4.928301746218540E-2
 7.215522725880400E5     9.095517538766442E-1    4.906358512311326E-2    9.130746143391058E-2   -5.086485099949801E-2    9.140053676675963E-2   -5.092866842551163E-2    9.094000034473376E-1    4.912713052509223E-2
 7.270576173202734E5     9.097793525852286E-1    4.888711203437764E-2    9.109206985472006E-2   -5.069852644249629E-2    9.119079454622883E-2   -5.077130623714466E-2    9.096357619455612E-1    4.895768588930088E-2
 7.326049670766364E5     9.099434607661582E-1    4.870403124338238E-2    9.088000950036308E-2   -5.053906715761686E-2    9.097921079145677E-2   -5.061159170860839E-2    9.099110932523885E-1    4.876782814734493E-2
 7.381946423496918E5     9.101572891989086E-1    4.853628528076601E-2    9.066932870490768E-2   -5.038664355724029E-2    9.076482136321368E-2   -5.044453859505803E-2    9.100964434043356E-1    4.860012352861943E-2
 7.438269660773217E5     9.103848460234278E-1    4.837743116941368E-2    9.046090921097126E-2   -5.021828442690007E-2    9.055023554169742E-2   -5.028587102359554E-2    9.102955828937201E-1    4.842431349075787E-2
 7.495022636613748E5     9.105871333589081E-1    4.820736096044650E-2    9.024627146946058E-2   -5.006173958140198E-2    9.033542049920004E-2   -5.012453913905647E-2    9.104750149470513E-1    4.825215465762844E-2
 7.552208629864733E5     9.107938861642445E-1    4.802639936887494E-2    9.003563759208749E-2   -4.990210579967850E-2    9.012253457527346E-2   -4.996284128141578E-2    9.106566092998069E-1    4.808544704635489E-2
 7.609830944389519E5     9.109687078942499E-1    4.785378312825248E-2    8.982648413299646E-2   -4.974555671938489E-2    8.991689436572931E-2   -4.980512344406746E-2    9.108879360985981E-1    4.792089374679923E-2
 7.667892909259528E5     9.112119951204642E-1    4.766817433232270E-2    8.961270239330923E-2   -4.958514432467229E-2    8.970717702251557E-2   -4.965093779716497E-2    9.111264115468763E-1    4.773852506108928E-2
 7.726397878946491E5     9.114251769207676E-1    4.750370482021625E-2    8.940395968329951E-2   -4.942435217470022E-2    8.949428268253175E-2   -4.949230018600920E-2    9.113352292595965E-1    4.758123178617180E-2
 7.785349233516312E5     9.116151134539066E-1    4.733434570546574E-2    8.919187425314661E-2   -4.926575549504199E-2    8.928326153753523E-2   -4.932584123963171E-2    9.115113612295457E-1    4.742141421155912E-2
 7.844750378824320E5     9.118016719665428E-1    4.716987889080724E-2    8.898219822236134E-2   -4.910729498152786E-2    8.907011113266713E-2   -4.917068026642258E-2    9.117156146591908E-1    4.723943732547376E-2
 7.904604746712097E5     9.120159942569449E-1    4.700653923261848E-2    8.877542464188148E-2   -4.894723557209175E-2    8.886568142011651E-2   -4.901071351813654E-2    9.119368544321184E-1    4.707322149249721E-2
 7.964915795205662E5     9.122213190235952E-1    4.681576203789296E-2    8.856585872833403E-2   -4.878582911189344E-2    8.865466362768556E-2   -4.886089134741554E-2    9.121458391201226E-1    4.688251968433851E-2
 8.025687008715309E5     9.124251437767282E-1    4.664946785948564E-2    8.835673869144914E-2   -4.862752351653706E-2    8.844972523887630E-2   -4.869716856292731E-2    9.123861295080106E-1    4.669440894000332E-2
 8.086921898236905E5     9.126283380336666E-1    4.649009338618209E-2    8.815125531174579E-2   -4.846704030560949E-2    8.823783257203284E-2   -4.854143918051877E-2    9.125738577160813E-1    4.654044161003557E-2
 8.148624001554718E5     9.128302954054619E-1    4.630937668726212E-2    8.794329902770337E-2   -4.831012513752431E-2    8.802972596613658E-2   -4.838158725939470E-2    9.127881837271631E-1    4.636658782108080E-2
 8.210796883445872E5     9.130090589410658E-1    4.613646619318422E-2    8.773127784180129E-2   -4.814445298069171E-2    8.782532494479908E-2   -4.822500382865641E-2    9.130012382412354E-1    4.617472818227667E-2
 8.273444135886204E5     9.132362405119245E-1    4.594502690470739E-2    8.752988225242120E-2   -4.799645719298921E-2    8.761472747722232E-2   -4.806453266419720E-2    9.131790914733227E-1    4.600778145269461E-2
 8.336569378257846E5     9.134079115740820E-1    4.579197119459709E-2    8.732470740303006E-2   -4.783956321173694E-2    8.741203880234366E-2   -4.790400093406728E-2    9.133765000000463E-1    4.584523473406751E-2
 8.400176257558319E5     9.136263416371052E-1    4.558525810279064E-2    8.711958243761356E-2   -4.767981236735835E-2    8.721169480306022E-2   -4.775004485942758E-2    9.135943837834128E-1    4.566411533122088E-2
 8.464268448611222E5     9.138257941902017E-1    4.543065503698676E-2    8.691857871546708E-2   -4.751892670806791E-2    8.700327936527139E-2   -4.758774770141865E-2    9.137348183481586E-1    4.550347357734558E-2
 8.528849654278599E5     9.140522019158196E-1    4.523652235935826E-2    8.671731140531655E-2   -4.735857259807708E-2    8.680019737251134E-2   -4.743221825461660E-2    9.139562196481750E-1    4.532159961688560E-2
 8.593923605674774E5     9.142629431580778E-1    4.504987859883156E-2    8.651596468633299E-2   -4.720243094157485E-2    8.660043005013081E-2   -4.726928247906187E-2    9.141361573506811E-1    4.516536493168389E-2
 8.659494062381978E5     9.144652264500427E-1    4.485790710270830E-2    8.631506100953286E-2   -4.704632802631793E-2    8.639795954431868E-2   -4.711577599045733E-2    9.143666255524914E-1    4.498158086685558E-2
 8.725564812667536E5     9.146128436994715E-1    4.469200227955922E-2    8.611464862510808E-2   -4.687864815117925E-2    8.619983109455991E-2   -4.695058936170639E-2    9.145235972760475E-1    4.485443933990510E-2
 8.792139673702718E5     9.147871273825213E-1    4.453920641477056E-2    8.591640041339461E-2   -4.672904639734992E-2    8.599971876962161E-2   -4.679409759045631E-2    9.147371970030603E-1    4.467550092409273E-2
 8.859222491783336E5     9.149942530822119E-1    4.436753228949715E-2    8.572122953360259E-2   -4.656740524971865E-2    8.579992961152422E-2   -4.663703718425849E-2    9.149244274475449E-1    4.450341978410579E-2
 8.926817142551860E5     9.152128909051394E-1    4.420663711086333E-2    8.552440844414441E-2   -4.641487908684830E-2    8.560634177403344E-2   -4.647802574611187E-2    9.150922878345572E-1    4.432814655303456E-2
 8.994927531221397E5     9.153594865493008E-1    4.404318838680208E-2    8.532591330331439E-2   -4.625283479243603E-2    8.541376803538116E-2   -4.632426204766475E-2    9.152960199042960E-1    4.414641599732932E-2
 9.063557592801275E5     9.155721952556167E-1    4.386359847058104E-2    8.513550673680613E-2   -4.609420782985901E-2    8.521543822720275E-2   -4.616468485881568E-2    9.154657155509001E-1    4.399155050672573E-2
 9.132711292324457E5     9.157521724701739E-1    4.368069385891777E-2    8.494064009606431E-2   -4.593896238986376E-2    8.502328443875372E-2   -4.601234249109590E-2    9.156771362117627E-1    4.379601140596395E-2
 9.202392625076511E5     9.159462585149127E-1    4.349657475909863E-2    8.475235953975854E-2   -4.578048202650471E-2    8.483184810694512E-2   -4.585426508703020E-2    9.158801799773966E-1    4.365119714390304E-2
 9.272605616826499E5     9.161268514296315E-1    4.332004748836019E-2    8.455904864314126E-2   -4.563394417760359E-2    8.463745894813336E-2   -4.569879246256553E-2    9.160329529388482E-1    4.347161522557331E-2
 9.343354324059531E5     9.163129763071924E-1    4.316744654349101E-2    8.436717804918098E-2   -4.547728446015926E-2    8.444547308416003E-2   -4.554515570724223E-2    9.162303502504344E-1    4.327312231920095E-2
 9.414642834211199E5     9.164962316182949E-1    4.300398457908097E-2    8.418143327914988E-2   -4.532066856367184E-2    8.425711426896186E-2   -4.539290076916731E-2    9.163989147430548E-1    4.307820502011493E-2
 9.486475265903610E5     9.166726178951883E-1    4.283921600949913E-2    8.399295791401179E-2   -4.516852092024227E-2    8.406942645402374E-2   -4.523830951111056E-2    9.165866086033775E-1    4.293622708053785E-2
 9.558855769183410E5     9.168761331344788E-1    4.265941286866136E-2    8.380611449308852E-2   -4.501920832686353E-2    8.387758523065433E-2   -4.508118391399209E-2    9.167595631897382E-1    4.278471335097180E-2
 9.631788525761530E5     9.170710073956660E-1    4.245752452997936E-2    8.361855381386085E-2   -4.486815414233700E-2    8.369361459842890E-2   -4.493501497358789E-2    9.169521520407136E-1    4.262637144471656E-2
 9.705277749254764E5     9.172246818661135E-1    4.232167802245751E-2    8.343220238725424E-2   -4.471237294812099E-2    8.350570992136221E-2   -4.478630958965470E-2    9.171503228165948E-1    4.244547847869810E-2
 9.779327685429282E5     9.173778355980370E-1    4.215890563663269E-2    8.324768962521613E-2   -4.456345757853512E-2    8.332155391825929E-2   -4.463212087824897E-2    9.173239472653213E-1    4.229248365740523E-2
 9.853942612445805E5     9.176048644493605E-1    4.197060035346172E-2    8.306965925445453E-2   -4.441264495518306E-2    8.313808235150884E-2   -4.448706072495960E-2    9.174906910374180E-1    4.210125796654698E-2
 9.929126841106854E5     9.177823775563166E-1    4.182426856357781E-2    8.288611492709076E-2   -4.426840323849370E-2    8.295450182292272E-2   -4.433525776486456E-2    9.176773176154478E-1    4.194896142777149E-2
 1.000488471510578E6     9.179532927512527E-1    4.168535925863404E-2    8.270288965243779E-2   -4.411491047224236E-2    8.276861794707051E-2   -4.418677029495675E-2    9.178306511861397E-1    4.180067166300439E-2
 1.008122061127771E6     9.181338544692165E-1    4.150925038161875E-2    8.252234045970223E-2   -4.396925701869400E-2    8.258795981002759E-2   -4.403837288943535E-2    9.180433753603346E-1    4.163589272095611E-2
 1.015813893985245E6     9.183214393665327E-1    4.136564832286727E-2    8.233885160024305E-2   -4.382173763526313E-2    8.240541869637180E-2   -4.389779667452946E-2    9.181907416509522E-1    4.148189035681846E-2
 1.023564414470923E6     9.184707120876762E-1    4.118514877965893E-2    8.215804392337901E-2   -4.367868324913184E-2    8.222382825150808E-2   -4.375037622962413E-2    9.183467215800148E-1    4.131846565554319E-2
 1.031374070363347E6     9.186401611527956E-1    4.103858558337851E-2    8.197802680833258E-2   -4.353758702256626E-2    8.204204466162930E-2   -4.360866954545507E-2    9.185129820024472E-1    4.113651588025145E-2
 1.039243312857548E6     9.188139016434222E-1    4.083113490264728E-2    8.179583299371156E-2   -4.339842830623081E-2    8.186141604601330E-2   -4.345921182856496E-2    9.187132643930281E-1    4.098155650807319E-2
 1.047172596591111E6     9.190016621954303E-1    4.068353323650205E-2    8.162110806796943E-2   -4.325335500818865E-2    8.167755855887091E-2   -4.332172660248463E-2    9.188960409468736E-1    4.078505076031561E-2
 1.055162379670449E6     9.191487838359020E-1    4.052854728553097E-2    8.143833074959145E-2   -4.310421322669029E-2    8.150476405217565E-2   -4.317866288018761E-2    9.190837986250499E-1    4.065014628500246E-2
 1.063213123697260E6     9.193395355751690E-1    4.040707121169559E-2    8.125835750727228E-2   -4.296474223143246E-2    8.132136741017160E-2   -4.304257850190554E-2    9.192529998445779E-1    4.048320030937094E-2
 1.071325293795198E6     9.195220172977270E-1    4.024439659200426E-2    8.107802094641260E-2   -4.282685835174758E-2    8.114525663592090E-2   -4.289893133058516E-2    9.194642281699416E-1    4.030477002991791E-2
 1.079499358636750E6     9.196950963861191E-1    4.008701044566471E-2    8.089819066693799E-2   -4.268493402543685E-2    8.096446264151337E-2   -4.276130303108543E-2    9.196265785626434E-1    4.017628224074079E-2
 1.087735790470306E6     9.198328065624313E-1    3.994948099482521E-2    8.072365314135846E-2   -4.253911209104100E-2    8.078485701795519E-2   -4.261812923350713E-2    9.197903509772010E-1    4.003391203900535E-2
 1.096035065147453E6     9.200107707259065E-1    3.981304170225519E-2    8.054327919663389E-2   -4.240369702037618E-2    8.060146308298771E-2   -4.247856760703459E-2    9.199599018821851E-1    3.988611252430742E-2
 1.104397662150453E6     9.201537074408063E-1    3.963175975567404E-2    8.036499648377986E-2   -4.226347924137046E-2    8.042199692141368E-2   -4.234261925431448E-2    9.201439442099386E-1    3.971628710800152E-2
 1.112824064619953E6     9.203392189968811E-1    3.950166350057596E-2    8.018536077604199E-2   -4.212676939314814E-2    8.023972664787740E-2   -4.219958860293965E-2    9.202904561312903E-1    3.955014964354378E-2
 1.121314759382903E6     9.205201228575031E-1    3.931955846826792E-2    8.000809174152028E-2   -4.199286182804352E-2    8.006469814546081E-2   -4.206708856021333E-2    9.204610796161109E-1    3.938600477341737E-2
 1.129870236980669E6     9.207055275490840E-1    3.916227834197770E-2    7.983145432434000E-2   -4.185783810365092E-2    7.988378046021617E-2   -4.193048208785331E-2    9.206504535732368E-1    3.923109397376998E-2
 1.138490991697383E6     9.208419986166378E-1    3.902711556613458E-2    7.965463284059852E-2   -4.171722872154865E-2    7.970205086240384E-2   -4.178757996632731E-2    9.208174742386057E-1    3.907096737318023E-2
 1.147177521588496E6     9.210241961180083E-1    3.890697122177302E-2    7.947294892822489E-2   -4.157372102415291E-2    7.952717269950070E-2   -4.164933539648264E-2    9.209871324260400E-1    3.889984913328207E-2
 1.155930328509552E6     9.212126130234454E-1    3.872713514771851E-2    7.929576198314375E-2   -4.143836923697241E-2    7.934746441163394E-2   -4.151227680364954E-2    9.211243710694250E-1    3.875546872988302E-2
 1.164749918145190E6     9.213895979084425E-1    3.853931808404336E-2    7.911843786748152E-2   -4.130501013896096E-2    7.917126866309832E-2   -4.137358454051555E-2    9.213277521653059E-1    3.861664292808371E-2
 1.173636800038349E6     9.215582292073289E-1    3.840519937281806E-2    7.893624391164358E-2   -4.117279097864299E-2    7.899265401369360E-2   -4.123795809115281E-2    9.215095926197810E-1    3.843419937802761E-2
 1.182591487619709E6     9.217213112830097E-1    3.823683821655492E-2    7.875879347505166E-2   -4.103019869325816E-2    7.881192151284760E-2   -4.110023623810821E-2    9.216907216475441E-1    3.830080718403404E-2
 1.191614498237359E6     9.218721260622466E-1    3.808068904684385E-2    7.858353493729371E-2   -4.089384629173370E-2    7.863337619226618E-2   -4.095827454124960E-2    9.218601854960573E-1    3.813316491965226E-2
 1.200706353186678E6     9.220416545793226E-1    3.792934484859421E-2    7.840914396686240E-2   -4.075196143355501E-2    7.845602802555149E-2   -4.082055766764978E-2    9.220192413657538E-1    3.799969447632685E-2
 1.209867577740467E6     9.222213643082968E-1    3.777244785360517E-2    7.822913849753076E-2   -4.061763584269868E-2    7.828315003243215E-2   -4.067963731258082E-2    9.221655763592206E-1    3.786535999456887E-2
 1.219098701179276E6     9.224171352709849E-1    3.763489168131435E-2    7.805703168205941E-2   -4.048159144350373E-2    7.810464305185424E-2   -4.054281604701064E-2    9.223686343553389E-1    3.773413025263788E-2
 1.228400256821998E6     9.225374738276161E-1    3.747170746662772E-2    7.788049946282408E-2   -4.034167731241397E-2    7.792549596270007E-2   -4.040559678076517E-2    9.225083051628711E-1    3.756396057862295E-2
 1.237772782056674E6     9.227355957411941E-1    3.729298323710893E-2    7.770547279895577E-2   -4.020304409463503E-2    7.775174935450202E-2   -4.026909931118972E-2    9.226731542471256E-1    3.737015691534303E-2
 1.247216818371540E6     9.228900214993587E-1    3.715055744107359E-2    7.753117131352880E-2   -4.006540439504711E-2    7.758043440475271E-2   -4.013270952354056E-2    9.228639257062554E-1    3.723688541367908E-2
 1.256732911386322E6     9.230720989742248E-1    3.698363804725319E-2    7.735624362156206E-2   -3.992351751513667E-2    7.740711708980999E-2   -3.999112172997350E-2    9.230433565553725E-1    3.710572508484074E-2
 1.266321610883739E6     9.232162974090232E-1    3.683815593851169E-2    7.718526250224277E-2   -3.978835639166747E-2    7.723524570473946E-2   -3.985099518055858E-2    9.232020722010965E-1    3.694432651902198E-2
 1.275983470841281E6     9.233875748755962E-1    3.669681613109395E-2    7.701357606068830E-2   -3.964959987577557E-2    7.706079529233688E-2   -3.970940213698061E-2    9.234023969136721E-1    3.676349074153032E-2
 1.285719049463211E6     9.235695789399218E-1    3.655248155568423E-2    7.684323791110027E-2   -3.950958547317338E-2    7.688650943828618E-2   -3.957362401155793E-2    9.235607504878487E-1    3.661960849392797E-2
 1.295528909212810E6     9.237574921384875E-1    3.639019887955570E-2    7.667617476946807E-2   -3.937274161997566E-2    7.672186136782765E-2   -3.943505298124499E-2    9.237014901452966E-1    3.646529771936820E-2
 1.305413616844883E6     9.238923910342631E-1    3.623397503635468E-2    7.650717162371244E-2   -3.923431188332169E-2    7.655128415598428E-2   -3.929672770944016E-2    9.238642004904736E-1    3.630988929512033E-2
 1.315373743438491E6     9.240776474786453E-1    3.606558177902880E-2    7.634042695812186E-2   -3.909801855934437E-2    7.638169943285854E-2   -3.915769178985919E-2    9.240294808974826E-1    3.615474036688436E-2
 1.325409864429950E6     9.242229378965217E-1    3.594953781584855E-2    7.617510517288804E-2   -3.895686034943473E-2    7.621369382975823E-2   -3.901624596430870E-2    9.241718511583569E-1    3.597421956868836E-2
 1.335522559646084E6     9.243849915759417E-1    3.578992889866160E-2    7.600826095438028E-2   -3.882029663842528E-2    7.604804531606721E-2   -3.888192217261344E-2    9.243186805016065E-1    3.580088775164339E-2
 1.345712413337699E6     9.245307707338541E-1    3.562968574209372E-2    7.584444426454978E-2   -3.868705770204000E-2    7.588853678737666E-2   -3.874324384922246E-2    9.244933047855516E-1    3.564592511868506E-2
 1.355980014213373E6     9.246903306406786E-1    3.546976491038913E-2    7.568423929178636E-2   -3.854817808161243E-2    7.572132190275087E-2   -3.860529956741238E-2    9.246364743933562E-1    3.550739464478476E-2
 1.366325955473440E6     9.248560629409244E-1    3.530899192620483E-2    7.552461850807951E-2   -3.840947810072486E-2    7.555959173870569E-2   -3.846425657966898E-2    9.248047311723516E-1    3.536460771492762E-2
 1.376750834844268E6     9.250031532816345E-1    3.514836474206998E-2    7.535695195804490E-2   -3.827354485248177E-2    7.540055240397181E-2   -3.833267927324376E-2    9.249949055046984E-1    3.521716596073258E-2
 1.387255254612807E6     9.251511357581301E-1    3.496447276865714E-2    7.519843250258509E-2   -3.813708113003366E-2    7.524255816099827E-2   -3.819297365213839E-2    9.251658164590136E-1    3.506009237241987E-2
 1.397839821661363E6     9.252798635812045E-1    3.481944426798462E-2    7.503448403064057E-2   -3.800426323391204E-2    7.508125293689495E-2   -3.805716047950325E-2    9.253037249590619E-1    3.490782737753229E-2
 1.408505147502673E6     9.254577667907665E-1    3.467657979725830E-2    7.487343582855795E-2   -3.787221030233350E-2    7.491653459361597E-2   -3.792177817943413E-2    9.254365427310538E-1    3.475037065225115E-2
 1.419251848315235E6     9.255916611993793E-1    3.455817090938926E-2    7.471890610806999E-2   -3.773967655492592E-2    7.476073383935979E-2   -3.779014888434657E-2    9.255900029131935E-1    3.459514609508071E-2
 1.430080544978898E6     9.257703378859700E-1    3.440318115580519E-2    7.456265084652831E-2   -3.760304791565775E-2    7.460419605894736E-2   -3.765759141553540E-2    9.257338452372399E-1    3.442970223623996E-2
 1.440991863110751E6     9.259032875991230E-1    3.424970023947724E-2    7.440602322136380E-2   -3.747226730460032E-2    7.445243236757587E-2   -3.752674028757595E-2    9.258940829141225E-1    3.429717421266643E-2
 1.451986433101243E6     9.260290711711748E-1    3.408142450000647E-2    7.425051597608610E-2   -3.734041727164484E-2    7.429379490214900E-2   -3.739400939551662E-2    9.260448021773442E-1    3.415630662662410E-2
 1.463064890150622E6     9.261755224373320E-1    3.393949675136095E-2    7.409028340713592E-2   -3.721134551102506E-2    7.413403688800357E-2   -3.726289178062714E-2    9.261849350612336E-1    3.400712878480386E-2
 1.474227874305625E6     9.262931254765059E-1    3.378189114797855E-2    7.393541599466991E-2   -3.708123688058946E-2    7.398551351592364E-2   -3.713545162345180E-2    9.263647623345730E-1    3.387388326863904E-2
 1.485476030496454E6     9.264747166747923E-1    3.363966818911469E-2    7.378382096044811E-2   -3.695160206557398E-2    7.382740672848070E-2   -3.700509461929964E-2    9.265300407925330E-1    3.372112597798983E-2
 1.496810008574050E6     9.266383907237342E-1    3.351489351053919E-2    7.362950980694707E-2   -3.682211835864405E-2    7.367502982426588E-2   -3.687523387968284E-2    9.266608635001817E-1    3.355831316935251E-2
 1.508230463347619E6     9.268089828087743E-1    3.337042687452375E-2    7.347581941813283E-2   -3.669963132880900E-2    7.352447607570027E-2   -3.674981239176969E-2    9.268447340705404E-1    3.343127864936483E-2
 1.519738054622472E6     9.269833541045747E-1    3.322549292577003E-2    7.332513745552041E-2   -3.657378728831854E-2    7.336870961460457E-2   -3.662575679435350E-2    9.269485502897992E-1    3.327266274460481E-2
 1.531333447238147E6     9.271025623460231E-1    3.307004814117141E-2    7.316993486199148E-2   -3.644477791300121E-2    7.321371879548808E-2   -3.649382468797072E-2    9.271007845922998E-1    3.312892624001493E-2
 1.543017311106810E6     9.272588883252835E-1    3.291440670584907E-2    7.301826089302149E-2   -3.632354676326865E-2    7.306037769026691E-2   -3.636879277757263E-2    9.272615264270943E-1    3.299723439336398E-2
 1.554790321251977E6     9.274063136777911E-1    3.280053283042302E-2    7.286346898980624E-2   -3.619702296036219E-2    7.290758463194186E-2   -3.624680821903679E-2    9.274385694568444E-1    3.285899627654292E-2
 1.566653157847488E6     9.275597820820004E-1    3.261817084744933E-2    7.271044623627429E-2   -3.607170836765724E-2    7.275080911386790E-2   -3.612199758985754E-2    9.275595031242124E-1    3.269811262251932E-2
 1.578606506256824E6     9.276859781790292E-1    3.246549750262467E-2    7.255374479497487E-2   -3.594671570334768E-2    7.259825133383899E-2   -3.599270305765942E-2    9.276950595929089E-1    3.256268139510674E-2
 1.590651057072690E6     9.278672350606584E-1    3.232873500653841E-2    7.240000301103222E-2   -3.582298312931052E-2    7.244539081600374E-2   -3.587238230493082E-2    9.278436711700954E-1    3.241942408776604E-2
 1.602787506156919E6     9.280593260714740E-1    3.220848437365956E-2    7.224837305645564E-2   -3.570187129321857E-2    7.228824101048008E-2   -3.574602503352525E-2    9.279643595240268E-1    3.228110655624539E-2
 1.615016554680682E6     9.281737796797713E-1    3.207642591906179E-2    7.209001750759129E-2   -3.557649474672521E-2    7.213627226975501E-2   -3.562327100749219E-2    9.281389350338121E-1    3.213225760664501E-2
 1.627338909164981E6     9.283316047812085E-1    3.192125283472537E-2    7.194082468304855E-2   -3.545237754271051E-2    7.197769319151691E-2   -3.549923461659741E-2    9.282938306574287E-1    3.200533861241021E-2
 1.639755281521474E6     9.284984728592999E-1    3.178710781741827E-2    7.178612269346261E-2   -3.532905836079595E-2    7.182720168711010E-2   -3.537598649426887E-2    9.284640955130303E-1    3.184632428654023E-2
 1.652266389093622E6     9.286155606402354E-1    3.163060914050051E-2    7.163778377605744E-2   -3.520588169940120E-2    7.166991732286751E-2   -3.524902393273556E-2    9.286119267571633E-1    3.172138769453909E-2
 1.664872954698102E6     9.287674756718639E-1    3.148754832124609E-2    7.148604805947285E-2   -3.508159695072410E-2    7.151822593054899E-2   -3.512534161221741E-2    9.287529565434182E-1    3.154397191352650E-2
 1.677575706666590E6     9.288972301853883E-1    3.133591494985823E-2    7.132656070360206E-2   -3.495971562137330E-2    7.136121016126994E-2   -3.500361381439881E-2    9.288766735426347E-1    3.139253047874166E-2
 1.690375378887833E6     9.290436139459505E-1    3.118110274851725E-2    7.117943413655153E-2   -3.484095954124907E-2    7.121306003948180E-2   -3.487817315899042E-2    9.290236894958845E-1    3.124800056136550E-2
 1.703272710850043E6     9.291860775755560E-1    3.104269796501814E-2    7.102550463203479E-2   -3.471187109511911E-2    7.106176154090635E-2   -3.475404299329629E-2    9.291710872025755E-1    3.111388152348517E-2
 1.716268447683636E6     9.293636906608305E-1    3.089312525892586E-2    7.087402248870785E-2   -3.459112313913629E-2    7.090826156110924E-2   -3.462732313775026E-2    9.293097396732750E-1    3.094787979150335E-2
 1.729363340204262E6     9.295104130493705E-1    3.075130778109493E-2    7.072109971031762E-2   -3.446211685505879E-2    7.076199885044884E-2   -3.450552472748899E-2    9.294552852980453E-1    3.078955615988826E-2
 1.742558144956193E6     9.296763960309427E-1    3.061665751223210E-2    7.057474265049396E-2   -3.433524275441703E-2    7.060695602554119E-2   -3.437999323768148E-2    9.295953142588166E-1    3.066096323228159E-2
 1.755853624256030E6     9.297700658383851E-1    3.043507645416144E-2    7.042538823404604E-2   -3.421267114233506E-2    7.046058456171084E-2   -3.425183100445535E-2    9.297169573571991E-1    3.049621873778405E-2
 1.769250546236744E6     9.299438347110793E-1    3.030961733340908E-2    7.027410008321756E-2   -3.409130137919619E-2    7.031515494209294E-2   -3.413056547331961E-2    9.298909227735599E-1    3.034703618421307E-2
 1.782749684892061E6     9.300448975470401E-1    3.014518643638079E-2    7.012289283956068E-2   -3.396429934429371E-2    7.016655326465331E-2   -3.400656688243826E-2    9.300705528132135E-1    3.019868336132763E-2
 1.796351820121167E6     9.302020334763714E-1    3.001131244307036E-2    6.997969046433344E-2   -3.383859102747345E-2    7.001751756866141E-2   -3.387903832558530E-2    9.301705276289574E-1    3.006167289026516E-2
 1.810057737773773E6     9.303187461450945E-1    2.984764125341003E-2    6.983550751459336E-2   -3.371715958219981E-2    6.986923286353439E-2   -3.375081269432713E-2    9.302929388486727E-1    2.991186131984599E-2
 1.823868229695514E6     9.305189636475596E-1    2.972287008212574E-2    6.968986037755558E-2   -3.359226386490363E-2    6.972480000837025E-2   -3.362833297862298E-2    9.304284068363075E-1    2.976013544020683E-2
 1.837784093773698E6     9.306397063837045E-1    2.956066719261159E-2    6.954744936510318E-2   -3.346717246944969E-2    6.957932832835372E-2   -3.350336785756225E-2    9.306200191834826E-1    2.962793176284916E-2
 1.851806133983411E6     9.307703052312513E-1    2.942008437865808E-2    6.940584781551105E-2   -3.334393032560976E-2    6.943781574182999E-2   -3.338232281337198E-2    9.307922614088029E-1    2.949645443136032E-2
 1.865935160433950E6     9.309154961205635E-1    2.927228864025128E-2    6.926450631766895E-2   -3.321530232028351E-2    6.929402239451550E-2   -3.325490832283734E-2    9.308846060554788E-1    2.933714002136403E-2
 1.880171989415638E6     9.310441233628269E-1    2.911181374230803E-2    6.911773881620188E-2   -3.309390164663775E-2    6.915037703701574E-2   -3.313156504955974E-2    9.310138764775157E-1    2.919096962658829E-2
 1.894517443446981E6     9.312028740528723E-1    2.898195505981335E-2    6.897792787778043E-2   -3.297237088615747E-2    6.901113024697708E-2   -3.300710399326477E-2    9.311364275578865E-1    2.904049014112954E-2
 1.908972351322182E6     9.313235114256332E-1    2.882428339508331E-2    6.884223025489168E-2   -3.285025221002493E-2    6.886874954266130E-2   -3.288558535884691E-2    9.312712962776383E-1    2.890220706879291E-2
 1.923537548159045E6     9.314458316581113E-1    2.867981578518028E-2    6.870892385486770E-2   -3.273174579642481E-2    6.873182551523660E-2   -3.276297740530265E-2    9.313751858809999E-1    2.874927748483066E-2
 1.938213875447196E6     9.315915628448583E-1    2.852299725196981E-2    6.856693244627138E-2   -3.260737355916112E-2    6.858862278784862E-2   -3.264088576955404E-2    9.315663920958063E-1    2.861403990193597E-2
 1.953002181096708E6     9.316719759441203E-1    2.836975145668216E-2    6.842762518176922E-2   -3.248808198505293E-2    6.846226111807244E-2   -3.251558848297190E-2    9.317220585747218E-1    2.847351953905291E-2
 1.967903319487111E6     9.318193875015867E-1    2.821750502676164E-2    6.828501821467886E-2   -3.237055330855954E-2    6.831985779919707E-2   -3.240344512814356E-2    9.318305592341081E-1    2.831505655302721E-2
 1.982918151516703E6     9.319727127049898E-1    2.808085330290320E-2    6.815468342609644E-2   -3.225193761740119E-2    6.818371895070804E-2   -3.228317281696987E-2    9.319825886086712E-1    2.818826315760709E-2
 1.998047544652348E6     9.321008571000181E-1    2.793829890537577E-2    6.801772754605470E-2   -3.213086337988105E-2    6.804450092024088E-2   -3.216260659020149E-2    9.320874483077838E-1    2.802524571951704E-2
 2.013292372979546E6     9.321939363946464E-1    2.779778645472581E-2    6.787810561942420E-2   -3.201605131031920E-2    6.790679455920508E-2   -3.204549532190758E-2    9.322260702035268E-1    2.789025126975688E-2
 2.028653517252947E6     9.323255392669514E-1    2.764870734182151E-2    6.774131150305060E-2   -3.189913747798662E-2    6.777153168758615E-2   -3.192626551963303E-2    9.323771695740123E-1    2.774544295835657E-2
 2.044131864947255E6     9.324716160778348E-1    2.750947720762375E-2    6.760867747937040E-2   -3.178311165702201E-2    6.763321390293123E-2   -3.180965373488176E-2    9.324709699474940E-1    2.758923278635379E-2
 2.059728310308467E6     9.325416125533433E-1    2.736415845430547E-2    6.746538513425000E-2   -3.166487200793088E-2    6.750134544067592E-2   -3.169486422095055E-2    9.326032196467411E-1    2.745642149794631E-2
 2.075443754405562E6     9.326919918551589E-1    2.723087314870142E-2    6.733526423314685E-2   -3.155293178714564E-2    6.736672938270422E-2   -3.157892835203354E-2    9.327563014002052E-1    2.732310947564976E-2
 2.091279105182548E6     9.328502191759390E-1    2.709471554459543E-2    6.720210993391879E-2   -3.143384755886065E-2    6.723030121149394E-2   -3.146319297392870E-2    9.328500171007588E-1    2.717979642362505E-2
 2.107235277510921E6     9.329810668307414E-1    2.695770998388909E-2    6.706448444804089E-2   -3.132037480047824E-2    6.709039982936066E-2   -3.134649189956518E-2    9.329702554322193E-1    2.703803079368568E-2
 2.123313193242529E6     9.330999440941238E-1    2.681259533975003E-2    6.692848573624310E-2   -3.120583896702643E-2    6.695164547627909E-2   -3.123170436318812E-2    9.330813133989997E-1    2.689711912666017E-2
 2.139513781262815E6     9.331802603366829E-1    2.667489047793383E-2    6.679605962080912E-2   -3.109346597269891E-2    6.681716997469463E-2   -3.111444697630505E-2    9.332423321932278E-1    2.675897944349591E-2
 2.155837977544490E6     9.333782835678254E-1    2.653298489361764E-2    6.665774746120129E-2   -3.098066842170832E-2    6.668307023295157E-2   -3.099983847463876E-2    9.333498148884478E-1    2.663279112437579E-2
 2.172286725201612E6     9.335284154500872E-1    2.640509002321748E-2    6.652561791392771E-2   -3.086658957977042E-2    6.654490009945545E-2   -3.088476096285137E-2    9.334504435694583E-1    2.649167227019169E-2
 2.188860974544063E6     9.336467233580188E-1    2.625472012808672E-2    6.639229836225531E-2   -3.075577569751075E-2    6.640910870473117E-2   -3.077082415389330E-2    9.336115127641994E-1    2.634355592414238E-2
 2.205561683132472E6     9.337569239766463E-1    2.611531083444096E-2    6.625636472537853E-2   -3.064194955399551E-2    6.627952967845455E-2   -3.065368675624529E-2    9.337807748103313E-1    2.618764138452823E-2
 2.222389815833514E6     9.338933083863876E-1    2.597624733485753E-2    6.611941646737915E-2   -3.052880845035390E-2    6.613929052196132E-2   -3.054059640526887E-2    9.338905729954172E-1    2.604978692548880E-2
 2.239346344875663E6     9.339934534303208E-1    2.585259814768808E-2    6.598205886240563E-2   -3.041142270131661E-2    6.600314291240440E-2   -3.042129163756158E-2    9.340054299000572E-1    2.592509635990740E-2
 2.256432249905369E6     9.341326384807320E-1    2.573072727474473E-2    6.585112495880871E-2   -3.029788672754567E-2    6.586769887838724E-2   -3.030241535219122E-2    9.341430400786350E-1    2.578807069303288E-2
 2.273648518043640E6     9.342649026903813E-1    2.557112668988835E-2    6.571542620652981E-2   -3.018307953590806E-2    6.573265875396450E-2   -3.018767100954407E-2    9.342806344737630E-1    2.564172213304352E-2
 2.290996143943099E6     9.343916904444795E-1    2.543719670441219E-2    6.558259850051831E-2   -3.007226533236454E-2    6.559942305685118E-2   -3.006576721869115E-2    9.343758631105423E-1    2.549893063286154E-2
 2.308476129845417E6     9.345626653439824E-1    2.530159192582945E-2    6.544693721572603E-2   -2.996073960405166E-2    6.547181126195120E-2   -2.995048714609512E-2    9.345084890899021E-1    2.536519029707287E-2
 2.326089485639235E6     9.346648160218261E-1    2.517182254933162E-2    6.531516146706146E-2   -2.984431953252885E-2    6.533785891172500E-2   -2.982969442375080E-2    9.346161784316593E-1    2.523858279956786E-2
 2.343837228918507E6     9.348240867469623E-1    2.503281266416889E-2    6.518166703058631E-2   -2.973149761473058E-2    6.520828191046067E-2   -2.971031570530987E-2    9.347394329892862E-1    2.509423662314391E-2
 2.361720385041283E6     9.349418497281842E-1    2.487122759196948E-2    6.504841893861288E-2   -2.961602400106337E-2    6.508335603209280E-2   -2.960015791152333E-2    9.349069506900854E-1    2.493664071532332E-2
 2.379739987188969E6     9.350721120414470E-1    2.475370063948198E-2    6.492106454570604E-2   -2.949562832384467E-2    6.495615007530572E-2   -2.947815397204860E-2    9.350002065243104E-1    2.480671353318830E-2
 2.397897076425990E6     9.352298473159071E-1    2.457566891611636E-2    6.478852913488443E-2   -2.938349477570720E-2    6.482997856071515E-2   -2.936436657691255E-2    9.351350533678212E-1    2.467567370937470E-2
 2.416192701759947E6     9.353251219855688E-1    2.443027487595237E-2    6.466102302832687E-2   -2.926959066323463E-2    6.470654558590122E-2   -2.924710631136162E-2    9.352722462880535E-1    2.454146388247274E-2
 2.434627920202243E6     9.354662459385226E-1    2.428529868589978E-2    6.452570984738508E-2   -2.915078159175366E-2    6.458483664317018E-2   -2.913197841283952E-2    9.354072879356670E-1    2.438647441464191E-2
 2.453203796829114E6     9.356064700994139E-1    2.412913722453617E-2    6.440262052392323E-2   -2.903400766537325E-2    6.445665617142685E-2   -2.902085555959663E-2    9.355097289292171E-1    2.421927583858846E-2
 2.471921404843189E6     9.357584660908965E-1    2.397210444288407E-2    6.427605198885081E-2   -2.891891890765663E-2    6.433422931972459E-2   -2.890688386038611E-2    9.356537136050935E-1    2.409572777055399E-2
 2.490781825635486E6     9.358741196294725E-1    2.384470495540264E-2    6.415307607972356E-2   -2.880506485439199E-2    6.421428811808025E-2   -2.879450058474310E-2    9.357731087775111E-1    2.394214303558432E-2
 2.509786148847881E6     9.361604313076203E-1    2.247506597342271E-2    6.448178751310714E-2   -2.833280036884394E-2    6.403918652876794E-2   -2.927479921689740E-2    9.363305683593971E-1    2.432068733148258E-2
 2.528935472436085E6     9.362687314269396E-1    2.242253217626470E-2    6.435335409609143E-2   -2.819400646493782E-2    6.391835077926084E-2   -2.914219651117848E-2    9.364068421671859E-1    2.419323293587413E-2
 2.548230902733043E6     9.363528543862512E-1    2.216972231438926E-2    6.422455651631506E-2   -2.809443335329112E-2    6.380157823213306E-2   -2.902627500327403E-2    9.365255056256594E-1    2.410673090736852E-2
 2.567673554512876E6     9.364821614963017E-1    2.184926871780206E-2    6.410633417633603E-2   -2.797536509547615E-2    6.367669757667246E-2   -2.890405230769097E-2    9.366378112487675E-1    2.400411312618340E-2
 2.587264551055275E6     9.365805201094221E-1    2.165189213287858E-2    6.399270154363028E-2   -2.786431682650122E-2    6.356421398810172E-2   -2.878745740234175E-2    9.367676405974934E-1    2.376968379980885E-2
 2.607005024210399E6     9.367265318048269E-1    2.163913108492255E-2    6.387019687523070E-2   -2.775096708259551E-2    6.346936118822617E-2   -2.863869612094807E-2    9.368848299343929E-1    2.368414393766324E-2
 2.626896114464281E6     9.368922135728922E-1    2.145168701733644E-2    6.374330709990397E-2   -2.765252416117208E-2    6.335994025441111E-2   -2.852205537744575E-2    9.369915348569027E-1    2.349597269527812E-2
 2.646938971004693E6     9.369645835445283E-1    2.121989475162239E-2    6.362508417532974E-2   -2.753997444733552E-2    6.323952139998300E-2   -2.841072853474548E-2    9.371003391564742E-1    2.331792019322816E-2
 2.667134751787555E6     9.370467026601332E-1    2.091826212592194E-2    6.348230754989292E-2   -2.745691135242060E-2    6.313802490701462E-2   -2.828269774658066E-2    9.372084407559431E-1    2.318021059790746E-2
 2.687484623603833E6     9.371678380600578E-1    2.078872040660053E-2    6.337859369962910E-2   -2.733091818579604E-2    6.302122285266774E-2   -2.817133383318174E-2    9.373392361306614E-1    2.304868888749810E-2
 2.707989762146940E6     9.373100980670911E-1    2.075126205153532E-2    6.326094896292428E-2   -2.723027742405563E-2    6.290788740356823E-2   -2.805386362768554E-2    9.374243881685506E-1    2.280910861638256E-2
 2.728651352080688E6     9.373911539988236E-1    2.069004399802492E-2    6.314759526206373E-2   -2.710745094880576E-2    6.280608866488141E-2   -2.793123038163655E-2    9.376063624487212E-1    2.284215948460206E-2
 2.749470587107692E6     9.375326756073451E-1    2.060186198163210E-2    6.303142631267794E-2   -2.699283253563709E-2    6.268700256621099E-2   -2.781295137104621E-2    9.376724623871959E-1    2.243404508247568E-2
 2.770448670038360E6     9.376321662503899E-1    2.034517239295810E-2    6.289361583209802E-2   -2.691813010123714E-2    6.257369986962823E-2   -2.770092170848121E-2    9.377894200525618E-1    2.242370065154499E-2
 2.791586812860380E6     9.378099497831029E-1    2.027851535465206E-2    6.277456890454519E-2   -2.680937504730111E-2    6.246539022147973E-2   -2.759151257937870E-2    9.379257532502970E-1    2.229271366176975E-2
 2.812886236808732E6     9.379188802856525E-1    2.011936065907707E-2    6.266875268664249E-2   -2.668853336338057E-2    6.234858766361202E-2   -2.748669459139879E-2    9.380172969247083E-1    2.207638356587882E-2
 2.834348172436268E6     9.379713646373311E-1    1.980910521680880E-2    6.254579659642003E-2   -2.659030432896114E-2    6.223392148018380E-2   -2.736775843949871E-2    9.381711381899894E-1    2.195430597578589E-2
 2.855973859684773E6     9.380949906326186E-1    1.977350947617277E-2    6.242764375111425E-2   -2.647586260585595E-2    6.212504482296455E-2   -2.725684146793788E-2    9.383059654491526E-1    2.186389491018216E-2
 2.877764547956619E6     9.381969119497267E-1    1.947779971009772E-2    6.232059127956778E-2   -2.636428282107316E-2    6.200525373446041E-2   -2.713836654649862E-2    9.383933243920265E-1    2.172625249152716E-2
 2.899721496186967E6     9.383680774867447E-1    1.945261292786126E-2    6.220214687822397E-2   -2.626655154002252E-2    6.190735001916227E-2   -2.701478313682368E-2    9.385193609198345E-1    2.154498225315668E-2
 2.921845972916440E6     9.384779186958027E-1    1.932199416382185E-2    6.208976029327229E-2   -2.614773470042530E-2    6.178914027752305E-2   -2.690528216204627E-2    9.387183815554435E-1    2.155478965277899E-2
 2.944139256364495E6     9.385828773324019E-1    1.925221594801052E-2    6.197075815578821E-2   -2.604445861521593E-2    6.168195573633591E-2   -2.679344865286205E-2    9.388622129701796E-1    2.147142541384517E-2
 2.966602634503201E6     9.386569307162800E-1    1.888437952609230E-2    6.184592489763477E-2   -2.595595209880322E-2    6.156459524738740E-2   -2.668015817439841E-2    9.390029875486263E-1    2.136891421638047E-2
 2.989237405131679E6     9.388128046495772E-1    1.893644274607794E-2    6.172600250437951E-2   -2.585238258726945E-2    6.146459674967333E-2   -2.656264302835806E-2    9.391487295060699E-1    2.140495059550841E-2
 3.012044875951098E6     9.388235822021850E-1    1.916137234863464E-2    6.162542282049706E-2   -2.589627304920060E-2    6.146597982656820E-2   -2.617652873471557E-2    9.392238535754522E-1    2.096802773893661E-2
 3.035026364640187E6     9.390158339594317E-1    1.912312140168468E-2    6.152030882845389E-2   -2.578379163483571E-2    6.133994039176161E-2   -2.607426551119770E-2    9.393253355041595E-1    2.090674028791155E-2
 3.058183198931389E6     9.390808336577036E-1    1.890574446209031E-2    6.140378455656613E-2   -2.568970928971477E-2    6.122042141048465E-2   -2.596625895155478E-2    9.394336771632178E-1    2.061146749689679E-2
 3.081516716687564E6     9.391533893296573E-1    1.875510739099846E-2    6.128773086056532E-2   -2.557390584203587E-2    6.111862711161083E-2   -2.586380499800130E-2    9.395860383505168E-1    2.058288409285636E-2
 3.105028265979277E6     9.393185120452535E-1    1.874024901247844E-2    6.118230594166284E-2   -2.545899771303519E-2    6.101635395217440E-2   -2.573988223836254E-2    9.396600485980462E-1    2.029627606525353E-2
 3.128719205162701E6     9.393899901037409E-1    1.859923041235058E-2    6.106165152955246E-2   -2.536226329876980E-2    6.090438927808738E-2   -2.563280147759975E-2    9.398013342674839E-1    2.020903512076185E-2
 3.152590902958065E6     9.394366288423762E-1    1.811000527584449E-2    6.093898894294038E-2   -2.527483396510783E-2    6.079921611463270E-2   -2.551965641538297E-2    9.398374608524822E-1    1.993212575409349E-2
 3.176644738528751E6     9.395940087849317E-1    1.809980673254735E-2    6.083584616359708E-2   -2.515879366785140E-2    6.068679912809899E-2   -2.541660029520822E-2    9.399957408272981E-1    1.975709604733013E-2
 3.200882101560967E6     9.396769297456494E-1    1.790871419216174E-2    6.072590753865631E-2   -2.505101477918554E-2    6.057582996023650E-2   -2.531906397954000E-2    9.400842038596429E-1    1.964017431861392E-2
 3.225304392344028E6     9.397850423321060E-1    1.761053395583919E-2    6.061900189942591E-2   -2.495418147404276E-2    6.046842542536694E-2   -2.520818922089230E-2    9.401948168562778E-1    1.942663865473223E-2
 3.249913021851289E6     9.399651214674299E-1    1.760549600129674E-2    6.051916317751556E-2   -2.483152263389671E-2    6.036209403285551E-2   -2.510477075538002E-2    9.403752588039547E-1    1.948542054066215E-2
 3.274709411821612E6     9.400408034087072E-1    1.724350035041332E-2    6.040402621552846E-2   -2.474690383576007E-2    6.026302703894265E-2   -2.498676814741072E-2    9.404667468319493E-1    1.931679338861603E-2
 3.299694994841541E6     9.401334064838561E-1    1.732269810752250E-2    6.030080336051044E-2   -2.462475453284741E-2    6.014961835999420E-2   -2.489676363817339E-2    9.405060788318870E-1    1.894883769573754E-2
 3.324871214428060E6     9.402663906952085E-1    1.702345707240404E-2    6.020255506662475E-2   -2.447223444711192E-2    5.999957046156137E-2   -2.484394768851332E-2    9.406486497041879E-1    1.902756623170485E-2
 3.350239525111979E6     9.403345682161328E-1    1.672179882437154E-2    6.009073452978349E-2   -2.436958269573912E-2    5.990197359201389E-2   -2.473452158502934E-2    9.407099285449307E-1    1.875900824506137E-2
 3.375801392522001E6     9.404402371919244E-1    1.669276818448966E-2    5.998767191519359E-2   -2.427362837689406E-2    5.978351200443840E-2   -2.463339850133324E-2    9.408044610073001E-1    1.861818784754924E-2
 3.401558293469354E6     9.405881813554535E-1    1.672644054583153E-2    5.987631088698582E-2   -2.421258857224704E-2    5.971962047694669E-2   -2.447870579972535E-2    9.409121249127382E-1    1.837993008116150E-2
 3.427511716033138E6     9.407162621852780E-1    1.653260321198160E-2    5.977029167600829E-2   -2.411896523773477E-2    5.960592738481212E-2   -2.437800631536659E-2    9.409685655378671E-1    1.821092448271101E-2
 3.453663159646295E6     9.408116539328084E-1    1.638594862336414E-2    5.967077488738291E-2   -2.400451636288323E-2    5.950672271033800E-2   -2.427910602836746E-2    9.410988133162778E-1    1.805980631181468E-2
 3.480014135182226E6     9.409311510802184E-1    1.631816972502124E-2    5.956553494774502E-2   -2.390064677569663E-2    5.938760498995842E-2   -2.418658848853031E-2    9.412085231539531E-1    1.789762230458631E-2
 3.506566165042107E6     9.410693785141285E-1    1.637399922450129E-2    5.944379283767025E-2   -2.384573925143280E-2    5.933079190990805E-2   -2.403641528698393E-2    9.413726222575106E-1    1.779503504980316E-2
 3.533320783242811E6     9.411942273085838E-1    1.622416906405883E-2    5.934802072000542E-2   -2.373115112775754E-2    5.922270881079656E-2   -2.392901922506223E-2    9.415933168218413E-1    1.804083194768695E-2
 3.560279535505542E6     9.412619926775092E-1    1.594154828531524E-2    5.924557967485378E-2   -2.363117878942691E-2    5.911627186779989E-2   -2.383611055814458E-2    9.416313366263611E-1    1.770892021936508E-2
 3.587443979345170E6     9.413799001238309E-1    1.576963223706273E-2    5.912943596992132E-2   -2.353971159530445E-2    5.901821873118115E-2   -2.371833019940954E-2    9.417254764853972E-1    1.755510457440199E-2
 3.614815684160168E6     9.414785064149594E-1    1.564145279625932E-2    5.902688792857874E-2   -2.343420118172280E-2    5.891634169941306E-2   -2.361659343890026E-2    9.418200396398437E-1    1.731141816667026E-2
 3.642396231323309E6     9.416130517910651E-1    1.546377270599101E-2    5.893209232617376E-2   -2.333132285048840E-2    5.879834155711277E-2   -2.352734627754373E-2    9.419331832147815E-1    1.711937507537854E-2
 3.670187214273024E6     9.417338384713099E-1    1.513988320383880E-2    5.881896164606239E-2   -2.301333408342651E-2    5.857118732917026E-2   -2.370545700881254E-2    9.419740011425123E-1    1.726786060138568E-2
 3.698190238605455E6     9.418527764912747E-1    1.486915984569786E-2    5.871020195213709E-2   -2.291471849396793E-2    5.845608489196102E-2   -2.361189390865827E-2    9.421383035172550E-1    1.716384282855374E-2
 3.726406922167240E6     9.419627302537114E-1    1.473683349173609E-2    5.860969620792521E-2   -2.280912327501858E-2    5.835869156005842E-2   -2.351766756182345E-2    9.422278156663000E-1    1.696901558805362E-2
 3.754838895148946E6     9.420795358389324E-1    1.457125217019565E-2    5.850707078360404E-2   -2.270645982887244E-2    5.825089048494441E-2   -2.341553097105574E-2    9.422894948558359E-1    1.658901330987773E-2
 3.783487800179276E6     9.420961683569153E-1    1.448553556826514E-2    5.840415556621854E-2   -2.266660059126723E-2    5.817575103404884E-2   -2.320523577184816E-2    9.423666923305434E-1    1.640069604510326E-2
 3.812355292419964E6     9.422831991207111E-1    1.448711917918263E-2    5.831950767833057E-2   -2.255604885174300E-2    5.806968856941574E-2   -2.310552122940399E-2    9.424791867038742E-1    1.622670283803845E-2
 3.841443039661395E6     9.423418348250664E-1    1.427541797098845E-2    5.821854488944865E-2   -2.244058538271647E-2    5.796403277340910E-2   -2.301115112555059E-2    9.426328511920491E-1    1.624658753624685E-2
 3.870752722418987E6     9.424225451796748E-1    1.424236437587978E-2    5.811296075733356E-2   -2.234726300407333E-2    5.786752855516548E-2   -2.290193532767204E-2    9.427341691466860E-1    1.611726401765019E-2
 3.900286034030236E6     9.425388108693972E-1    1.422258128956071E-2    5.802400779277961E-2   -2.223016941375024E-2    5.776041953905737E-2   -2.280941794361583E-2    9.429281486893943E-1    1.614957127412029E-2
 3.930044680752580E6     9.426204423850389E-1    1.405343658748881E-2    5.792115990557415E-2   -2.212881223815666E-2    5.765824260949578E-2   -2.270799781353573E-2    9.428702589274141E-1    1.566132848340101E-2
 3.960030381861967E6     9.427084170022108E-1    1.375275145517012E-2    5.782906276795624E-2   -2.202884389315328E-2    5.756480198282808E-2   -2.260579342450914E-2    9.429786695093286E-1    1.542673250564700E-2
 3.990244869752173E6     9.427995570618842E-1    1.357572895052708E-2    5.771563443354376E-2   -2.193524201541762E-2    5.745910931736067E-2   -2.251132205435803E-2    9.431294046253572E-1    1.547531486777345E-2
 4.020689890034929E6     9.428926023184936E-1    1.360161842960411E-2    5.762510888785511E-2   -2.194595356001332E-2    5.744845961845082E-2   -2.225002777765430E-2    9.432396640681063E-1    1.520476763025688E-2
 4.051367201640718E6     9.430545796439687E-1    1.360374633796153E-2    5.752714292585267E-2   -2.186152493568526E-2    5.733993811839334E-2   -2.215630718173392E-2    9.432747210008280E-1    1.497856680373188E-2
 4.082278576920427E6     9.430835545436416E-1    1.339095653349141E-2    5.743602482313771E-2   -2.174555956218569E-2    5.724643437143157E-2   -2.205554126079307E-2    9.434018861665300E-1    1.492011398835522E-2
 4.113425801747740E6     9.432043447825835E-1    1.333102518657907E-2    5.733021511818290E-2   -2.164403639439504E-2    5.714668253219856E-2   -2.196046175100111E-2    9.435605561700124E-1    1.480659381234386E-2
 4.144810675622302E6     9.432480687629966E-1    1.312281093511431E-2    5.723954562970172E-2   -2.154061941997007E-2    5.705435192205861E-2   -2.185416607884451E-2    9.436882757454145E-1    1.468653411685757E-2
 4.176435011773718E6     9.433533921114303E-1    1.298393708599155E-2    5.713715914332913E-2   -2.144556666311945E-2    5.695634054150673E-2   -2.175372041102554E-2    9.437135790882594E-1    1.442881947748670E-2
 4.208300637266261E6     9.434383019133697E-1    1.267670201169912E-2    5.704256047597653E-2   -2.134362304569346E-2    5.685768584763925E-2   -2.165661150300785E-2    9.437935035395065E-1    1.420873809055540E-2
 4.240409393104453E6     9.435526539845528E-1    1.264637311667200E-2    5.695342764195883E-2   -2.124176075787001E-2    5.677299783151709E-2   -2.154728947841338E-2    9.439477762295220E-1    1.420796525265016E-2
 4.272763134339464E6     9.436564088631365E-1    1.261018808960710E-2    5.687096704842100E-2   -2.113009530199161E-2    5.667569227409072E-2   -2.144478707848705E-2    9.440934842903155E-1    1.418533099593967E-2
 4.305363730176185E6     9.437333205476220E-1    1.235271607052307E-2    5.675635910878649E-2   -2.105598735360831E-2    5.657114721083431E-2   -2.135147023650548E-2    9.441798927073236E-1    1.409293447809481E-2
 4.338213064081349E6     9.438130460732731E-1    1.217563553255627E-2    5.666593190951930E-2   -2.089972660647734E-2    5.644386633853823E-2   -2.130217480335262E-2    9.441887507791427E-1    1.384117430059639E-2
 4.371313033892244E6     9.439323439623271E-1    1.199775636705899E-2    5.656236827832429E-2   -2.080570304943965E-2    5.634233275798708E-2   -2.121450645821968E-2    9.443818430698612E-1    1.381720566750737E-2
 4.404665551926396E6     9.440102108984407E-1    1.188911633284289E-2    5.646845890633061E-2   -2.070275425451425E-2    5.624551416935670E-2   -2.111225454736045E-2    9.444797391912345E-1    1.363382381190630E-2
 4.438272545092077E6     9.441261596383338E-1    1.182279657900439E-2    5.637712759698122E-2   -2.060493040633463E-2    5.614826913342008E-2   -2.101836025745511E-2    9.445713211911781E-1    1.350308020840463E-2
 4.472135954999580E6     9.441867497111430E-1    1.172289834269905E-2    5.628346243839862E-2   -2.049600083158718E-2    5.605902048255837E-2   -2.091844977316528E-2    9.446630306739465E-1    1.336161496383321E-2
 4.506257738073424E6     9.443281418905468E-1    1.157388579177894E-2    5.618873826552741E-2   -2.039820742494144E-2    5.595797936084734E-2   -2.082136175614274E-2    9.446382378912134E-1    1.297077448439158E-2
 4.540639865665382E6     9.443855910155363E-1    1.145804010039321E-2    5.609870430931072E-2   -2.035590121989310E-2    5.591078580599734E-2   -2.066212106544116E-2    9.448695521820726E-1    1.299875481777888E-2
 4.575284324168356E6     9.445410710906307E-1    1.129528729228266E-2    5.600481068084487E-2   -2.025040378209552E-2    5.582703883455312E-2   -2.055238211495137E-2    9.450415535368156E-1    1.297974404955867E-2
 4.610193115131186E6     9.446010432503312E-1    1.092376025298365E-2    5.589873183287131E-2   -2.004147613162315E-2    5.564607304482612E-2   -2.063692113734494E-2    9.449806327762991E-1    1.276160500528311E-2
 4.645368255374223E6     9.446687789280538E-1    1.077372770078828E-2    5.580817712845614E-2   -1.993863384447496E-2    5.553961035565965E-2   -2.054358971820298E-2    9.450333301969469E-1    1.261545167755334E-2
 4.680811777105891E6     9.447416829899054E-1    1.062665647367160E-2    5.571407226207296E-2   -1.983357760230809E-2    5.545080472803642E-2   -2.044481621287593E-2    9.451679138426674E-1    1.248334873076606E-2
 4.716525728040087E6     9.448057111191598E-1    1.038524889526759E-2    5.561112792845985E-2   -1.974247025324370E-2    5.536073576212592E-2   -2.034413374986725E-2    9.452614861358851E-1    1.244718859958889E-2
 4.752512171514469E6     9.449802836583902E-1    1.026747896526262E-2    5.552417769395555E-2   -1.963930785240911E-2    5.527127167794710E-2   -2.025265625667430E-2    9.453844604129809E-1    1.253450559832024E-2
 4.788773186609713E6     9.450121364162966E-1    1.011421695257117E-2    5.542397581776580E-2   -1.954817061068959E-2    5.518314040470675E-2   -2.016519773751689E-2    9.454282938913156E-1    1.205829239152633E-2
 4.825310868269563E6     9.451644950802303E-1    9.803444189933340E-3    5.531098968784623E-2   -1.941438910698756E-2    5.507166982128473E-2   -2.018260153372142E-2    9.454494903414852E-1    1.187693150838055E-2
 4.862127327421905E6     9.452590446812810E-1    9.630192915689194E-3    5.523436232765111E-2   -1.930431370649586E-2    5.498445961118987E-2   -2.007331515825608E-2    9.455998169863736E-1    1.188562244026057E-2
 4.899224691100715E6     9.453064375104110E-1    9.438748271570064E-3    5.513945197420331E-2   -1.921459391001595E-2    5.488615124419605E-2   -1.999400768458816E-2    9.456234452680532E-1    1.152123676471027E-2
 4.936605102568937E6     9.453811958793744E-1    9.295818288164472E-3    5.504955348097651E-2   -1.910956869245288E-2    5.480478759487262E-2   -1.988689700328584E-2    9.457859095831430E-1    1.166057713396410E-2
 4.974270721442348E6     9.454730471343031E-1    9.193098994131038E-3    5.495813904653813E-2   -1.900948898115928E-2    5.471767977247372E-2   -1.977689295437252E-2    9.458782692021753E-1    1.166076337788949E-2
 5.012223723814265E6     9.455886520274603E-1    9.040106899393302E-3    5.487229496194244E-2   -1.890886266259886E-2    5.462029723818429E-2   -1.969957546469427E-2    9.458684635183353E-1    1.122971821340878E-2
 5.050466302381308E6     9.456767141493407E-1    8.896776742115727E-3    5.478298540757322E-2   -1.880403390671641E-2    5.452958205933210E-2   -1.961005945898857E-2    9.459525282735741E-1    1.084626236754516E-2
 5.089000666570071E6     9.457263756277517E-1    8.669794620596798E-3    5.469583209289365E-2   -1.870558242465244E-2    5.444609312234187E-2   -1.951261385851035E-2    9.460636795385616E-1    1.078051645117381E-2
 5.127829042664761E6     9.458479059151309E-1    8.538448364599363E-3    5.461385934516052E-2   -1.860466897559332E-2    5.435412978970116E-2   -1.942038755960537E-2    9.461208218797802E-1    1.037977628917344E-2
 5.166953673935857E6     9.459048385966039E-1    8.383500718761537E-3    5.452396567910479E-2   -1.850179558375451E-2    5.426888205975496E-2   -1.932714373174347E-2    9.461783386526038E-1    1.020433745745385E-2
 5.206376820769652E6     9.459998091431743E-1    8.263524592738053E-3    5.442922215299974E-2   -1.840647628905150E-2    5.417567122731801E-2   -1.923383221816090E-2    9.462490920149101E-1    9.941566094777671E-3
 5.246100760798878E6     9.460806035537646E-1    8.054405775116812E-3    5.433208282291569E-2   -1.832684586778289E-2    5.408187865479259E-2   -1.916030583747376E-2    9.463132995753506E-1    9.867808973805566E-3
 5.286127789034322E6     9.462011875728326E-1    7.907082540273263E-3    5.425425257097000E-2   -1.821919662039664E-2    5.399377787651970E-2   -1.906567670721527E-2    9.464121789931654E-1    9.781963561791715E-3
 5.326460217997355E6     9.462306106622843E-1    8.195147380385674E-3    5.420265296664165E-2   -1.835935788540691E-2    5.406895945291384E-2   -1.860740962197873E-2    9.466685672154100E-1    9.367375873301834E-3
 5.367100377853584E6     9.463214552508001E-1    7.979234129991962E-3    5.411885275755045E-2   -1.825799880973073E-2    5.399227355092533E-2   -1.849396710953055E-2    9.467471396446258E-1    9.310678088217606E-3
 5.408050616547454E6     9.464283325950692E-1    7.886095762288988E-3    5.403319223080696E-2   -1.815730789454393E-2    5.389720850479181E-2   -1.840740762198866E-2    9.468807514607366E-1    9.486697401175404E-3
 5.449313299937895E6     9.464789545713593E-1    7.650723522273738E-3    5.394638203232546E-2   -1.806088980422016E-2    5.381880671494910E-2   -1.831413543098105E-2    9.469418784212230E-1    9.229287383591835E-3
 5.490890811935049E6     9.465355027951146E-1    7.092806391338421E-3    5.381877025755731E-2   -1.773510224504225E-2    5.357679492818999E-2   -1.856525442982757E-2    9.468057970519407E-1    9.072855329370064E-3
 5.532785554637930E6     9.466734663860707E-1    6.949903401895574E-3    5.374007106283607E-2   -1.762995312512159E-2    5.349526679095175E-2   -1.847073842876063E-2    9.469203978669702E-1    8.980340346330518E-3
 5.574999948473252E6     9.467393929058474E-1    7.195028252485989E-3    5.368929775880694E-2   -1.776177763364178E-2    5.356189825945327E-2   -1.802107787627677E-2    9.471562613870708E-1    8.670016281737969E-3
 5.617536432335250E6     9.467958212461882E-1    7.044508739444667E-3    5.360608723062915E-2   -1.767180481306749E-2    5.347549616649104E-2   -1.793059948569888E-2    9.471709813786786E-1    8.308618751149539E-3
 5.660397463726575E6     9.469175883279576E-1    6.889858928387379E-3    5.352194443798503E-2   -1.756774907119822E-2    5.339096592217558E-2   -1.784057102742668E-2    9.472629440541140E-1    8.131828466602386E-3
 5.703585518900323E6     9.470533673200557E-1    6.271199606224805E-3    5.339551911429569E-2   -1.725502828438311E-2    5.316187098554163E-2   -1.809707899332808E-2    9.471803246204498E-1    7.879188670584979E-3
 5.747103093003022E6     9.471403814595435E-1    6.096595560534240E-3    5.330889093474021E-2   -1.715505244160125E-2    5.307838667275233E-2   -1.800279356410295E-2    9.472764728271211E-1    7.608279181223013E-3
 5.790952700218840E6     9.471987211967250E-1    5.925378625827434E-3    5.323067123011747E-2   -1.705563341141956E-2    5.299501044536815E-2   -1.790868177013863E-2    9.472896686923004E-1    7.195432879645890E-3
 5.835136873914825E6     9.472297656965915E-1    6.245792070327646E-3    5.318295912884346E-2   -1.719678518138211E-2    5.306325517022847E-2   -1.745948337205719E-2    9.475516625690806E-1    7.288278615313860E-3
 5.879658166787256E6     9.473366086847039E-1    6.075360688566764E-3    5.309862580214589E-2   -1.709727361032342E-2    5.298314213147536E-2   -1.734893893183164E-2    9.475615245028786E-1    7.163249465054794E-3
 5.924519151009166E6     9.473557783464424E-1    5.870531077821963E-3    5.301873807803535E-2   -1.700064241345821E-2    5.290916489933648E-2   -1.725421890257206E-2    9.477238441706677E-1    7.036274002389782E-3
 5.969722418378883E6     9.474633280931720E-1    5.689714620791451E-3    5.293962548445649E-2   -1.690613668556607E-2    5.282432554334714E-2   -1.716080372005618E-2    9.478116890298450E-1    6.720806305926114E-3
 6.015270580469812E6     9.475633442429645E-1    5.525517830272196E-3    5.285143254619744E-2   -1.680194248235974E-2    5.274362947540107E-2   -1.706497227778563E-2    9.478099347486119E-1    6.567969101088169E-3
 6.061166268781302E6     9.475845836291281E-1    5.355198830672748E-3    5.277039674478157E-2   -1.670521154370142E-2    5.265860124753061E-2   -1.696727821882681E-2    9.479379556213050E-1    6.366412771021444E-3
 6.107412134890671E6     9.476551510278458E-1    5.141788087190460E-3    5.269075554924667E-2   -1.658141606755389E-2    5.255595698711182E-2   -1.689513044385768E-2    9.479581303813346E-1    6.054283609148631E-3
 6.154010850606443E6     9.477506340598779E-1    4.963295497190559E-3    5.261112511244917E-2   -1.647877986021300E-2    5.247096770149856E-2   -1.679831550083096E-2    9.480583907648300E-1    5.989108992024552E-3
 6.200965108122637E6     9.478443462750500E-1    4.811170620536448E-3    5.252873158938976E-2   -1.639980800096195E-2    5.239177904264829E-2   -1.670166420634261E-2    9.481367259050353E-1    6.077860909877558E-3
 6.248277620174343E6     9.478992516387971E-1    4.629954019385468E-3    5.244623838294703E-2   -1.630417900237657E-2    5.231634596362071E-2   -1.659623223671165E-2    9.481871078912187E-1    5.631277916505923E-3
 6.295951120194497E6     9.479687283842368E-1    4.472000934800621E-3    5.236210810905138E-2   -1.619931626934242E-2    5.223579199928439E-2   -1.650080377077766E-2    9.482384232523933E-1    5.451751476935427E-3
 6.343988362471664E6     9.480537730497228E-1    4.329178545295473E-3    5.228273945816859E-2   -1.612935156834409E-2    5.218334486611600E-2   -1.638927702644281E-2    9.483028444161680E-1    5.197641018804650E-3
 6.392392122309345E6     9.481560299462884E-1    4.118228953752235E-3    5.220103617900110E-2   -1.604448085520090E-2    5.210685623984207E-2   -1.629262660847799E-2    9.483848431652826E-1    4.973216711885105E-3
 6.441165196186168E6     9.481624626813988E-1    3.959922057517339E-3    5.212132440301261E-2   -1.594994806094996E-2    5.202747421239171E-2   -1.620020922327512E-2    9.484641555756111E-1    4.848610317708979E-3
 6.490310401917514E6     9.482622240526601E-1    3.784699278451113E-3    5.205057950920510E-2   -1.585046225907283E-2    5.195272913032634E-2   -1.609317075540691E-2    9.485465996215988E-1    4.819040301393658E-3
 6.539830578818345E6     9.483629823638524E-1    3.597155024378468E-3    5.196496658959703E-2   -1.576239058271051E-2    5.187757762896669E-2   -1.599950763351967E-2    9.486284907613030E-1    4.523951352671196E-3
 6.589728587867169E6     9.484184190069661E-1    3.420848854241473E-3    5.188409254533372E-2   -1.566600856740832E-2    5.179940143536386E-2   -1.590626898931053E-2    9.487006675090272E-1    4.413791689629565E-3
 6.640007311871376E6     9.484892762667947E-1    3.234423893390981E-3    5.181036435655871E-2   -1.556799109406443E-2    5.171660386709403E-2   -1.581585553713833E-2    9.487695545445592E-1    4.119452978042463E-3
 6.690669655633785E6     9.486000669410617E-1    3.046264323001372E-3    5.173096228098479E-2   -1.547088056164504E-2    5.164159915349074E-2   -1.571567262149415E-2    9.488598014447366E-1    4.048389677806910E-3
 6.741718546120445E6     9.486395507839747E-1    2.881782188762520E-3    5.165430304219627E-2   -1.537292563314445E-2    5.156682233611541E-2   -1.562445325548951E-2    9.488922177066214E-1    3.793908760438004E-3
 6.793156932629797E6     9.487229035043807E-1    2.692100392166826E-3    5.157547476592377E-2   -1.528808014463832E-2    5.149268101198858E-2   -1.552580196084009E-2    9.489553551823838E-1    3.591846275775603E-3
 6.844987786962981E6     9.487992169250010E-1    2.485602505593367E-3    5.149292354335821E-2   -1.519933379375796E-2    5.141876299863101E-2   -1.543549787706148E-2    9.490242207206280E-1    3.473779036205016E-3
 6.897214103595586E6     9.487881092124604E-1    2.196292733508980E-3    5.141236105904861E-2   -1.503784316505688E-2    5.127652786359334E-2   -1.540902907207532E-2    9.491289598356588E-1    3.150414663524228E-3
 6.949838899850640E6     9.488276438337023E-1    2.034914174412272E-3    5.134291337946052E-2   -1.493819363491251E-2    5.119933175321228E-2   -1.531044918708253E-2    9.492111553546649E-1    2.898256775054074E-3
 7.002865216072913E6     9.488943592498966E-1    1.543288352239239E-3    5.124117515437050E-2   -1.474533005666815E-2    5.104656011055694E-2   -1.540611176021831E-2    9.492898724183025E-1    2.597414922481825E-3
 7.056296115804635E6     9.489513255843445E-1    1.356039161966979E-3    5.116278799401101E-2   -1.465029582035620E-2    5.096790771339219E-2   -1.531264476985578E-2    9.493389265596511E-1    2.430505221229207E-3
 7.110134685962399E6     9.490903740496986E-1    1.114036165283447E-3    5.108900331811105E-2   -1.455712243486773E-2    5.089548443829115E-2   -1.521802693614960E-2    9.493830931963348E-1    2.155418841916429E-3
 7.164384037015557E6     9.492378993241909E-1    9.368211796006637E-4    5.101750492700476E-2   -1.446471537274855E-2    5.081924421132500E-2   -1.512569877405971E-2    9.494707016679348E-1    1.971454693498027E-3
 7.219047303165923E6     9.492454437519913E-1    7.470689353072314E-4    5.093964968700937E-2   -1.436954832046348E-2    5.075099818603131E-2   -1.503150478126625E-2    9.495299555181146E-1    1.747404739870557E-3
 7.274127642528819E6     9.494187801100331E-1    5.356825278962359E-4    5.086939756267684E-2   -1.427669994893918E-2    5.067794253702245E-2   -1.493297243776642E-2    9.495995785565243E-1    1.522485134646536E-3
 7.329628237315600E6     9.494740130630908E-1    1.888678132741977E-4    5.077126802461039E-2   -1.413664376161747E-2    5.058841278526455E-2   -1.496075420947805E-2    9.496955515183539E-1    1.302447435670983E-3
 7.385552294017412E6     9.495101566855217E-1    2.574384548784394E-5    5.069644376326903E-2   -1.403737687219372E-2    5.051836982554427E-2   -1.486699903424888E-2    9.498036688708877E-1    1.093851782545275E-3
 7.441903043590503E6     9.495174694944798E-1    3.220887988202164E-4    5.066642337279954E-2   -1.413029882105099E-2    5.056570618766586E-2   -1.440821491468973E-2    9.499003014044526E-1    9.422087660413203E-4
 7.498683741642874E6     9.496198393522416E-1    1.423820035507342E-4    5.059826594163946E-2   -1.403240567304163E-2    5.048997898388763E-2   -1.431087076122220E-2    9.499284104280438E-1    6.924991027005544E-4
 7.555897668622349E6     9.497585942706180E-1   -4.403258761098438E-4    5.049968813305402E-2   -1.379850931672208E-2    5.031432958269957E-2   -1.445751556860207E-2    9.500231619143104E-1    4.854737813911389E-4
 7.613548130006171E6     9.497987218452058E-1   -6.450428547271972E-4    5.042306646007153E-2   -1.369860279705565E-2    5.024008535707017E-2   -1.436323488838820E-2    9.500652708394473E-1    2.475903009350907E-4
 7.671638456491867E6     9.500594361426417E-1   -1.150075986689405E-3    5.029216763304645E-2   -1.350907392711182E-2    5.019496287694223E-2   -1.458940593905727E-2    9.501063043265411E-1    3.285235844254111E-5
 7.730172004189732E6     9.501346326646708E-1   -1.361539533371121E-3    5.022696318678715E-2   -1.341621928907860E-2    5.012535894436596E-2   -1.449242931908543E-2    9.501929361843603E-1   -1.641304642440099E-4
 7.789152154816771E6     9.502477698494163E-1   -1.585649511050484E-3    5.014901472684537E-2   -1.331989960451467E-2    5.005666093460013E-2   -1.439766281928263E-2    9.502762532583368E-1   -3.395087080009947E-4
 7.848582315891974E6     9.500457614858603E-1   -1.442621666704628E-3    5.013666854996177E-2   -1.331683229432332E-2    4.995672809003809E-2   -1.398191824662725E-2    9.503748578240500E-1   -5.477219172068424E-4
 7.908465920933248E6     9.501355498305142E-1   -1.655209374918029E-3    5.006449872082699E-2   -1.321998354133344E-2    4.988651051386450E-2   -1.388796076566287E-2    9.504567303054436E-1   -7.767494663068683E-4
 7.968806429655775E6     9.502177210657620E-1   -1.867968310410622E-3    4.999654530950368E-2   -1.312248004939784E-2    4.981757536427093E-2   -1.379311440433285E-2    9.505509945635936E-1   -9.870547826880758E-4
 8.029607328171868E6     9.502837399726696E-1   -2.036618885808388E-3    4.992250076002418E-2   -1.302568975740142E-2    4.974743176990407E-2   -1.369289702258726E-2    9.506089313857828E-1   -1.165875050400135E-3
 8.090872129192449E6     9.503646773772501E-1   -2.251070630239423E-3    4.985452583327740E-2   -1.293318766086746E-2    4.967624176654241E-2   -1.359793564122544E-2    9.506265022111821E-1   -1.389811078388333E-3
 8.152604372229892E6     9.504052382282556E-1   -2.478229464181211E-3    4.978405300123342E-2   -1.283579252735985E-2    4.961066936165658E-2   -1.350320391057286E-2    9.507391493047592E-1   -1.624015786842395E-3
 8.214807623802581E6     9.504558596977372E-1   -2.673190302088351E-3    4.971141693555279E-2   -1.274009230582506E-2    4.954007860930888E-2   -1.340550060549875E-2    9.507494743892150E-1   -1.804138679519830E-3
 8.277485477640945E6     9.505288431380421E-1   -2.883127597616951E-3    4.964494235822101E-2   -1.264369331000340E-2    4.947047243588581E-2   -1.331547764304688E-2    9.507932305391545E-1   -2.035506499574288E-3
 8.340641554895067E6     9.505892792410344E-1   -3.108646285367661E-3    4.957913045967873E-2   -1.254401526403377E-2    4.940698254651033E-2   -1.321947589272852E-2    9.509006290192370E-1   -2.239299554379797E-3
 8.404279504343957E6     9.506953461630859E-1   -3.302210536521691E-3    4.951180654808933E-2   -1.244914700580028E-2    4.934130958880028E-2   -1.312325766237130E-2    9.509743612350521E-1   -2.468698896777091E-3
 8.468403002606256E6     9.507155609032716E-1   -3.499870690039905E-3    4.943668002566599E-2   -1.235249169550859E-2    4.927711922772058E-2   -1.302781199689707E-2    9.510323595119597E-1   -2.686446672796402E-3
 8.533015754352720E6     9.507601254768219E-1   -3.583982318307746E-3    4.939467995147478E-2   -1.231383598200716E-2    4.924034549644980E-2   -1.279610103106440E-2    9.510986025175844E-1   -2.935066154579957E-3
 8.598121492520234E6     9.508286671906689E-1   -3.820025949756319E-3    4.932482275222546E-2   -1.221999475905044E-2    4.917299241271177E-2   -1.269887999101578E-2    9.511859208509242E-1   -3.102354734423627E-3
 8.663723978527457E6     9.511820936022036E-1   -4.502348686319578E-3    4.917767332048185E-2   -1.197247223228799E-2    4.910828242812183E-2   -1.307456280040606E-2    9.512543587772671E-1   -3.290548254794581E-3
 8.729827002492212E6     9.512136065218478E-1   -4.701813070368767E-3    4.910739038394898E-2   -1.187440920743806E-2    4.903626467601491E-2   -1.297986915424245E-2    9.512809696486879E-1   -3.498861054530529E-3
 8.796434383450346E6     9.512525470763196E-1   -4.953163383136801E-3    4.903896076013573E-2   -1.178406976866199E-2    4.897569475216169E-2   -1.288636288872686E-2    9.513983544372877E-1   -3.733239861311488E-3
 8.863549969576446E6     9.512130814536895E-1   -4.991646557999035E-3    4.901807786788408E-2   -1.173435966422708E-2    4.886569904246555E-2   -1.258802089096482E-2    9.514412741370003E-1   -3.955298771583710E-3
 8.931177638406139E6     9.512759622389555E-1   -5.190809621346769E-3    4.894818333315148E-2   -1.163496290441332E-2    4.880308144505587E-2   -1.249147729375393E-2    9.515485597368022E-1   -4.157376233524931E-3
 8.999321297060097E6     9.513199283712026E-1   -5.431285667314168E-3    4.887833270626431E-2   -1.153925703731178E-2    4.873464606552624E-2   -1.239549233339563E-2    9.515644919071369E-1   -4.398770097189212E-3
 9.067984882469844E6     9.513954162844259E-1   -5.640292367843081E-3    4.882103840330036E-2   -1.144269231598522E-2    4.866788184676539E-2   -1.229847714806436E-2    9.516036367543984E-1   -4.602907652784258E-3
 9.137172361605095E6     9.514603691861770E-1   -5.893516559378310E-3    4.875270114535522E-2   -1.134503037237573E-2    4.860536998651158E-2   -1.220248613838868E-2    9.516743899373830E-1   -4.810089467560866E-3
 9.206887731702998E6     9.514457197682937E-1   -5.677763033214090E-3    4.874080719909037E-2   -1.138368017154055E-2    4.861549469931060E-2   -1.175532723081581E-2    9.517465816026003E-1   -5.080372040008444E-3
 9.277135020499127E6     9.515735865980415E-1   -5.928512376577721E-3    4.867857111309910E-2   -1.129250085624272E-2    4.855495207497178E-2   -1.166075762944192E-2    9.518560669456873E-1   -5.340091299394830E-3
 9.347918286460072E6     9.516119106152934E-1   -6.137904400774712E-3    4.861396677243526E-2   -1.119257713570216E-2    4.849067161105915E-2   -1.156151118122419E-2    9.519496806440451E-1   -5.556225802958010E-3
 9.419241619017981E6     9.516913548164181E-1   -6.390147131673415E-3    4.855070405271285E-2   -1.109396761801168E-2    4.842675540666071E-2   -1.146510993158718E-2    9.520302426901289E-1   -5.785768285501414E-3
 9.491109138806809E6     9.517111604549376E-1   -6.608567258113211E-3    4.848704294748996E-2   -1.099652121514042E-2    4.836220756194456E-2   -1.136706635140996E-2    9.520332720033337E-1   -6.008766876659696E-3
 9.563524997900363E6     9.517237235667236E-1   -6.843491738895055E-3    4.842091414933625E-2   -1.089607236633182E-2    4.829792331679294E-2   -1.126707976935728E-2    9.520364352864085E-1   -6.226382504335192E-3
 9.636493380052259E6     9.518339650163056E-1   -7.033729993391431E-3    4.835569118004367E-2   -1.079888595706806E-2    4.823633727695397E-2   -1.117040029635261E-2    9.521469641268498E-1   -6.476188305505949E-3
 9.710018500937525E6     9.519226939400482E-1   -7.278293001233780E-3    4.829954671117841E-2   -1.070379175267267E-2    4.817286650087809E-2   -1.107229874029732E-2    9.522379618289810E-1   -6.704473000368737E-3
 9.784104608396223E6     9.519641593563692E-1   -7.812984939807454E-3    4.819677396873173E-2   -1.050524264741107E-2    4.803719592625859E-2   -1.119400143294751E-2    9.522373787050333E-1   -6.854255629303821E-3
 9.858755982678859E6     9.520309961727800E-1   -8.036514643449854E-3    4.813574402061875E-2   -1.040377635105907E-2    4.797866568703311E-2   -1.110070759120420E-2    9.522829841522038E-1   -7.115681321964318E-3
 9.933976936693633E6     9.520657317898722E-1   -8.271632448743035E-3    4.807114192267065E-2   -1.030622058433131E-2    4.791516104285676E-2   -1.100437380713034E-2    9.523896259715917E-1   -7.325897546126927E-3
 1.000977181625571E7     9.521535702193562E-1   -8.522108301249392E-3    4.800959751150231E-2   -1.020864539201896E-2    4.785801924729033E-2   -1.090722144659824E-2    9.524497034225109E-1   -7.550075017044573E-3
 1.008614500033817E7     9.522082922449318E-1   -8.737220579482898E-3    4.794909609760194E-2   -1.011195241875375E-2    4.779385743939246E-2   -1.080890620647161E-2    9.524771457799989E-1   -7.767181661419563E-3
 1.016310090132507E7     9.522764473816003E-1   -8.991367105590790E-3    4.788706952197902E-2   -1.001423178810779E-2    4.773446841096794E-2   -1.070922661627846E-2    9.525343048831285E-1   -8.011479209461252E-3
 1.024064396526634E7     9.522528398683326E-1   -8.953640578470022E-3    4.786149864330402E-2   -1.000733086009233E-2    4.774177247788526E-2   -1.038789942775037E-2    9.525871543777292E-1   -8.310041587924647E-3
 1.031877867213467E7     9.523458718015601E-1   -9.181490038239450E-3    4.779674571725029E-2   -9.909627628309501E-3    4.768020940933951E-2   -1.029002806181822E-2    9.526407191471518E-1   -8.540744285067106E-3
 1.039750953608436E7     9.524364871533565E-1   -9.427545952128691E-3    4.773724465173273E-2   -9.812491004982240E-3    4.761886466349428E-2   -1.018840145973714E-2    9.527208399576740E-1   -8.795701640563716E-3
 1.047684110571204E7     9.525078315088399E-1   -9.658904302009804E-3    4.767910907313166E-2   -9.707389532045817E-3    4.756189950379348E-2   -1.008834283967324E-2    9.527582660388760E-1   -9.021778080324160E-3
 1.055677796431950E7     9.525500435910509E-1   -9.901261915995246E-3    4.762008108653222E-2   -9.610505009568235E-3    4.749963300741603E-2   -9.991355426102577E-3    9.528146687198262E-1   -9.273055076966472E-3
 1.063732473017859E7     9.528579105325071E-1   -1.076201638511021E-2    4.745706305628983E-2   -9.337159017399285E-3    4.743068155232755E-2   -1.047344101865020E-2    9.528742691992260E-1   -9.450494731030443E-3
 1.071848605679777E7     9.528985627253372E-1   -1.102929857563410E-2    4.739669007444928E-2   -9.238581545071959E-3    4.737352519032972E-2   -1.037722698344252E-2    9.529104028747422E-1   -9.686528643280233E-3
 1.080026663319129E7     9.528283609409405E-1   -1.106399778740541E-2    4.737841538294828E-2   -9.176024750596066E-3    4.726016271591601E-2   -1.006336541113838E-2    9.530240846631143E-1   -9.927759229011847E-3
 1.088267118414987E7     9.528927648745761E-1   -1.135900573872322E-2    4.731880471599222E-2   -9.076332488459871E-3    4.720440671672720E-2   -9.964444797792897E-3    9.530679369771872E-1   -1.017219855306935E-2
 1.096570447051370E7     9.531001137924010E-1   -1.175556342857704E-2    4.721981392703434E-2   -8.937983497021379E-3    4.719824729613495E-2   -1.008127606613777E-2    9.530763334257640E-1   -1.044587623446463E-2
 1.104937128944762E7     9.531452888535695E-1   -1.202364563164004E-2    4.715979646527820E-2   -8.838584041563258E-3    4.714353244905324E-2   -9.983441505347052E-3    9.531420908529609E-1   -1.068398013296976E-2
 1.113367647471805E7     9.532111052475392E-1   -1.227627411758585E-2    4.710276883840281E-2   -8.736287073303052E-3    4.708843200789652E-2   -9.883780436912218E-3    9.531871308799005E-1   -1.094371535433824E-2
 1.121862489697252E7     9.530512363698245E-1   -1.175707867319391E-2    4.716722474702437E-2   -8.896889722888452E-3    4.713231049357025E-2   -9.075046481807151E-3    9.532985912160733E-1   -1.130409405479560E-2
 1.130422146402085E7     9.531191133982758E-1   -1.200379821051888E-2    4.711191387427914E-2   -8.796455522367257E-3    4.707447395720392E-2   -8.976072984130414E-3    9.533005104736478E-1   -1.158320146565880E-2
 1.139047112111875E7     9.531705044778067E-1   -1.227552312709289E-2    4.705333994511165E-2   -8.692091065501787E-3    4.701702128145992E-2   -8.871242252851149E-3    9.533455488492506E-1   -1.179759675599247E-2
 1.147737885125368E7     9.532333642059174E-1   -1.251431864554828E-2    4.699650078916385E-2   -8.591888529836528E-3    4.695962762352246E-2   -8.771050562742334E-3    9.534647679932389E-1   -1.206320832869657E-2
 1.156494967543242E7     9.532885626579513E-1   -1.276451156864840E-2    4.693875087029433E-2   -8.488837052683130E-3    4.690337190423650E-2   -8.666398370087584E-3    9.534649491209352E-1   -1.231448586991022E-2
 1.165318865297152E7     9.533117824406717E-1   -1.312868661229005E-2    4.688273205344632E-2   -8.359619334174609E-3    4.682132811466963E-2   -8.586920122860808E-3    9.535284266875679E-1   -1.254827257141621E-2
 1.174210088178934E7     9.535891179478551E-1   -1.407369955320267E-2    4.670345564632545E-2   -8.030027602195448E-3    4.670003471123704E-2   -9.182533328873605E-3    9.535537061737258E-1   -1.272463832488947E-2
 1.183169149870061E7     9.536612925145073E-1   -1.437113084685787E-2    4.664671717501771E-2   -7.928852174023339E-3    4.664711993218279E-2   -9.083701704864111E-3    9.536257470686298E-1   -1.295056145648757E-2
 1.192196567971337E7     9.536942873498432E-1   -1.463988730557701E-2    4.659152473814114E-2   -7.826387120421576E-3    4.659376910563399E-2   -8.983648129688741E-3    9.536813638098187E-1   -1.321674796363493E-2
 1.201292864032780E7     9.537584981725235E-1   -1.490031465014875E-2    4.653338599723238E-2   -7.724145724769347E-3    4.654001993065796E-2   -8.883523593365396E-3    9.537425360592646E-1   -1.348478748545348E-2
 1.210458563583766E7     9.537883204309265E-1   -1.517552897039877E-2    4.647776844507563E-2   -7.623166710786606E-3    4.648426653924106E-2   -8.783542970928010E-3    9.537685776357470E-1   -1.376995025732863E-2
 1.219694196163385E7     9.538541896702588E-1   -1.543557930554578E-2    4.642264729256645E-2   -7.520217096619712E-3    4.643358437366803E-2   -8.682296005071916E-3    9.538246156806228E-1   -1.404288751379830E-2
 1.229000295351040E7     9.536776130400327E-1   -1.524574869270782E-2    4.646568175352125E-2   -7.535481213234896E-3    4.633866792041150E-2   -8.053425710389544E-3    9.539169735873134E-1   -1.435217886417276E-2
 1.238377398797275E7     9.537235533864287E-1   -1.553679733779324E-2    4.641227035909545E-2   -7.432781729737955E-3    4.628656955182202E-2   -7.949945771718954E-3    9.540184741759192E-1   -1.460735891253626E-2
 1.247826048254829E7     9.537505947793544E-1   -1.579950108303989E-2    4.635766508934473E-2   -7.325617806438900E-3    4.623350374517766E-2   -7.846223826295826E-3    9.539953583593753E-1   -1.489304787456307E-2
 1.257346789609938E7     9.539215063432025E-1   -1.570759544026369E-2    4.634571533915904E-2   -7.377360264645977E-3    4.632883276717823E-2   -7.520803090962522E-3    9.540502127670771E-1   -1.526898379542957E-2
 1.266940172913885E7     9.539441966957904E-1   -1.600441457276985E-2    4.629320675259097E-2   -7.274852940386175E-3    4.627621354180728E-2   -7.412654552374745E-3    9.541161491307676E-1   -1.552604974901482E-2
 1.276606752414753E7     9.540107120386311E-1   -1.625816829464777E-2    4.624090081254831E-2   -7.167764994325602E-3    4.622531825279483E-2   -7.310988232929197E-3    9.541794493798835E-1   -1.581858285498898E-2
 1.286347086589479E7     9.540356836718846E-1   -1.657532462151968E-2    4.618713119809765E-2   -7.063701002792187E-3    4.617123096874907E-2   -7.206513247367041E-3    9.541605604865899E-1   -1.614305324373167E-2
 1.296161738176090E7     9.540649592621135E-1   -1.686636426841976E-2    4.613559631171044E-2   -6.958294273847484E-3    4.611947267218235E-2   -7.102784910133680E-3    9.541847245922820E-1   -1.640264788471431E-2
 1.306051274206230E7     9.541268450980086E-1   -1.713403934992373E-2    4.608099135515029E-2   -6.856009839560806E-3    4.606957762370601E-2   -6.996519791112027E-3    9.542612730713677E-1   -1.668228835172750E-2
 1.316016266037924E7     9.541546029208851E-1   -1.741900639530426E-2    4.603016903977986E-2   -6.747841742668438E-3    4.601720467050965E-2   -6.888829816843005E-3    9.543496577913936E-1   -1.695618245678669E-2
 1.326057289388563E7     9.541911317158941E-1   -1.779859914216804E-2    4.597182638960998E-2   -6.590073999979636E-3    4.592154502107401E-2   -6.823003571120978E-3    9.544011501687857E-1   -1.720432370893958E-2
 1.336174924368203E7     9.541774358791875E-1   -1.810021153132108E-2    4.592488502930360E-2   -6.482541411976809E-3    4.587049887280733E-2   -6.716948221149001E-3    9.544257954336357E-1   -1.749178895298607E-2
 1.346369755513046E7     9.542955493439640E-1   -1.829935831470189E-2    4.587838018498201E-2   -6.429511890547888E-3    4.586610632902441E-2   -6.570082771421746E-3    9.544296089155572E-1   -1.779989930591892E-2
 1.356642371819227E7     9.543509426192096E-1   -1.860850087306432E-2    4.582980955512141E-2   -6.322269248772330E-3    4.581616775141002E-2   -6.466497655983432E-3    9.544857714545828E-1   -1.809501000649189E-2
 1.366993366776852E7     9.544020316852648E-1   -1.888535332448605E-2    4.577917208051638E-2   -6.215988709657386E-3    4.576528712372557E-2   -6.358932576164497E-3    9.545262013459856E-1   -1.840985134103472E-2
 1.377423338404255E7     9.544336445058184E-1   -1.918065247046875E-2    4.573066889352365E-2   -6.108108460453701E-3    4.571359774386877E-2   -6.250604709043033E-3    9.545704795587219E-1   -1.869302288641231E-2
 1.387932889282586E7     9.544624867294066E-1   -2.000071055448494E-2    4.560133777847122E-2   -5.807546565076959E-3    4.549645168453981E-2   -6.538120108181115E-3    9.546455439789266E-1   -1.885523132891661E-2
 1.398522626590596E7     9.547175571134131E-1   -2.062175880002834E-2    4.548321708121047E-2   -5.642418679965371E-3    4.553313113834618E-2   -6.811224865713235E-3    9.547013410751062E-1   -1.914183179372048E-2
 1.409193162139728E7     9.547765369967158E-1   -2.092420428844794E-2    4.543318648308234E-2   -5.535172275006096E-3    4.548510536571619E-2   -6.708647302871564E-3    9.547519286841903E-1   -1.943834191820869E-2
 1.419945112409473E7     9.546346057473502E-1   -2.093713727787342E-2    4.545540752151678E-2   -5.486621229312872E-3    4.535409700853044E-2   -6.223104162666348E-3    9.547962644570599E-1   -1.973255751346918E-2
 1.430779098582953E7     9.546696292829724E-1   -2.122649803752815E-2    4.540414401050626E-2   -5.376765471425769E-3    4.530832469974726E-2   -6.112868565988734E-3    9.548824545191784E-1   -2.004929525241307E-2
 1.441695746582855E7     9.547255958551200E-1   -2.153932061132181E-2    4.535658560346394E-2   -5.271689024135862E-3    4.526166320015299E-2   -6.007389314671805E-3    9.549090145217159E-1   -2.036430654406953E-2
 1.452695687107559E7     9.547815231151243E-1   -2.185784516172172E-2    4.531014908914528E-2   -5.163171031165946E-3    4.521477576938212E-2   -5.897763450976947E-3    9.549248142031291E-1   -2.064849804387857E-2
 1.463779555667585E7     9.548410075706125E-1   -2.214603286200633E-2    4.526282639786563E-2   -5.057152000242913E-3    4.516741317677472E-2   -5.792275503500046E-3    9.549948666477224E-1   -2.095806507533272E-2
 1.474947992622320E7     9.548527830517796E-1   -2.244303498095422E-2    4.521359438523098E-2   -4.946021141963351E-3    4.512185193478039E-2   -5.683550457598647E-3    9.550286972285764E-1   -2.125592273978104E-2
 1.486201643216998E7     9.548802914577497E-1   -2.250182120598253E-2    4.521813948227630E-2   -4.907919087356746E-3    4.512906591762804E-2   -5.311235146612377E-3    9.550963760541867E-1   -2.159870406560085E-2
 1.497541157619987E7     9.549558438996724E-1   -2.308879034730650E-2    4.511824374157621E-2   -4.723842559389049E-3    4.502712916958036E-2   -5.465394085579011E-3    9.550985947900220E-1   -2.189842940367123E-2
 1.508967190960350E7     9.549744368561032E-1   -2.342344424508370E-2    4.507217940386198E-2   -4.614533229688730E-3    4.498355259954571E-2   -5.355336989664609E-3    9.551573086377958E-1   -2.221971136175399E-2
 1.520480403365694E7     9.550245713178656E-1   -2.375736065252812E-2    4.502426042428295E-2   -4.504445884979761E-3    4.493887198294012E-2   -5.246415455059460E-3    9.551982303103226E-1   -2.251519977245866E-2
 1.532081460000315E7     9.550217165637962E-1   -2.407699676146024E-2    4.497682962915615E-2   -4.396854099992346E-3    4.489318883409447E-2   -5.136552227990664E-3    9.552449394419149E-1   -2.284755284015795E-2
 1.543771031103615E7     9.551245078112307E-1   -2.438320425459705E-2    4.493406735300531E-2   -4.281670228384761E-3    4.484905126866767E-2   -5.026361629210540E-3    9.552864950347156E-1   -2.317478096952981E-2
 1.555549792028828E7     9.551194994775334E-1   -2.472283461476268E-2    4.488774598168837E-2   -4.172228679246335E-3    4.480697825752155E-2   -4.917967771413713E-3    9.553628806814554E-1   -2.347395618033354E-2
 1.567418423282054E7     9.551352250398123E-1   -2.479675821417771E-2    4.489672467272581E-2   -4.131107157135287E-3    4.481207468417769E-2   -4.538119651150009E-3    9.553680209023665E-1   -2.386208867857076E-2
 1.579377610561541E7     9.552042365621682E-1   -2.513115090191935E-2    4.485003754927638E-2   -4.020686943312234E-3    4.476475889756770E-2   -4.424124604009780E-3    9.554026891315662E-1   -2.418735876377205E-2
 1.591428044797338E7     9.552595954394220E-1   -2.540624810511722E-2    4.480924118349817E-2   -3.906058774129137E-3    4.472118783675596E-2   -4.314989539327668E-3    9.554232028148774E-1   -2.451170778303539E-2
 1.603570422191187E7     9.552827474672191E-1   -2.579278085121051E-2    4.475979886925724E-2   -3.794904735783510E-3    4.467582829204453E-2   -4.200104858239827E-3    9.554641723023951E-1   -2.484335060201114E-2
 1.615805444256752E7     9.553135464855220E-1   -2.611184171597541E-2    4.471341970704282E-2   -3.681145766219867E-3    4.463329173091893E-2   -4.087221886735062E-3    9.555276037948764E-1   -2.516261786701556E-2
 1.628133817860163E7     9.553214828243434E-1   -2.646389758540884E-2    4.467226939214002E-2   -3.567982708293943E-3    4.459234195863583E-2   -3.975038518321355E-3    9.555920592494503E-1   -2.550822401467843E-2
 1.640556255260818E7     9.553975132616691E-1   -2.689761022889964E-2    4.461063431073951E-2   -3.421000620264537E-3    4.451855524302011E-2   -3.958905389253981E-3    9.556008253140221E-1   -2.582643714148029E-2
 1.653073474152580E7     9.554351812645283E-1   -2.722666088331956E-2    4.456921495192099E-2   -3.307037887468811E-3    4.447795773969045E-2   -3.841348132064403E-3    9.556624353723239E-1   -2.615847713307062E-2
 1.665686197705204E7     9.554825860592490E-1   -2.760099658951671E-2    4.452758668575447E-2   -3.193402145324917E-3    4.443891214904338E-2   -3.726394760480558E-3    9.556789975200305E-1   -2.649751718046117E-2
 1.678395154606132E7     9.554981748223570E-1   -2.793698984171419E-2    4.448104494018528E-2   -3.077574042794310E-3    4.439224056260580E-2   -3.615392359919654E-3    9.556695144431431E-1   -2.684146376915460E-2
 1.691201079102603E7     9.555913472714876E-1   -2.845149208512357E-2    4.440793152509445E-2   -2.925295531562943E-3    4.433765963520787E-2   -3.673885551980370E-3    9.557455062802357E-1   -2.717356097622674E-2
 1.704104711044038E7     9.556056845468768E-1   -2.880457473939476E-2    4.436425037818419E-2   -2.808668802562038E-3    4.429753468729310E-2   -3.558176736102011E-3    9.557666586804542E-1   -2.752890503489723E-2
 1.717106795924834E7     9.556584294138581E-1   -2.915547690568983E-2    4.432406692707654E-2   -2.692348273322518E-3    4.425702909348218E-2   -3.441057020576150E-3    9.558320014854942E-1   -2.785442177272263E-2
 1.730208084927390E7     9.559215458157757E-1   -2.978006935419708E-2    4.421234861471318E-2   -2.531222199851820E-3    4.433267189030388E-2   -3.722831966534179E-3    9.558276978511340E-1   -2.821637400120770E-2
 1.743409334965526E7     9.557188048352233E-1   -2.988076960608405E-2    4.424245130315758E-2   -2.459273032554939E-3    4.418018702291766E-2   -3.214467606064806E-3    9.558704101361908E-1   -2.857639929524177E-2
 1.756711308728221E7     9.557540391048693E-1   -3.026763276073344E-2    4.419996564053386E-2   -2.343937114727052E-3    4.413992935112349E-2   -3.097269824685754E-3    9.558939803940982E-1   -2.894702824301555E-2
 1.770114774723655E7     9.558041982601695E-1   -3.061630800913883E-2    4.416386286729143E-2   -2.224389608766452E-3    4.410230272345981E-2   -2.977770261102384E-3    9.559664536272752E-1   -2.928295788459470E-2
 1.783620507323623E7     9.558309318855842E-1   -3.047766730871807E-2    4.422013516065185E-2   -2.275165410801170E-3    4.420586852847416E-2   -2.421304533962457E-3    9.559591559097693E-1   -2.977003439430254E-2
 1.797229286808272E7     9.558050868084722E-1   -3.095510613835270E-2    4.416598616095013E-2   -2.109013663530643E-3    4.412354607347393E-2   -2.350250644597131E-3    9.560358721186899E-1   -3.007334688299414E-2
 1.810941899411174E7     9.558697121540379E-1   -3.122611339802794E-2    4.414202487330558E-2   -2.038324451295251E-3    4.412687353134341E-2   -2.181024083927553E-3    9.560160364246224E-1   -3.048726001861002E-2
 1.824759137364766E7     9.559536116039117E-1   -3.160282540188328E-2    4.410483890272016E-2   -1.918117417142030E-3    4.409155145538293E-2   -2.061979929876271E-3    9.560648039781081E-1   -3.086762815286046E-2
 1.838681798946100E7     9.559904933770854E-1   -3.194719433151439E-2    4.406602303984705E-2   -1.797807892931132E-3    4.405189591823602E-2   -1.942505084735462E-3    9.560752519935150E-1   -3.123468043879932E-2
 1.852710688522972E7     9.560438168196947E-1   -3.296662308558888E-2    4.389711658292884E-2   -1.496530355845089E-3    4.390384486867895E-2   -2.424970314645311E-3    9.561482102461312E-1   -3.144542038828793E-2
 1.866846616600409E7     9.559812600223040E-1   -3.321116598718132E-2    4.388888736467153E-2   -1.393458607309970E-3    4.384074313507743E-2   -2.147667719646035E-3    9.561225628800085E-1   -3.187967979981936E-2
 1.881090399867451E7     9.560670937542709E-1   -3.315576520134097E-2    4.394555100718672E-2   -1.410496785645552E-3    4.391873539084841E-2   -1.599052710443521E-3    9.561642023198254E-1   -3.233514562417389E-2
 1.895442861244394E7     9.560271587317259E-1   -3.353928449427305E-2    4.390705140629218E-2   -1.287266545605175E-3    4.388082927248359E-2   -1.474990480832489E-3    9.561932733075307E-1   -3.269780893282295E-2
 1.909904829930285E7     9.560860553175735E-1   -3.392036593424873E-2    4.387167135314620E-2   -1.165786673378030E-3    4.384696842015830E-2   -1.351493692355330E-3    9.562512589743570E-1   -3.305193193210150E-2
 1.924477141450845E7     9.561387002613944E-1   -3.430435484554469E-2    4.383589455482367E-2   -1.043194112089601E-3    4.381264885926966E-2   -1.228055139982908E-3    9.562572898066908E-1   -3.347981508427773E-2
 1.939160637706759E7     9.561334657640670E-1   -3.471553714266145E-2    4.379937018111223E-2   -9.212560271845697E-4    4.377497298286950E-2   -1.105450511413050E-3    9.562639758533233E-1   -3.387271808224749E-2
 1.953956167022271E7     9.561620206456714E-1   -3.509596453480383E-2    4.376520994105138E-2   -7.964005450679225E-4    4.374120721847147E-2   -9.824138264492460E-4    9.563241508951462E-1   -3.424789665660145E-2
 1.968864584194249E7     9.561783924622622E-1   -3.554206506302686E-2    4.371952784558762E-2   -6.480148680180595E-4    4.368108486495738E-2   -8.902174730367463E-4    9.563278834629569E-1   -3.463447509977710E-2
 1.983886750541528E7     9.562428770973304E-1   -3.647936329961551E-2    4.356728272560297E-2   -3.974858482589862E-4    4.359086840246677E-2   -1.330610133491091E-3    9.563730500489986E-1   -3.492879626347290E-2
 1.999023533954688E7     9.562806491999426E-1   -3.688509954570612E-2    4.353108598254609E-2   -2.757257200094148E-4    4.355775594966569E-2   -1.210187400454498E-3    9.563983171686051E-1   -3.531588569807524E-2
 2.014275808946211E7     9.563427146094894E-1   -3.726961830135212E-2    4.349717586897570E-2   -1.483297512088402E-4    4.352477974404110E-2   -1.085882594613233E-3    9.564162682951863E-1   -3.575280883600791E-2
 2.029644456700960E7     9.563492270660986E-1   -3.768466948966004E-2    4.346226951989172E-2   -2.429048098736031E-5    4.349432471539268E-2   -9.612390106633892E-4    9.564708154873490E-1   -3.610339177108468E-2
 2.045130365127147E7     9.563862043306222E-1   -3.809163166556982E-2    4.343011414970700E-2    1.038447097557356E-4    4.346000956179917E-2   -8.361426303025040E-4    9.564611450280825E-1   -3.653336453134733E-2
 2.060734428907584E7     9.564424889608656E-1   -3.850925930662203E-2    4.339625968494634E-2    2.286936300316951E-4    4.342880219152512E-2   -7.099297771450540E-4    9.564791649509138E-1   -3.691109283136817E-2
 2.076457549551392E7     9.564327572462250E-1   -3.891422485515166E-2    4.336075093283008E-2    3.555542016379083E-4    4.339691473211396E-2   -5.842921336065085E-4    9.565068827680022E-1   -3.733306684837141E-2
 2.092300635446098E7     9.564313682731036E-1   -3.935398177947673E-2    4.332727581713640E-2    4.817212665389871E-4    4.336737182702977E-2   -4.598943767220894E-4    9.565392519909138E-1   -3.778736560393251E-2
 2.108264601910070E7     9.564650825910366E-1   -3.977674933976617E-2    4.329603853325165E-2    6.099744942559759E-4    4.333777289766651E-2   -3.303748493463766E-4    9.565456066236043E-1   -3.816220020143291E-2
 2.124350371245464E7     9.564712511794614E-1   -3.959525732992145E-2    4.340421327222135E-2    5.778427881754696E-4    4.339426978908873E-2    4.307851236841398E-4    9.565485462494281E-1   -3.875181498985428E-2
 2.140558872791451E7     9.564684998886432E-1   -4.001834518907550E-2    4.337439356952229E-2    7.054443767916495E-4    4.336403629406647E-2    5.615558335201593E-4    9.565956260548878E-1   -3.914205668574040E-2
 2.156891042977939E7     9.564424606411294E-1   -4.075529592337749E-2    4.326649924769543E-2    9.545052399475780E-4    4.321626572307018E-2    4.056680898130202E-4    9.566360101900826E-1   -3.947287578269847E-2
 2.173347825379676E7     9.564695637590760E-1   -4.122384591838954E-2    4.323610968981526E-2    1.084298203323220E-3    4.318458140875548E-2    5.347172109419147E-4    9.566391160317227E-1   -3.991631130316484E-2
 2.189930170770744E7     9.564450813760356E-1   -4.166696667633886E-2    4.320552313844145E-2    1.213806474338676E-3    4.315616835197807E-2    6.643695451952775E-4    9.566816514701568E-1   -4.031767129568527E-2
 2.206639037179505E7     9.564505710275530E-1   -4.210247057530420E-2    4.317397290576098E-2    1.345616270486882E-3    4.312707441295241E-2    7.962690838369685E-4    9.566666754689001E-1   -4.074292675983582E-2
 2.223475389943947E7     9.565700113871205E-1   -4.219884499130325E-2    4.322182980143109E-2    1.362451841908635E-3    4.321346455023063E-2    1.215032015652443E-3    9.567040343398762E-1   -4.128349611071561E-2
 2.240440201767448E7     9.566313894800114E-1   -4.265270292521350E-2    4.319389597590719E-2    1.493245632231221E-3    4.318283544947116E-2    1.349675119022438E-3    9.566997293113961E-1   -4.171459716082652E-2
 2.257534452774993E7     9.566096305569119E-1   -4.309413498049026E-2    4.316378875204641E-2    1.628931037121982E-3    4.315478607098147E-2    1.483832691147383E-3    9.567019515744618E-1   -4.215861223970919E-2
 2.274759130569773E7     9.566249504998141E-1   -4.355413054881724E-2    4.313655737923187E-2    1.763524487713814E-3    4.312515772694491E-2    1.615232752402580E-3    9.567149745068200E-1   -4.261289721479398E-2
 2.292115230290256E7     9.566292357116885E-1   -4.400675375867315E-2    4.310868901234501E-2    1.897151873350920E-3    4.310005136789888E-2    1.751273912086907E-3    9.567639696940184E-1   -4.303409826750221E-2
 2.309603754667697E7     9.566480684146094E-1   -4.446547225757995E-2    4.308256626443403E-2    2.030775802462779E-3    4.307136769047363E-2    1.886435271242845E-3    9.567678469105653E-1   -4.349290904302929E-2
 2.327225714084021E7     9.566576227595884E-1   -4.493537299710103E-2    4.305491481473658E-2    2.166558835712438E-3    4.304422133825674E-2    2.020783493316416E-3    9.567640178388666E-1   -4.395442907615179E-2
 2.344982126630262E7     9.565936345327259E-1   -4.562119022205518E-2    4.297065354880704E-2    2.392049766465923E-3    4.292786593410131E-2    1.973161619609116E-3    9.568668190995582E-1   -4.427212967015381E-2
 2.362874018165328E7     9.566107133601299E-1   -4.612248924831076E-2    4.294271133505224E-2    2.528927860101049E-3    4.289879669118251E-2    2.106359523091835E-3    9.568466922604382E-1   -4.476998940647745E-2
 2.380902422375290E7     9.566517273715378E-1   -4.680951678325011E-2    4.286092643402572E-2    2.708963321843582E-3    4.286301815240253E-2    1.948512882838096E-3    9.568604073823971E-1   -4.519817014138944E-2
 2.399068380833123E7     9.566608979944635E-1   -4.730615363261552E-2    4.283318240258610E-2    2.846884858805141E-3    4.284001400759200E-2    2.083900792621137E-3    9.568771348412578E-1   -4.566885588029421E-2
 2.417372943058824E7     9.566825832570854E-1   -4.750983466115886E-2    4.286599180125009E-2    2.939174510677753E-3    4.282166546061828E-2    2.518384714575545E-3    9.569098836284895E-1   -4.614567659926071E-2
 2.435817166580120E7     9.566655137317315E-1   -4.797434269130758E-2    4.283870869018411E-2    3.077471912943344E-3    4.279654031438260E-2    2.657534550796061E-3    9.568914362787417E-1   -4.661380881997376E-2
 2.454402116993507E7     9.567003032796836E-1   -4.869974654346767E-2    4.275440472760295E-2    3.257306118307162E-3    4.276782597957220E-2    2.494418752513549E-3    9.568928669143940E-1   -4.707161662306435E-2
 2.473128868025839E7     9.567081630611797E-1   -4.921166341273368E-2    4.272854874306758E-2    3.399008147652854E-3    4.274330912094712E-2    2.633201769856327E-3    9.569040415753381E-1   -4.753545807576157E-2
 2.491998501596375E7     9.567002465658122E-1   -4.966036868354399E-2    4.270292238347212E-2    3.539066521869809E-3    4.271833020283283E-2    2.771590738954396E-3    9.569094166049280E-1   -4.803382080317982E-2
 2.511012107879237E7     9.567370786300388E-1   -4.971484079622644E-2    4.279546744803567E-2    3.555223864683402E-3    4.278352389703786E-2    3.406507671459340E-3    9.568694486432578E-1   -4.862577371542089E-2
 2.530170785366461E7     9.567526914787018E-1   -5.022158291107071E-2    4.277045506444248E-2    3.696866399653056E-3    4.275860116406527E-2    3.549820497709522E-3    9.568890528004956E-1   -4.912541405274361E-2
 2.549475640931404E7     9.567696917764930E-1   -5.068678142332462E-2    4.274373118309607E-2    3.840752184210568E-3    4.273112432766500E-2    3.697500146611313E-3    9.568861010313623E-1   -4.959062751295977E-2
 2.568927789892715E7     9.567790128386144E-1   -5.121416577953368E-2    4.271933582395854E-2    3.986099557814878E-3    4.270695519353818E-2    3.841664163435621E-3    9.568911765237930E-1   -5.010813202357342E-2
 2.588528356078789E7     9.567171180574244E-1   -5.176301600158326E-2    4.266766978423470E-2    4.176270542969771E-3    4.264321188043460E-2    3.930625856944458E-3    9.569299009321309E-1   -5.056449104260605E-2
 2.608278471892660E7     9.567630114350953E-1   -5.217844644432545E-2    4.266992705456205E-2    4.288164416853420E-3    4.266573765883472E-2    4.144600961009080E-3    9.569020216652807E-1   -5.110420804502670E-2
 2.628179278377446E7     9.567723492586456E-1   -5.266349246962548E-2    4.265451662225701E-2    4.440763517992784E-3    4.265006359080373E-2    4.292471203076104E-3    9.568932618785416E-1   -5.159423413429479E-2
 2.648231925282269E7     9.567142642212145E-1   -5.341067793193830E-2    4.257774656539630E-2    4.672648326640685E-3    4.255107967397229E-2    4.243282479135710E-3    9.569406831198529E-1   -5.198413536066732E-2
 2.668437571128672E7     9.567139237383385E-1   -5.396345731909772E-2    4.256235188916842E-2    4.817031518299056E-3    4.253473711604663E-2    4.390212089127403E-3    9.569538594044374E-1   -5.252222170680147E-2
 2.688797383277575E7     9.567178817510752E-1   -5.448284677285924E-2    4.254451791209339E-2    4.963715618429467E-3    4.251717849064898E-2    4.536067280061028E-3    9.569486709447073E-1   -5.304378999051364E-2
 2.709312537996687E7     9.567419984915283E-1   -5.487948762950438E-2    4.256243595165100E-2    5.074358458489988E-3    4.254143392001006E-2    4.818482563083848E-3    9.569484336284695E-1   -5.359229062514165E-2
 2.729984220528475E7     9.567412651781716E-1   -5.539905395064950E-2    4.254511284247821E-2    5.222321369615752E-3    4.252355610981779E-2    4.967627571116623E-3    9.569449118997015E-1   -5.412178230722214E-2
 2.750813625158667E7     9.567671756928082E-1   -5.589662619649794E-2    4.252899970861871E-2    5.372617785402513E-3    4.250884998244682E-2    5.115835752466715E-3    9.569641150341425E-1   -5.464533315952920E-2
 2.771801955285188E7     9.567869227327711E-1   -5.694902337293417E-2    4.239543303121127E-2    5.596647227149929E-3    4.251672744357868E-2    4.652465134138939E-3    9.569636230100850E-1   -5.507800251006279E-2
 2.792950423487763E7     9.566851036512285E-1   -5.724982575948374E-2    4.243593051533411E-2    5.726023126658622E-3    4.242612688855144E-2    5.163862762902259E-3    9.569684837191361E-1   -5.562762662810108E-2
 2.814260251597910E7     9.566919300442027E-1   -5.782077717417233E-2    4.242151720322460E-2    5.876013495733569E-3    4.241051409164983E-2    5.314142281920228E-3    9.569634638154233E-1   -5.619043323300676E-2
 2.835732670769557E7     9.566980768124784E-1   -5.836343797336346E-2    4.240537496455054E-2    6.027112146562399E-3    4.239619680358705E-2    5.466599372337986E-3    9.569670589944865E-1   -5.670373516555700E-2
 2.857368921550186E7     9.567512573094746E-1   -5.856256752169227E-2    4.248025439848286E-2    6.087401033514590E-3    4.246679538963906E-2    5.936345682413845E-3    9.569211034746400E-1   -5.735191540232549E-2
 2.879170253952448E7     9.567571864486798E-1   -5.914678821482809E-2    4.246508801785947E-2    6.242155798621916E-3    4.245135084776487E-2    6.088271290229152E-3    9.568910763222694E-1   -5.789909898007322E-2
 2.901137927526460E7     9.567533139915660E-1   -5.969645819850837E-2    4.244885100852627E-2    6.395899543195701E-3    4.243854048188669E-2    6.242946125913538E-3    9.569038968894268E-1   -5.845511620973853E-2
 2.923273211432508E7     9.567471803412010E-1   -6.028269523716736E-2    4.243758482370409E-2    6.548909499965488E-3    4.242289696530680E-2    6.396110330699258E-3    9.568785447336587E-1   -5.901531791688262E-2
 2.945577384514398E7     9.567271148561496E-1   -6.084154855043813E-2    4.242291665184007E-2    6.704000166847903E-3    4.241063349343993E-2    6.551855292706811E-3    9.568827455412879E-1   -5.955830178434703E-2
 2.968051735373363E7     9.567420624016706E-1   -6.139077835328745E-2    4.241086790563924E-2    6.860971832327879E-3    4.239672906911990E-2    6.708497430934887E-3    9.568691709488771E-1   -6.013704450164403E-2
 2.990697562442441E7     9.566431476812824E-1   -6.215325826423003E-2    4.235243799224868E-2    7.073779042631999E-3    4.232450974622147E-2    6.741254332788333E-3    9.568999112248139E-1   -6.064626173256019E-2
 3.013516174061584E7     9.566511407274876E-1   -6.264740905613538E-2    4.235769965111528E-2    7.214939674169414E-3    4.233280053595966E-2    6.959528534764772E-3    9.568862977719657E-1   -6.121928278275395E-2
 3.036508888553168E7     9.566219474270509E-1   -6.330111245369069E-2    4.232765053093136E-2    7.391337240778700E-3    4.230165635252460E-2    7.056683183899675E-3    9.568786715213931E-1   -6.177137495254029E-2
 3.059677034298190E7     9.566150125310009E-1   -6.388192019607077E-2    4.231610040505906E-2    7.549195310690191E-3    4.229019340897869E-2    7.216431653857644E-3    9.568671735388646E-1   -6.236139930630346E-2
 3.083021949813037E7     9.567358264103408E-1   -6.510068379112965E-2    4.218384167252806E-2    7.744830581164879E-3    4.252065989339762E-2    6.568744882396668E-3    9.568533065698106E-1   -6.287397983051804E-2
 3.106544983826748E7     9.567302458949909E-1   -6.568299411911803E-2    4.217429253536153E-2    7.906183398748974E-3    4.251314970491978E-2    6.728035341632886E-3    9.568297196452089E-1   -6.343372564761804E-2
 3.130247495359022E7     9.566249650743681E-1   -6.553440879706977E-2    4.232953389456557E-2    7.978517447751085E-3    4.231406658290104E-2    7.823837782717533E-3    9.567757894690405E-1   -6.418446031160566E-2
 3.154130853798668E7     9.566106708619571E-1   -6.613047927221874E-2    4.232075681741053E-2    8.142361062377290E-3    4.230424864877923E-2    7.987113248677827E-3    9.567486613127615E-1   -6.476374298669853E-2
 3.178196438982744E7     9.565935073051708E-1   -6.675719261947718E-2    4.231083549779276E-2    8.306003131321564E-3    4.229538136523298E-2    8.150054077881590E-3    9.567347203706565E-1   -6.537459790894398E-2
 3.202445641276293E7     9.565216184047742E-1   -6.744249374212491E-2    4.227408898386187E-2    8.504481662070108E-3    4.225083752425393E-2    8.243167136284427E-3    9.567519062798721E-1   -6.591902988702089E-2
 3.226879861652631E7     9.565625224686503E-1   -6.795430247389297E-2    4.229324527135245E-2    8.635534956427608E-3    4.227771622890734E-2    8.476979667727215E-3    9.566893881200625E-1   -6.659218646183458E-2
 3.251500511774320E7     9.564734388467917E-1   -6.918000361311297E-2    4.214717383918351E-2    8.885812902892634E-3    4.230736801827448E-2    7.941273574062525E-3    9.567474337740173E-1   -6.703405444295489E-2
 3.276309014074709E7     9.564415588746055E-1   -6.983393159259986E-2    4.213918078698368E-2    9.052670842645811E-3    4.229849432852201E-2    8.105421125205159E-3    9.567101823848688E-1   -6.766556330690168E-2
 3.301306801840112E7     9.564158678390111E-1   -7.049953998876878E-2    4.213292153703856E-2    9.214382729000312E-3    4.229373158226292E-2    8.269286342075955E-3    9.566928704390842E-1   -6.827023738164713E-2
 3.326495319292643E7     9.564062070770980E-1   -7.111394800892171E-2    4.212552138266752E-2    9.383978115133928E-3    4.228717476455286E-2    8.434968847937891E-3    9.566747452955329E-1   -6.890660948299814E-2
 3.351876021673609E7     9.564607771496667E-1   -7.120513912183073E-2    4.225852671016352E-2    9.468667157038542E-3    4.222961674657236E-2    9.307988099877464E-3    9.565769218212944E-1   -6.969667664027124E-2
 3.377450375327612E7     9.564268101606771E-1   -7.180794473906725E-2    4.225301424299626E-2    9.636418009008975E-3    4.221673866309222E-2    9.480987507696241E-3    9.565429382715204E-1   -7.030731192380822E-2
 3.403219857787284E7     9.563181736056948E-1   -7.259906981638588E-2    4.219537737141332E-2    9.855526640189771E-3    4.215510367576102E-2    9.524627972204106E-3    9.565703194121561E-1   -7.085615516041251E-2
 3.429185957858586E7     9.562928184543170E-1   -7.325892292351298E-2    4.218957508409029E-2    1.002456589881267E-2    4.214255619298946E-2    9.700877628572293E-3    9.565391662826314E-1   -7.152503882309304E-2
 3.455350175706909E7     9.562438888042689E-1   -7.390167717722407E-2    4.217946440723601E-2    1.019255720035106E-2    4.213100989294954E-2    9.882071295700404E-3    9.564972892848592E-1   -7.214223450186365E-2
 3.481714022943672E7     9.562001482771376E-1   -7.503409880763660E-2    4.208031759762033E-2    1.039181449149884E-2    4.223887866895794E-2    9.485937918591906E-3    9.564858535322616E-1   -7.274500539105419E-2
 3.508279022713681E7     9.561495677097465E-1   -7.574184825125183E-2    4.206600407826899E-2    1.056287768996678E-2    4.223392112820509E-2    9.672881248333893E-3    9.564488579083470E-1   -7.336497055420897E-2
 3.535046709783159E7     9.561037049149683E-1   -7.639387040788832E-2    4.205129359916669E-2    1.074094667530442E-2    4.223493975112348E-2    9.861756785641843E-3    9.564221253140774E-1   -7.400872882576659E-2
 3.562018630628331E7     9.560397029214105E-1   -7.704536521477193E-2    4.202691347801076E-2    1.092593306964472E-2    4.224024547327698E-2    1.005135043665876E-2    9.563964984162252E-1   -7.467355910001765E-2
 3.589196343524875E7     9.559670893127362E-1   -7.769589921944245E-2    4.200777924897947E-2    1.112925521323820E-2    4.225679222947008E-2    1.024091653409642E-2    9.563746926069984E-1   -7.532624901551527E-2
 3.616581418637872E7     9.559337961779832E-1   -7.834632916065153E-2    4.201155383022365E-2    1.134824403196358E-2    4.227452851671517E-2    1.042177228112556E-2    9.563568995468656E-1   -7.598256464304462E-2
 3.644175438112541E7     9.559416176780484E-1   -7.902357978381157E-2    4.203631724744614E-2    1.155103249629197E-2    4.228841099474380E-2    1.060372512447998E-2    9.563271178200854E-1   -7.667913731362355E-2
 3.671979996165685E7     9.559024311759922E-1   -7.940361331629305E-2    4.210584943088885E-2    1.173639815434108E-2    4.216893576358919E-2    1.115249761337459E-2    9.562903212342106E-1   -7.738575886204790E-2
 3.699996699177712E7     9.558621578849104E-1   -8.012619897915672E-2    4.212523106823055E-2    1.191379073979124E-2    4.217834474945056E-2    1.133349298852583E-2    9.562571567871719E-1   -7.807198557574294E-2
 3.728227165785540E7     9.558294214303027E-1   -8.081204357910735E-2    4.213669361010949E-2    1.209451386767354E-2    4.218690374585183E-2    1.151161669492792E-2    9.562265045108510E-1   -7.876387408368966E-2
 3.756673026976037E7     9.557976210016260E-1   -8.154403548285701E-2    4.214744525204234E-2    1.227058079711664E-2    4.219340789079246E-2    1.169364966305634E-2    9.561822415573054E-1   -7.943346695624114E-2
 3.785335926180276E7     9.558947410906673E-1   -8.192683704279016E-2    4.224598131429539E-2    1.238993849525073E-2    4.224132233380418E-2    1.222955840889625E-2    9.560597942152327E-1   -8.029030287590191E-2
 3.814217519368506E7     9.558751145166166E-1   -8.265356041136732E-2    4.225313305553903E-2    1.257399033592724E-2    4.224994509251366E-2    1.241411338277241E-2    9.560386864074614E-1   -8.099832225100109E-2
 3.843319475145779E7     9.558156119193881E-1   -8.338561789103667E-2    4.226040899438862E-2    1.276241165699654E-2    4.225675137460662E-2    1.260103760341815E-2    9.559744851903557E-1   -8.169374523860484E-2
 3.872643474848381E7     9.557945063433255E-1   -8.411690639534386E-2    4.226861266903487E-2    1.294791013626491E-2    4.226526815621615E-2    1.278817372652752E-2    9.559436973425246E-1   -8.241000242092701E-2
 3.902191212640966E7     9.557333562175678E-1   -8.486679922426078E-2    4.227693705913212E-2    1.313731992459801E-2    4.227224912718931E-2    1.297712314859231E-2    9.559031964668426E-1   -8.312782060189247E-2
 3.931964395614420E7     9.556999179844654E-1   -8.559969729665316E-2    4.228656506592498E-2    1.332765659891872E-2    4.228118983193856E-2    1.316741711755639E-2    9.558696379702855E-1   -8.384263885102711E-2
 3.961964743884522E7     9.555893839488901E-1   -8.642331888380804E-2    4.226371174645466E-2    1.354616180927664E-2    4.226054796115884E-2    1.328050836039364E-2    9.558679395651033E-1   -8.453108129424393E-2
 3.992193990691278E7     9.555372046152715E-1   -8.717470140596015E-2    4.227262663054881E-2    1.373744623279589E-2    4.227166933207647E-2    1.347092230171772E-2    9.558063062859216E-1   -8.527612343530132E-2
 4.022653882499073E7     9.553957208117096E-1   -8.818317585394825E-2    4.222581858715681E-2    1.395795908317714E-2    4.228045468432979E-2    1.338352417670357E-2    9.557975638782460E-1   -8.592889166078735E-2
 4.053346179097611E7     9.553273728762754E-1   -8.896079558110695E-2    4.223489751413328E-2    1.415156040374533E-2    4.229485003892960E-2    1.357533113602092E-2    9.557417978245379E-1   -8.669820714087779E-2
 4.084272653703488E7     9.552849629151748E-1   -8.972455458243121E-2    4.224550945978898E-2    1.434781753895997E-2    4.230649472446481E-2    1.376685155790027E-2    9.556945512176632E-1   -8.745839817332210E-2
 4.115435093062763E7     9.552010343395041E-1   -9.068406445348695E-2    4.223199918224095E-2    1.454199151096803E-2    4.238446564402085E-2    1.375606941500420E-2    9.556388800756022E-1   -8.818293103505352E-2
 4.146835297554084E7     9.551539094405407E-1   -9.145884607209338E-2    4.224475823315674E-2    1.473948208011781E-2    4.239943717637269E-2    1.395130264664919E-2    9.555845509750373E-1   -8.895166373592524E-2
 4.178475081292742E7     9.551721817051464E-1   -9.260664581707000E-2    4.224227405969641E-2    1.492901175944615E-2    4.273100437630135E-2    1.374880079230952E-2    9.555278717225241E-1   -8.968665110556615E-2
 4.210356272235513E7     9.551216223024421E-1   -9.340708923240870E-2    4.225540443242728E-2    1.512640410335842E-2    4.274947826486102E-2    1.394688330844761E-2    9.554699632755618E-1   -9.045287337700950E-2
 4.242480712286174E7     9.550511992746369E-1   -9.421808473256668E-2    4.227013301440274E-2    1.532949582588437E-2    4.277086521371398E-2    1.414425409782766E-2    9.554104673680727E-1   -9.124917126298027E-2
 4.274850257402029E7     9.549940524990784E-1   -9.502839749978019E-2    4.228581883927697E-2    1.552953036165472E-2    4.279091615062888E-2    1.434675102132829E-2    9.553474870047431E-1   -9.202303468710900E-2
 4.307466777701053E7     9.550273128277907E-1   -9.493499454981211E-2    4.243199178946809E-2    1.569675959744016E-2    4.243369760194456E-2    1.552824917344035E-2    9.552014516684750E-1   -9.297390864869821E-2
 4.340332157569963E7     9.548717925517396E-1   -9.664745628541969E-2    4.232075525794748E-2    1.593774015619181E-2    4.283243895272451E-2    1.475742490024986E-2    9.552128205253176E-1   -9.360873611045448E-2
 4.373448295773120E7     9.547906589696565E-1   -9.745593875940618E-2    4.233881414949488E-2    1.614553536498082E-2    4.285701096579268E-2    1.495961041184087E-2    9.551594784821886E-1   -9.441062573889969E-2
 4.406817105562137E7     9.546280753827001E-1   -9.790430025515810E-2    4.236859626840248E-2    1.636366324416356E-2    4.254604451774999E-2    1.556567119104125E-2    9.550827160847819E-1   -9.523431031634685E-2
 4.440440514786536E7     9.545583431057687E-1   -9.874470016365394E-2    4.238928179531688E-2    1.657211417214753E-2    4.256759615080497E-2    1.577375144937399E-2    9.550200595963039E-1   -9.606457429909039E-2
 4.474320466005030E7     9.544874705494096E-1   -9.958017571590454E-2    4.240653259720729E-2    1.678074508972840E-2    4.258941603999401E-2    1.598321014665575E-2    9.549554281159252E-1   -9.686150377394076E-2
 4.508458916597787E7     9.544665664456896E-1   -1.001260636434540E-1    4.246822682675631E-2    1.698774906273837E-2    4.251418220580281E-2    1.653373301378392E-2    9.548635740584924E-1   -9.773512333989140E-2
 4.542857838879555E7     9.543891686847571E-1   -1.009691465529752E-1    4.248970959998020E-2    1.720045085667011E-2    4.253593527445656E-2    1.674712559028976E-2    9.547787136767916E-1   -9.855943006953745E-2
 4.577519220213508E7     9.543175469373318E-1   -1.018360206294972E-1    4.251147071894307E-2    1.741445528037103E-2    4.256023547885578E-2    1.695807277541110E-2    9.547126677403156E-1   -9.939363425248646E-2
 4.612445063126191E7     9.542428412753650E-1   -1.026988530524317E-1    4.253557381782446E-2    1.763123735173866E-2    4.258507568136444E-2    1.717429744924460E-2    9.546210825505071E-1   -1.002544838443431E-1
 4.647637385423118E7     9.541541179039543E-1   -1.035484113222136E-1    4.255614340416686E-2    1.784685538525677E-2    4.260928283838798E-2    1.739286560548734E-2    9.545581105053018E-1   -1.010761441701425E-1
 4.683098220305377E7     9.540595199540854E-1   -1.044180256544128E-1    4.257896437681293E-2    1.806369282542084E-2    4.263478136595596E-2    1.760926151579345E-2    9.544712526361763E-1   -1.019395387085303E-1
 4.718829616487134E7     9.539665427406223E-1   -1.052953816796625E-1    4.260542638957193E-2    1.828295710279401E-2    4.266207253811651E-2    1.782809591767056E-2    9.543845182283590E-1   -1.028175677783216E-1
 4.754833638313931E7     9.537981074551470E-1   -1.065098331414327E-1    4.259128234029251E-2    1.850785365505503E-2    4.279914650059870E-2    1.770709104418124E-2    9.543263941547394E-1   -1.036233799443684E-1
 4.791112365881994E7     9.537049018339928E-1   -1.074078315382786E-1    4.261227426933935E-2    1.872964276918374E-2    4.283095903274921E-2    1.792789995393608E-2    9.542273968838958E-1   -1.044916874122087E-1
 4.827667895158397E7     9.536028983750173E-1   -1.082814590223376E-1    4.263711749569965E-2    1.895551320126117E-2    4.286283376273332E-2    1.815309258943250E-2    9.541268039929989E-1   -1.053678364840662E-1
 4.864502338102144E7     9.535104853229940E-1   -1.091846877537737E-1    4.266353692350250E-2    1.918252065439171E-2    4.289602985545471E-2    1.837502016335708E-2    9.540372719871253E-1   -1.062354100078872E-1
 4.901617822786229E7     9.533965908101623E-1   -1.100741954412852E-1    4.269210192016451E-2    1.941407835393090E-2    4.293051643179338E-2    1.860138829198864E-2    9.539499178841800E-1   -1.071217403795564E-1
 4.939016493520518E7     9.533098288209508E-1   -1.109773339371810E-1    4.272414734407266E-2    1.964526493307382E-2    4.296584051181718E-2    1.882849096627736E-2    9.538458797526770E-1   -1.080300322529284E-1
 4.976700510975666E7     9.531862284323434E-1   -1.119173528666955E-1    4.275362631521082E-2    1.987697329107784E-2    4.300368892923247E-2    1.905643620445207E-2    9.537559775379834E-1   -1.089407130619897E-1
 5.014672052307993E7     9.530887425453722E-1   -1.128378222705401E-1    4.278674146249453E-2    2.010808986715770E-2    4.303834114535986E-2    1.929121847460528E-2    9.536593416649395E-1   -1.098257874907530E-1
 5.052933311285146E7     9.529924013890442E-1   -1.137820141715478E-1    4.282175395107341E-2    2.034565734338552E-2    4.307719970851115E-2    1.952063493076250E-2    9.535535247848400E-1   -1.107612970677006E-1
 5.091486498412994E7     9.528839687598961E-1   -1.146951298326652E-1    4.285758811144787E-2    2.058385463118053E-2    4.311864852379538E-2    1.975299667303130E-2    9.534415179384664E-1   -1.116678467610335E-1
 5.130333841063219E7     9.527712423073733E-1   -1.156423798483206E-1    4.289818436187547E-2    2.082192852900662E-2    4.316356007329812E-2    1.998730621655635E-2    9.533438422789626E-1   -1.126194205368093E-1
 5.169477583602042E7     9.526545026684827E-1   -1.166039937597682E-1    4.293755766479358E-2    2.106016412119185E-2    4.320681659653441E-2    2.022222852963520E-2    9.532475673468001E-1   -1.135588804261405E-1
 5.208919987519933E7     9.525610613730644E-1   -1.175624443475320E-1    4.297591916198522E-2    2.130126530956095E-2    4.325497284903169E-2    2.045771149358666E-2    9.531432199810094E-1   -1.144763491420858E-1
 5.248663331562151E7     9.524246788006747E-1   -1.185221576973366E-1    4.302106633166548E-2    2.153911734769084E-2    4.329918048493010E-2    2.069671325303226E-2    9.530235265751168E-1   -1.154189722100964E-1
 5.288709911860541E7     9.523164854132470E-1   -1.195083518997843E-1    4.306355932787638E-2    2.177842326927047E-2    4.334330827186131E-2    2.093370074042341E-2    9.529097651858105E-1   -1.163724234060133E-1
 5.329062042066076E7     9.521991966689548E-1   -1.204795721117458E-1    4.310590312929855E-2    2.202048415759802E-2    4.339089798815415E-2    2.117370645232333E-2    9.528064973488198E-1   -1.173195748492516E-1
 5.369722053482568E7     9.520800789500050E-1   -1.214827723666641E-1    4.314950546240970E-2    2.226496637125591E-2    4.344103426911316E-2    2.141499906813601E-2    9.526678451770914E-1   -1.183173755976167E-1
 5.410692295201402E7     9.519439596170040E-1   -1.224547344784713E-1    4.319313567070389E-2    2.250930485378650E-2    4.348838404863103E-2    2.165761634486650E-2    9.525743231791208E-1   -1.192715441990741E-1
 5.451975134237129E7     9.518282456287246E-1   -1.234902281972572E-1    4.323821252624845E-2    2.275548775980781E-2    4.353976239649219E-2    2.190232057346760E-2    9.524334382953016E-1   -1.202595975474650E-1
 5.493572955664375E7     9.516942037913811E-1   -1.245205673944459E-1    4.328426930631419E-2    2.300143928055532E-2    4.359078885562818E-2    2.214646046383571E-2    9.523129287843677E-1   -1.212529965155007E-1
 5.535488162755510E7     9.515787613707278E-1   -1.255118849277851E-1    4.332942933409917E-2    2.325391270915286E-2    4.364322676618732E-2    2.239569346984745E-2    9.521993437889027E-1   -1.222520168044636E-1
 5.577723177119546E7     9.514361553408822E-1   -1.265298635959985E-1    4.337807811238847E-2    2.350578338556239E-2    4.369818742435552E-2    2.264295837029290E-2    9.520473365531674E-1   -1.232549566431363E-1
 5.620280438842070E7     9.512686896337607E-1   -1.275607381723616E-1    4.342653450977664E-2    2.375914006936216E-2    4.375311748014892E-2    2.289312906333087E-2    9.519084683263631E-1   -1.242627776931945E-1
 5.663162406626155E7     9.511376299841237E-1   -1.285956408753270E-1    4.347710016505871E-2    2.401440288253293E-2    4.380996458896065E-2    2.314354815218402E-2    9.517701598748411E-1   -1.253144855047596E-1
 5.706371557934452E7     9.509915614935710E-1   -1.296467021016336E-1    4.353075642021694E-2    2.427108404119518E-2    4.386776169198028E-2    2.339909620723048E-2    9.516529723439315E-1   -1.263246781704867E-1
 5.749910389132310E7     9.508482497593667E-1   -1.307080272342855E-1    4.358125415384480E-2    2.452907709656163E-2    4.392602926188138E-2    2.365240712689600E-2    9.514972581140082E-1   -1.273697388793800E-1
 5.793781415631992E7     9.506930093340091E-1   -1.317667823159925E-1    4.363270811369224E-2    2.478909789737113E-2    4.398524318713092E-2    2.391116402374764E-2    9.513493901246595E-1   -1.284090932251235E-1
 5.837987172038046E7     9.508355125155198E-1   -1.322002676471808E-1    4.382099916143832E-2    2.498576546981676E-2    4.387764381398297E-2    2.480477290705974E-2    9.511211655522549E-1   -1.296194693607803E-1
 5.882530212293670E7     9.506686660221944E-1   -1.332938259151636E-1    4.387658720578526E-2    2.524568315345604E-2    4.393566557537807E-2    2.506774789339595E-2    9.509510912584550E-1   -1.306658240661658E-1
 5.927413109828297E7     9.504978119931538E-1   -1.343618565802202E-1    4.393697760328397E-2    2.551264621376009E-2    4.399686770636178E-2    2.533047683932393E-2    9.507954039106277E-1   -1.317152306710398E-1
 5.972638457706322E7     9.503481686016022E-1   -1.354198006495360E-1    4.399644835914099E-2    2.577998368556638E-2    4.405810634000153E-2    2.559836926218340E-2    9.506513235820223E-1   -1.327887845578574E-1
 6.018208868776779E7     9.501990598812695E-1   -1.365030246022848E-1    4.405756097411295E-2    2.604951019910092E-2    4.412201761122301E-2    2.586800912390072E-2    9.504829791891812E-1   -1.338530595633922E-1
 6.064126975824468E7     9.500091987089683E-1   -1.375849046796973E-1    4.412116519658649E-2    2.631786089757637E-2    4.418921591310201E-2    2.613481720512663E-2    9.503416119375878E-1   -1.349594593360497E-1
 6.110395431721926E7     9.498382759796367E-1   -1.387399575471517E-1    4.418737878943318E-2    2.659001905564657E-2    4.425771621695450E-2    2.640692049423150E-2    9.501620519980114E-1   -1.360373046043293E-1
 6.157016909582742E7     9.496740139213443E-1   -1.398185470590672E-1    4.425205839936853E-2    2.686419732037571E-2    4.432368414735364E-2    2.667771235487627E-2    9.499919583639750E-1   -1.371348347973103E-1
 6.203994102916045E7     9.494969940888466E-1   -1.409532369948383E-1    4.432353674043146E-2    2.713621608377195E-2    4.439477984617613E-2    2.695180489240264E-2    9.498201732455033E-1   -1.382362025983352E-1
 6.251329725781982E7     9.493028221478957E-1   -1.420760607928991E-1    4.438940047085892E-2    2.740985272260732E-2    4.446429438294414E-2    2.722732484038926E-2    9.496280375702661E-1   -1.393634055371143E-1
 6.299026512948693E7     9.490991253698375E-1   -1.432150801758402E-1    4.445778530643710E-2    2.768467094745833E-2    4.453893797346722E-2    2.750425426660481E-2    9.494886804063103E-1   -1.405010300200952E-1
 6.347087220050172E7     9.489218688296407E-1   -1.443639053044451E-1    4.452920754103139E-2    2.796240172697906E-2    4.461194676069205E-2    2.778142016369372E-2    9.493009020461743E-1   -1.416235505146757E-1
 6.395514623745525E7     9.487424472257542E-1   -1.455563768995885E-1    4.460186731725999E-2    2.824434953375151E-2    4.468494875587556E-2    2.806196363545854E-2    9.491128247313140E-1   -1.427615214350284E-1
 6.444311521879433E7     9.485539506339531E-1   -1.466984891767571E-1    4.467168807578275E-2    2.852886110693112E-2    4.475955902458769E-2    2.834634541566340E-2    9.489333047307641E-1   -1.439209223202126E-1
 6.493480733643661E7     9.483620235562857E-1   -1.478996781982347E-1    4.474816699647134E-2    2.881069494310615E-2    4.483484894530305E-2    2.862797503670255E-2    9.487236289163761E-1   -1.450688812374246E-1
 6.543025099740107E7     9.481443493222130E-1   -1.490745516961073E-1    4.482264381018898E-2    2.909547781289383E-2    4.491305154940287E-2    2.891417157329787E-2    9.485359387956264E-1   -1.462648070016357E-1
 6.592947482544785E7     9.477630094191750E-1   -1.514704754000900E-1    4.465393890125514E-2    2.953054317883800E-2    4.565389817118222E-2    2.818095941153850E-2    9.484215075064863E-1   -1.472661169484156E-1
 6.643250766273243E7     9.476024353204110E-1   -1.527284702199938E-1    4.473464086727010E-2    2.982471708512004E-2    4.575585514470482E-2    2.846213560243168E-2    9.482219563805471E-1   -1.484407393742523E-1
 6.693937857147253E7     9.473844734791773E-1   -1.539210981101284E-1    4.480622812738983E-2    3.011813670242957E-2    4.584658661665487E-2    2.875357546194955E-2    9.480376718499413E-1   -1.496037337700672E-1
 6.745011683562562E7     9.471704163788497E-1   -1.551766354240275E-1    4.487450094791730E-2    3.042188947717283E-2    4.593787773391603E-2    2.904501725386108E-2    9.478283018460345E-1   -1.507896968001269E-1
 6.796475196258274E7     9.469610514438412E-1   -1.563559094939050E-1    4.495191601513600E-2    3.073367538232641E-2    4.603078146862286E-2    2.935389438823155E-2    9.476261603128755E-1   -1.520111501726497E-1
 6.848331368487169E7     9.467593611480746E-1   -1.575529431211837E-1    4.503637635313328E-2    3.105263691142417E-2    4.612778433585702E-2    2.967058414743430E-2    9.474221794747009E-1   -1.531556016396455E-1
 6.900583196187538E7     9.463992760951524E-1   -1.582273009826183E-1    4.520630586609672E-2    3.132807772791479E-2    4.572318536041511E-2    3.035442442790221E-2    9.472074287317397E-1   -1.543897818359980E-1
 6.953233698156311E7     9.461627012143976E-1   -1.594400449173422E-1    4.529543078836198E-2    3.164327922760837E-2    4.583206167813174E-2    3.064772106718136E-2    9.469494519077336E-1   -1.557426265234354E-1
 7.006285916223384E7     9.459347664268822E-1   -1.607289052602334E-1    4.538642984422993E-2    3.195953802032590E-2    4.594486963570522E-2    3.093407954295337E-2    9.467029855097752E-1   -1.570455870109167E-1
 7.059742915427396E7     9.456543068416854E-1   -1.621151885171306E-1    4.548228565148199E-2    3.226524743426915E-2    4.604857098321782E-2    3.123292978361382E-2    9.464753786259495E-1   -1.582291560590923E-1
 7.113607784192866E7     9.454242194096738E-1   -1.633789452863257E-1    4.558004644515634E-2    3.257363382342491E-2    4.615321843098776E-2    3.154322932052552E-2    9.462725394531688E-1   -1.595045512260477E-1
 7.167883634508467E7     9.451987785535112E-1   -1.646280757443310E-1    4.568118739945967E-2    3.288054937140219E-2    4.626082056579581E-2    3.185834474078486E-2    9.460379335296678E-1   -1.607557384497310E-1
 7.222573602107021E7     9.449646595554405E-1   -1.659296821480339E-1    4.577867322349712E-2    3.319309246717323E-2    4.635900952827672E-2    3.217960328506261E-2    9.458090110675276E-1   -1.619666840585006E-1
 7.277680846646504E7     9.446917074449558E-1   -1.671959132147647E-1    4.587448478609216E-2    3.351363645585338E-2    4.646072323769361E-2    3.250302174401287E-2    9.455647474339627E-1   -1.632725396694335E-1
 7.333208551892644E7     9.444730091692795E-1   -1.684764852569277E-1    4.596824012171881E-2    3.384808154135496E-2    4.657322685590561E-2    3.281213762659499E-2    9.452630479993414E-1   -1.647325426912379E-1
 7.389159925902925E7     9.441850384698613E-1   -1.698467078286519E-1    4.607017365611555E-2    3.418432180065025E-2    4.670117661792082E-2    3.311994511800358E-2    9.449908214400794E-1   -1.660559341857072E-1
 7.445538201211768E7     9.439130989381215E-1   -1.712953672473136E-1    4.618145873232795E-2    3.451160394584839E-2    4.682066756553563E-2    3.343763095820461E-2    9.447324241178595E-1   -1.673184019711333E-1
 7.502346635017487E7     9.436452981106687E-1   -1.726343075836645E-1    4.629767274966951E-2    3.482922088983153E-2    4.693646901633361E-2    3.376718515126399E-2    9.444760457171257E-1   -1.686028128356861E-1
 7.559588509370317E7     9.433957119816228E-1   -1.739539202358578E-1    4.641168900557636E-2    3.515130129208279E-2    4.705769853392362E-2    3.409788635400578E-2    9.442178626160624E-1   -1.699327654863481E-1
 7.617267131362079E7     9.431348534216587E-1   -1.752912399340194E-1    4.652755726865999E-2    3.547792677259765E-2    4.716963547808618E-2    3.442963536255531E-2    9.439420017331963E-1   -1.712418893430225E-1
 7.675385833317320E7     9.428567479341314E-1   -1.766180617201751E-1    4.663458984621515E-2    3.581305318502305E-2    4.728314700757515E-2    3.476613992481953E-2    9.436392037631771E-1   -1.725955787651415E-1
 7.733947972985649E7     9.425667324984632E-1   -1.780029673325846E-1    4.673813167337490E-2    3.616152111500295E-2    4.741207211853500E-2    3.509205274937416E-2    9.433289970335985E-1   -1.740685304514012E-1
 7.792956933735959E7     9.422154484986038E-1   -1.794564382456409E-1    4.684516825904112E-2    3.651132263640999E-2    4.754964298894878E-2    3.541517364804798E-2    9.430347793836025E-1   -1.754868821662979E-1
 7.852416124751715E7     9.419235058856048E-1   -1.809544337483565E-1    4.696494044875536E-2    3.685476164020540E-2    4.768061664970263E-2    3.575505738956240E-2    9.427392577256180E-1   -1.768285890538925E-1
 7.912328981227988E7     9.416563359930258E-1   -1.822871477971107E-1    4.708833863502067E-2    3.720440979401040E-2    4.780519030664622E-2    3.610989095573498E-2    9.424633353460171E-1   -1.782052076398616E-1
 7.972698964569975E7     9.413215204612742E-1   -1.836606276718142E-1    4.721044971504793E-2    3.755794640845227E-2    4.793108479240907E-2    3.646864277667886E-2    9.421488372987465E-1   -1.796145733040354E-1
 8.033529562592810E7     9.410163996895029E-1   -1.850773286451791E-1    4.733508655458763E-2    3.791964597014458E-2    4.807206973782812E-2    3.682728893164027E-2    9.418424448895539E-1   -1.810119241046726E-1
 8.094824289723292E7     9.407054993066916E-1   -1.865248451410077E-1    4.747253260058499E-2    3.828583693201652E-2    4.822349856808339E-2    3.718584526804292E-2    9.415004422247707E-1   -1.824124666646156E-1
 8.156586687202743E7     9.403697816451668E-1   -1.879794115110040E-1    4.761328823624273E-2    3.864827961384717E-2    4.837886708794523E-2    3.754456963592034E-2    9.412082646998783E-1   -1.838665830800313E-1
 8.218820323291673E7     9.400342671969876E-1   -1.894641303711198E-1    4.776305045579945E-2    3.900674582136773E-2    4.853589988955694E-2    3.790413638241569E-2    9.409099886456715E-1   -1.853180768547629E-1
 8.281528793475981E7     9.397037509106180E-1   -1.909009664491611E-1    4.791476787385497E-2    3.937031577181346E-2    4.868759293426247E-2    3.826637869540069E-2    9.405928157310384E-1   -1.867837284351735E-1
 8.344715720674579E7     9.394196713277043E-1   -1.923905885807298E-1    4.806686765620093E-2    3.973340785152688E-2    4.884771721973336E-2    3.863143657194790E-2    9.402430253398686E-1   -1.882495116749918E-1
 8.408384755448765E7     9.391061847758981E-1   -1.938936781960156E-1    4.821957121489159E-2    4.009489288774256E-2    4.900567663164956E-2    3.900074849134567E-2    9.399238279688906E-1   -1.897290744522186E-1
 8.472539576213124E7     9.387464369426110E-1   -1.953978307825117E-1    4.836697663078989E-2    4.045918888340732E-2    4.916405559314084E-2    3.937497378785965E-2    9.395678380773433E-1   -1.912073609253591E-1
 8.537183889448020E7     9.383808320814104E-1   -1.968947829712376E-1    4.851177341052003E-2    4.083598632982794E-2    4.933290561579098E-2    3.976327244245667E-2    9.392276737869526E-1   -1.927013827001061E-1
 8.602321429913802E7     9.380129269511328E-1   -1.984057166894892E-1    4.867018959649616E-2    4.121909560356801E-2    4.952086913292589E-2    4.014342621441187E-2    9.389123572001985E-1   -1.942129149112826E-1
 8.667955960866481E7     9.376624927516742E-1   -1.999299918540090E-1    4.883349700192158E-2    4.160224477062578E-2    4.970615948101277E-2    4.051924619234165E-2    9.386090403221208E-1   -1.957607882051455E-1
 8.734091274275188E7     9.372911513747542E-1   -2.014817156658968E-1    4.899636965401220E-2    4.198565867821440E-2    4.988720008890435E-2    4.090045326885762E-2    9.382478676884400E-1   -1.972753760880256E-1
 8.800731191041334E7     9.369123626478898E-1   -2.030202513803945E-1    4.916148867727874E-2    4.237967364746019E-2    5.007546000570529E-2    4.128513919286244E-2    9.378598177407793E-1   -1.988072531520255E-1
 8.867879561219153E7     9.365348334479435E-1   -2.045672835112370E-1    4.933418088470591E-2    4.278132164661209E-2    5.027106639795831E-2    4.167499168798445E-2    9.375230873497198E-1   -2.003745556324635E-1
 8.935540264238395E7     9.361921501344131E-1   -2.061522421533476E-1    4.952998949831119E-2    4.318681572384239E-2    5.047512910288965E-2    4.205880290967217E-2    9.371730474997862E-1   -2.019450897274137E-1
 9.003717209128250E7     9.357883463692750E-1   -2.077058688503389E-1    4.971083983986050E-2    4.357611370346252E-2    5.065452523860158E-2    4.244141995675660E-2    9.367995041978562E-1   -2.035013052746028E-1
 9.072414334743266E7     9.354401390978493E-1   -2.093036742382384E-1    4.991375482610742E-2    4.396986667575776E-2    5.086442514947039E-2    4.282470937087293E-2    9.364228214171885E-1   -2.051117292562385E-1
 9.141635609990983E7     9.350351760026625E-1   -2.109406737395262E-1    5.011221555586116E-2    4.436213509850286E-2    5.107266167972542E-2    4.321051980493536E-2    9.360624008499651E-1   -2.067230101660376E-1
 9.211385034061028E7     9.346402324779007E-1   -2.125619894621183E-1    5.031711279473883E-2    4.476154854076174E-2    5.128258455411561E-2    4.360092329181576E-2    9.356496091735560E-1   -2.083570855497082E-1
 9.281666636656430E7     9.342511103818418E-1   -2.141923832483288E-1    5.053279845492176E-2    4.515995098886103E-2    5.150085715097744E-2    4.399639734945401E-2    9.352860270317069E-1   -2.100078786855180E-1
 9.352484478226222E7     9.338434243769481E-1   -2.158519099096854E-1    5.074962885308321E-2    4.555053904078094E-2    5.171791356211185E-2    4.438715989663582E-2    9.348568410592365E-1   -2.116409944873462E-1
 9.423842650200106E7     9.334479777041754E-1   -2.175351685065292E-1    5.096512782899385E-2    4.594102600489674E-2    5.194267128770823E-2    4.477697277416092E-2    9.344501906656830E-1   -2.132977679575399E-1
 9.495745275224906E7     9.329972164190966E-1   -2.192070896297108E-1    5.117756413877640E-2    4.632965758314125E-2    5.216571450241233E-2    4.516562538422891E-2    9.340374525409526E-1   -2.149943354546568E-1
 9.568196507402541E7     9.325364861367854E-1   -2.208995393520221E-1    5.139427995928917E-2    4.672772953806768E-2    5.238718686478887E-2    4.555712978739090E-2    9.335677247035288E-1   -2.166675417733941E-1
 9.641200532530291E7     9.320864329133851E-1   -2.226334325568995E-1    5.161394061968335E-2    4.712854505052016E-2    5.261060053320280E-2    4.595193367582873E-2    9.331492478691997E-1   -2.183729550125309E-1
 9.714761568342420E7     9.316434359293800E-1   -2.243474712423504E-1    5.183272017608753E-2    4.753335243699590E-2    5.283280061105748E-2    4.635642369182345E-2    9.326687889098676E-1   -2.200604824075815E-1
 9.788883864753923E7     9.311310864344353E-1   -2.260764352825890E-1    5.205630279369067E-2    4.794208875934321E-2    5.306204378666203E-2    4.676444593356947E-2    9.321830397482143E-1   -2.217677845948310E-1
 9.863571704106140E7     9.306474470830034E-1   -2.278176556482539E-1    5.228062084718046E-2    4.835328847691409E-2    5.329465734339615E-2    4.717145263228591E-2    9.316959039544546E-1   -2.235001075714487E-1
 9.938829401413949E7     9.301261383317988E-1   -2.295666093077336E-1    5.250650981435259E-2    4.876792632414435E-2    5.352637345897103E-2    4.758535508109804E-2    9.312095635527072E-1   -2.252427737561941E-1
 1.001466130461536E8     9.296268524442429E-1   -2.313477529493707E-1    5.274024521773927E-2    4.919467901665403E-2    5.376089514004647E-2    4.801315285880951E-2    9.307035684685421E-1   -2.269692245258048E-1
 1.009107179482240E8     9.290968909806773E-1   -2.331101148266933E-1    5.297986376977116E-2    4.962902154269063E-2    5.401621502184761E-2    4.844525808987060E-2    9.302063296012603E-1   -2.287322792723350E-1
 1.016806528657447E8     9.285442676741977E-1   -2.348987568490810E-1    5.323449290585647E-2    5.006472082424245E-2    5.427786979507625E-2    4.887559016954321E-2    9.297010671756223E-1   -2.304991967130311E-1
 1.024564622809335E8     9.279790151282790E-1   -2.367113491877560E-1    5.349407869155911E-2    5.050269234247369E-2    5.454523826450983E-2    4.930633363664841E-2    9.291995139895639E-1   -2.322860616152304E-1
 1.032381910153997E8     9.274343973221465E-1   -2.385302241312521E-1    5.376714053555560E-2    5.093987701664959E-2    5.482244577611530E-2    4.973833712458120E-2    9.286687799469964E-1   -2.340752526185554E-1
 1.040258842327368E8     9.268454065926435E-1   -2.403648600315156E-1    5.405232237405172E-2    5.136996930452538E-2    5.510772216339806E-2    5.015616712405038E-2    9.281554084230813E-1   -2.358675786545039E-1
 1.048195874411304E8     9.262351247101699E-1   -2.422131690294059E-1    5.433010051131260E-2    5.179288784020281E-2    5.539150717151185E-2    5.057428803198641E-2    9.276204761496540E-1   -2.376793179984569E-1
 1.056193464959857E8     9.256178197368545E-1   -2.440333640770861E-1    5.461197082662363E-2    5.221537566693207E-2    5.566683752354679E-2    5.099458434861994E-2    9.270921148666345E-1   -2.395075116482616E-1
 1.064252076025801E8     9.250128186309086E-1   -2.459031107284978E-1    5.488513241069540E-2    5.264377040063268E-2    5.593955033884216E-2    5.141667976727134E-2    9.265433781997561E-1   -2.413660021355609E-1
 1.072372173187304E8     9.243699065490595E-1   -2.477458321450036E-1    5.516278479672834E-2    5.308624459465359E-2    5.621569576943673E-2    5.186077973833417E-2    9.259657435751905E-1   -2.432524134596304E-1
 1.080554225574824E8     9.236991278997166E-1   -2.496454066966890E-1    5.545686164948228E-2    5.352885079792853E-2    5.650188601746241E-2    5.230157973997780E-2    9.254091891383602E-1   -2.451415680740889E-1
 1.088798705898232E8     9.230214201545497E-1   -2.515011952227137E-1    5.575104992264121E-2    5.397573475220391E-2    5.679692488079074E-2    5.274718522993202E-2    9.248417739136826E-1   -2.470530202369837E-1
 1.097106090474096E8     9.223617395628353E-1   -2.533654398509728E-1    5.606645757905061E-2    5.442615486142793E-2    5.710089702221976E-2    5.320213961903078E-2    9.242236478681570E-1   -2.489820028468170E-1
 1.105476859253232E8     9.216977160637588E-1   -2.552538833763940E-1    5.639604330747912E-2    5.486353496818806E-2    5.742247340861570E-2    5.364528806657481E-2    9.236342191774701E-1   -2.509048267138918E-1
 1.113911495848395E8     9.210533276824378E-1   -2.571530067984587E-1    5.671465442470957E-2    5.528570372920541E-2    5.773491468690484E-2    5.408224171981765E-2    9.230006038744885E-1   -2.528562804096842E-1
 1.122410487562254E8     9.204315609435783E-1   -2.590835969743173E-1    5.701961604639687E-2    5.572188721175465E-2    5.804937763187798E-2    5.452569151914683E-2    9.223843676579374E-1   -2.548426939799587E-1
 1.130974325415529E8     9.197858569657187E-1   -2.610484677895617E-1    5.732806736864628E-2    5.616840921327809E-2    5.836491743692514E-2    5.498273344092397E-2    9.217163855898647E-1   -2.568437290878799E-1
 1.139603504175348E8     9.191266158742111E-1   -2.630339395400479E-1    5.764668750640219E-2    5.662286350267727E-2    5.869908793153888E-2    5.543845607034658E-2    9.210690790870769E-1   -2.588044412885364E-1
 1.148298522383858E8     9.184529685411206E-1   -2.650282493048600E-1    5.796668039025030E-2    5.707926137745978E-2    5.902910550873153E-2    5.588980399195460E-2    9.204068467895947E-1   -2.608253648829017E-1
 1.157059882387014E8     9.177898637564303E-1   -2.670580777658813E-1    5.829119339040677E-2    5.754586044194427E-2    5.936311157189231E-2    5.634418687300460E-2    9.197067918661278E-1   -2.628443841762793E-1
 1.165888090363587E8     9.170801707783897E-1   -2.691300853829703E-1    5.862824300392062E-2    5.801025677897580E-2    5.969747715843497E-2    5.680071982236504E-2    9.190351583459898E-1   -2.648791249301420E-1
 1.174783656354443E8     9.163469430405150E-1   -2.711972099356638E-1    5.896862777342542E-2    5.847186101666866E-2    6.002621824940822E-2    5.725577840858416E-2    9.183233304737901E-1   -2.669362239702672E-1
 1.183747094291968E8     9.156169424921308E-1   -2.732632633040789E-1    5.930564785445851E-2    5.893605398701123E-2    6.035590462833836E-2    5.773002977830322E-2    9.176507430892585E-1   -2.690174708644713E-1
 1.192778922029803E8     9.149175316027295E-1   -2.753746220459005E-1    5.963926283688619E-2    5.941885332603092E-2    6.069675498770127E-2    5.822057019572698E-2    9.169506110456558E-1   -2.711135774187848E-1
 1.201879661372721E8     9.141784267944942E-1   -2.775305891836599E-1    5.999252323336669E-2    5.991347795968048E-2    6.105427099566324E-2    5.871995938276717E-2    9.162158972412597E-1   -2.732475663642714E-1
 1.211049838106809E8     9.134195181200946E-1   -2.796889474548059E-1    6.036295474848737E-2    6.040011275240215E-2    6.143790434423926E-2    5.920502828681418E-2    9.154533011366562E-1   -2.753818712551349E-1
 1.220289982029829E8     9.126912095828924E-1   -2.818738962261778E-1    6.072639555836336E-2    6.088575114856992E-2    6.181184647280007E-2    5.968094233643000E-2    9.147041261613541E-1   -2.775126857189929E-1
 1.229600626981811E8     9.119180775297543E-1   -2.841077325099243E-1    6.108688421199225E-2    6.138365500976840E-2    6.218310939109800E-2    6.016446165038471E-2    9.139428863090286E-1   -2.796845942382109E-1
 1.238982310875929E8     9.111244147676366E-1   -2.863631069459646E-1    6.145934303806823E-2    6.189607893988341E-2    6.255751404539842E-2    6.066718016659085E-2    9.131636512120558E-1   -2.818716721958907E-1
 1.248435575729559E8     9.102847545240323E-1   -2.886385191363983E-1    6.185608043101599E-2    6.241067086920794E-2    6.295157620848925E-2    6.117668042624384E-2    9.123536378908175E-1   -2.840717103430792E-1
 1.257960967695579E8     9.094309315769777E-1   -2.909243271700651E-1    6.224305787307434E-2    6.290389100420785E-2    6.334202704629562E-2    6.166659579408369E-2    9.115338245105881E-1   -2.862539760216470E-1
 1.267559037093956E8     9.085832001038079E-1   -2.932196485207557E-1    6.262739158490543E-2    6.340326619050404E-2    6.373366150109719E-2    6.215049676030396E-2    9.107485331441350E-1   -2.884460994366416E-1
 1.277230338443520E8     9.077191940788755E-1   -2.955534832363375E-1    6.300581119619304E-2    6.394213929607058E-2    6.411451806017505E-2    6.266528810876661E-2    9.099733254331541E-1   -2.906972953282617E-1
 1.286975430493991E8     9.068314946808648E-1   -2.979092026038032E-1    6.341596361711886E-2    6.449905573479868E-2    6.451438181490933E-2    6.320638846738071E-2    9.091495881808427E-1   -2.930030603735841E-1
 1.296794876258291E8     9.059063809863819E-1   -3.002627069026444E-1    6.384916232513713E-2    6.504691562715703E-2    6.494020165568609E-2    6.374941595206179E-2    9.082875659225021E-1   -2.953188378940844E-1
 1.306689243045034E8     9.049691352278298E-1   -3.026005917056919E-1    6.429339740201338E-2    6.559355654574869E-2    6.538199407903147E-2    6.428877396457870E-2    9.074105782987562E-1   -2.976204274379199E-1
 1.316659102491341E8     9.040491845866289E-1   -3.049627179852248E-1    6.474461252630397E-2    6.613868616057886E-2    6.582908785256317E-2    6.482782650377061E-2    9.065249522056449E-1   -2.999575886516588E-1
 1.326705030595824E8     9.031163484236500E-1   -3.073316527041929E-1    6.519940985311805E-2    6.669329564547455E-2    6.628771346297023E-2    6.537507608556478E-2    9.056127998796656E-1   -3.022956791942841E-1
 1.336827607751903E8     9.021849444543216E-1   -3.097486429935986E-1    6.567097190134656E-2    6.724619300861757E-2    6.676987773114289E-2    6.591871355788444E-2    9.047023407333942E-1   -3.046393259449283E-1
 1.347027418781318E8     9.012366858955182E-1   -3.121944012207950E-1    6.614840448557950E-2    6.779389843728953E-2    6.725263870830149E-2    6.644792776549910E-2    9.037939137590143E-1   -3.070101752983907E-1
 1.357305052967905E8     9.002728238091546E-1   -3.146508049947619E-1    6.663272628214259E-2    6.834420603803443E-2    6.772633408411891E-2    6.697605173934162E-2    9.028437923505446E-1   -3.093900102449763E-1
 1.367661104091667E8     8.992949986466985E-1   -3.171360654992580E-1    6.711287661827477E-2    6.889855397018593E-2    6.820089959666990E-2    6.752228656053194E-2    9.018706999904603E-1   -3.117929322763229E-1
 1.378096170463071E8     8.982844934110563E-1   -3.196519432774498E-1    6.760458439598223E-2    6.945930261007352E-2    6.869047405145937E-2    6.807476620824358E-2    9.008962499984526E-1   -3.142018967193839E-1
 1.388610854957592E8     8.972622442283547E-1   -3.221944838685730E-1    6.810448370059524E-2    7.002943900304079E-2    6.919068220366813E-2    6.863393223823433E-2    8.999284477420677E-1   -3.166097795798947E-1
 1.399205765050585E8     8.962110167632902E-1   -3.247342506580144E-1    6.861150976341247E-2    7.060196773491345E-2    6.969380610654773E-2    6.919184760703295E-2    8.989601413325617E-1   -3.190253471398821E-1
 1.409881512852336E8     8.951299096675457E-1   -3.272956609461200E-1    6.912856567642438E-2    7.117774512113516E-2    7.020878054231519E-2    6.975875648775520E-2    8.979606773680846E-1   -3.215146018186426E-1
 1.420638715143470E8     8.940513870123016E-1   -3.298679716508267E-1    6.965676661713485E-2    7.176608006478702E-2    7.073038553108285E-2    7.033758807749775E-2    8.969517536396538E-1   -3.240046491969390E-1
 1.431477993410541E8     8.929669998845784E-1   -3.324286187043088E-1    7.019638209560526E-2    7.235033353264937E-2    7.125928382853557E-2    7.092037446067485E-2    8.959366991994250E-1   -3.264972613554574E-1
 1.442399973881980E8     8.918487153716117E-1   -3.350255817507090E-1    7.073487261488438E-2    7.293677608775892E-2    7.180168958886429E-2    7.151470637303445E-2    8.948900882895495E-1   -3.290706611938945E-1
 1.453405287564251E8     8.907186421012153E-1   -3.376588025230406E-1    7.128683211386010E-2    7.354756243390723E-2    7.236334740627980E-2    7.212147855233624E-2    8.937896281577085E-1   -3.316259720314562E-1
 1.464494570278296E8     8.895615459321395E-1   -3.403080271892210E-1    7.186603817887285E-2    7.416105542719426E-2    7.294772988257059E-2    7.272481591755137E-2    8.926566109345198E-1   -3.341752420390532E-1
 1.475668462696298E8     8.883788295767894E-1   -3.429661030445633E-1    7.246077497930187E-2    7.476376073434307E-2    7.353743329019058E-2    7.332605191546761E-2    8.915308865787379E-1   -3.367420416628853E-1
 1.486927610378684E8     8.871425145874237E-1   -3.456300024432955E-1    7.306684376100810E-2    7.536107207777816E-2    7.414870782409465E-2    7.391949978381794E-2    8.903687949082466E-1   -3.393433185641558E-1
 1.498272663811400E8     8.859172729033619E-1   -3.482849830758200E-1    7.367448274160281E-2    7.595183168922434E-2    7.476312379194107E-2    7.451265148768595E-2    8.891937179214300E-1   -3.419615941465972E-1
 1.509704278443526E8     8.846750899766476E-1   -3.509841228920222E-1    7.428353027424790E-2    7.654064882051391E-2    7.537537247896731E-2    7.510750906732860E-2    8.879797584865244E-1   -3.445801700594708E-1
 1.521223114725131E8     8.834136840546953E-1   -3.536825921125380E-1    7.488158351923123E-2    7.714898264353796E-2    7.598095718709451E-2    7.571481273504389E-2    8.867502500912356E-1   -3.472124586047826E-1
 1.532829838145407E8     8.821272764035079E-1   -3.564435097415340E-1    7.550141781984633E-2    7.777337193338267E-2    7.659937347703207E-2    7.633988304666418E-2    8.855392123188953E-1   -3.498662087844863E-1
 1.544525119271165E8     8.808108241488058E-1   -3.591858863208119E-1    7.613868370625675E-2    7.841971899349988E-2    7.724935688427151E-2    7.698617546598598E-2    8.843241172928714E-1   -3.525412768485894E-1
 1.556309633785520E8     8.794868652107082E-1   -3.619443281722662E-1    7.678736468393871E-2    7.905589127773766E-2    7.793276028322801E-2    7.761657353458452E-2    8.830767781200606E-1   -3.552547132365528E-1
 1.568184062526983E8     8.781497908935191E-1   -3.647293913287388E-1    7.742392336577988E-2    7.971372275047119E-2    7.862927085047047E-2    7.824268756711779E-2    8.818116567729902E-1   -3.579948601758360E-1
 1.580149091528745E8     8.767997831281500E-1   -3.675570051035451E-1    7.807627765234663E-2    8.040551112267227E-2    7.933429137709644E-2    7.888887856453816E-2    8.805406581633525E-1   -3.607011304427257E-1
 1.592205412058353E8     8.753825272466501E-1   -3.703553070974099E-1    7.876234498526637E-2    8.110041616264498E-2    8.008434107050984E-2    7.953791573543309E-2    8.792463994824711E-1   -3.634167526645670E-1
 1.604353720657634E8     8.739622656329096E-1   -3.731061182482256E-1    7.947473011365648E-2    8.179000610672760E-2    8.086082065615273E-2    8.017979055408408E-2    8.779093679277143E-1   -3.661950555756340E-1
 1.616594719182909E8     8.725532106368422E-1   -3.758861675919192E-1    8.020704856172917E-2    8.246488828524676E-2    8.164706978421263E-2    8.081149529712423E-2    8.765415792311440E-1   -3.689775367575852E-1
 1.628929114845590E8     8.711114596798749E-1   -3.786445715778652E-1    8.094723271755128E-2    8.312457009250335E-2    8.244435114961346E-2    8.143447664826808E-2    8.751111311460721E-1   -3.717962905167985E-1
 1.641357620253014E8     8.697557199818142E-1   -3.812435134935213E-1    8.167623681444701E-2    8.379282992412525E-2    8.322897732846213E-2    8.206237805157852E-2    8.736692326950867E-1   -3.746313145225518E-1
 1.653880953449593E8     8.682831247198548E-1   -3.841308427296358E-1    8.244762575906714E-2    8.443348397245588E-2    8.401081002685037E-2    8.269614197094652E-2    8.722050295594905E-1   -3.774680472312084E-1
 1.666499837958347E8     8.667577397693471E-1   -3.870314503204053E-1    8.323599739643445E-2    8.507549606002740E-2    8.480722184656958E-2    8.332968993185999E-2    8.706983823269822E-1   -3.803199747479161E-1
 1.679215002822650E8     8.652152368675521E-1   -3.899504728476810E-1    8.402965860235623E-2    8.572241222487115E-2    8.561335011591796E-2    8.397835568795722E-2    8.691757950989543E-1   -3.832111657383356E-1
 1.692027182648404E8     8.636467705363577E-1   -3.929086926952706E-1    8.483738025213600E-2    8.637786166505050E-2    8.644882325602186E-2    8.463167785990811E-2    8.676201602832068E-1   -3.861528728716664E-1
 1.704937117646426E8     8.620012975422546E-1   -3.958948857596791E-1    8.566403373148082E-2    8.704732080182812E-2    8.730413748474286E-2    8.528002453640236E-2    8.660397534288918E-1   -3.890620440184382E-1
 1.717945553675260E8     8.603755758942532E-1   -3.988893235895996E-1    8.651183349159032E-2    8.770463173600609E-2    8.817572439951749E-2    8.590916168210629E-2    8.644371164982443E-1   -3.920024240668142E-1
 1.731053242284249E8     8.587089586259787E-1   -4.019044824633749E-1    8.735201026606264E-2    8.835461316240842E-2    8.903148124368174E-2    8.654580229097775E-2    8.627624016070986E-1   -3.949540773172800E-1
 1.744260940756933E8     8.570306339669137E-1   -4.049573499363873E-1    8.821463963805540E-2    8.903520423691273E-2    8.991048667890909E-2    8.718972235707559E-2    8.610737151358409E-1   -3.979568267006212E-1
 1.757569412154842E8     8.552917403743481E-1   -4.080262915596511E-1    8.905637872697139E-2    8.969182590357748E-2    9.076405227585266E-2    8.782608609502880E-2    8.593144456003625E-1   -4.009082101374129E-1
 1.770979425361561E8     8.534733066848755E-1   -4.111073710473496E-1    8.989145533492050E-2    9.039664833809516E-2    9.161586541646873E-2    8.850788335003239E-2    8.575885221986735E-1   -4.038731952064424E-1
 1.784491755127131E8     8.515871266277864E-1   -4.141657392509310E-1    9.077186745644616E-2    9.113870204715666E-2    9.250666352355129E-2    8.923305805393365E-2    8.558380417782429E-1   -4.068949512205709E-1
 1.798107182112848E8     8.496553751278504E-1   -4.171831963173830E-1    9.170112790212717E-2    9.188275514611763E-2    9.344671924249678E-2    8.996198886320163E-2    8.540570582961553E-1   -4.099451740169795E-1
 1.811826492936349E8     8.477015764631374E-1   -4.202136622334178E-1    9.265937793738506E-2    9.261348984351540E-2    9.439456692542042E-2    9.068589781660299E-2    8.521832356758846E-1   -4.130071223339459E-1
 1.825650480217040E8     8.457200783393205E-1   -4.232436284781594E-1    9.364543868483872E-2    9.332818913053829E-2    9.538645707678482E-2    9.139871808246440E-2    8.502773728087709E-1   -4.160884747115040E-1
 1.839579942621904E8     8.437117636325282E-1   -4.262815242151792E-1    9.464359194060004E-2    9.404394449176398E-2    9.639351957788184E-2    9.211367862813562E-2    8.483274041333341E-1   -4.191441245954000E-1
 1.853615684911660E8     8.416985112795421E-1   -4.293047797534478E-1    9.565430465726550E-2    9.477217076787231E-2    9.741309157672993E-2    9.283540604988919E-2    8.463481820539168E-1   -4.222032162930833E-1
 1.867758517987237E8     8.396525812309130E-1   -4.323818633422797E-1    9.667633010777910E-2    9.548134347736642E-2    9.844129649253378E-2    9.354759454533614E-2    8.443383317051542E-1   -4.253339393409545E-1
 1.882009258936609E8     8.375339086374890E-1   -4.354461394346273E-1    9.770947099539931E-2    9.622508695488702E-2    9.949932084706353E-2    9.428928813782482E-2    8.422788133544759E-1   -4.284431594866281E-1
 1.896368731082037E8     8.353408123020444E-1   -4.385289879895852E-1    9.875986519225487E-2    9.695121449537367E-2    1.005655660662664E-1    9.501520729830265E-2    8.401461916171149E-1   -4.315842840260361E-1
 1.910837764027621E8     8.331409242011377E-1   -4.416344862004649E-1    9.981927569687143E-2    9.770141132728061E-2    1.016412117985718E-1    9.575775206656487E-2    8.380120251702889E-1   -4.346582393880191E-1
 1.925417193707203E8     8.308694986630614E-1   -4.447969592974284E-1    1.008882235840060E-1    9.845616837928248E-2    1.027302251387712E-1    9.649666054154794E-2    8.358432675722832E-1   -4.378447765730589E-1
 1.940107862432706E8     8.282328259589049E-1   -4.481221287024966E-1    1.020846176733149E-1    9.919119623422872E-2    1.039533044755581E-1    9.711896249082408E-2    8.333282562145053E-1   -4.412288707888507E-1
 1.954910618942780E8     8.257085053260250E-1   -4.512333233015058E-1    1.030877591575042E-1    1.000481602128863E-1    1.049564745365119E-1    9.795484493800874E-2    8.309506055431876E-1   -4.443525480800548E-1
 1.969826318451810E8     8.231594229897298E-1   -4.542812026026221E-1    1.042098380570724E-1    1.010058955195653E-1    1.060709630541374E-1    9.888958133169515E-2    8.286377094754093E-1   -4.474396272046921E-1
 1.984855822699381E8     8.205284885952500E-1   -4.572428571587182E-1    1.053742520710949E-1    1.019516954184595E-1    1.072195183765138E-1    9.983921596321528E-2    8.262759662541803E-1   -4.506012536311508E-1
 2.000000000000000E8     8.179074713495537E-1   -4.601044509386918E-1    1.065865373843586E-1    1.029828515213902E-1    1.084240951557557E-1    1.008783678679634E-1    8.238228676534692E-1   -4.537755888615761E-1
