#  HZ   S   RI   R     50.00 
! Rohde & Schwarz Vector Network Analyzer 
! Rohde-Schwarz,ZNLE6-2Port,1323001256200024,1.71.1.10-23.02.1.238
! Created: UTC 4/11/2025, 6:54:32 AM
! freq[Hz]                re:S11                  im:S11                  re:S21                  im:S21                  re:S12                  im:S12                  re:S22                  im:S22
 1.000000000000000E5     8.606938218628589E-1    9.726461262318296E-2    1.408195414154741E-1   -9.791419831962046E-2    1.410252161281744E-1   -9.802199102456843E-2    8.604776963109189E-1    9.714522523714411E-2
 1.007629862646662E5     8.609741193625616E-1    9.690839683723097E-2    1.405244246376358E-1   -9.756632167383100E-2    1.407278007589204E-1   -9.767182649505089E-2    8.607201577512738E-1    9.678109199494436E-2
 1.015317940097331E5     8.612714205730686E-1    9.655839198277050E-2    1.402326764111983E-1   -9.722519960926476E-2    1.404343891755429E-1   -9.732347375620426E-2    8.609721456880333E-1    9.643405770392523E-2
 1.023064676522963E5     8.615325849663250E-1    9.622287560645865E-2    1.399449942800328E-1   -9.687989682588984E-2    1.401390933328373E-1   -9.697633437421939E-2    8.612934042311380E-1    9.609629448354844E-2
 1.030870519483485E5     8.617612915806261E-1    9.585978792102644E-2    1.396434494970497E-1   -9.653802235939876E-2    1.398491844112170E-1   -9.663826937807043E-2    8.615631197156143E-1    9.575819001943195E-2
 1.038735919953636E5     8.620540962976775E-1    9.551714820115750E-2    1.393511508732380E-1   -9.619811536379932E-2    1.395571520870129E-1   -9.629542036744339E-2    8.618433632504591E-1    9.540977446107746E-2
 1.046661332349037E5     8.623104986752197E-1    9.516881105584994E-2    1.390588979637603E-1   -9.585581902853536E-2    1.392624955746098E-1   -9.596378513419800E-2    8.621521832620284E-1    9.509535374170131E-2
 1.054647214552430E5     8.626101434368130E-1    9.483862127997970E-2    1.387719243971669E-1   -9.552304670459506E-2    1.389738644201042E-1   -9.562604924485618E-2    8.624238414741252E-1    9.474611647911929E-2
 1.062694027940149E5     8.628939472350518E-1    9.449565054824580E-2    1.384795266379233E-1   -9.519426885699331E-2    1.386900670059582E-1   -9.529712036641322E-2    8.627306733775307E-1    9.442677683157499E-2
 1.070802237408760E5     8.633315304046935E-1    9.423523416021773E-2    1.380141654795896E-1   -9.492040136313616E-2    1.383960129222105E-1   -9.496952248444596E-2    8.629879559149972E-1    9.411421543622006E-2
 1.078972311401927E5     8.636392013915116E-1    9.392233302503937E-2    1.377049222329532E-1   -9.461492464808274E-2    1.381034314733995E-1   -9.464259449293752E-2    8.632910331930390E-1    9.378035844505798E-2
 1.087204721937475E5     8.637366521226603E-1    9.351583124924542E-2    1.376106366786116E-1   -9.421588671320658E-2    1.378157785507329E-1   -9.432349887938425E-2    8.635706062644044E-1    9.343881391953222E-2
 1.095499944634658E5     8.639967585818615E-1    9.320399476313586E-2    1.373214895396952E-1   -9.389879627008618E-2    1.375302948533341E-1   -9.400272562959570E-2    8.638877376975259E-1    9.315912481042528E-2
 1.103858458741646E5     8.642922111288278E-1    9.288449520167014E-2    1.370302078596059E-1   -9.357388172490955E-2    1.372415127336500E-1   -9.368243544253248E-2    8.641588740765661E-1    9.282043226371667E-2
 1.112280747163201E5     8.645494095337154E-1    9.256620017593369E-2    1.367395626901100E-1   -9.325030229689671E-2    1.369486433036433E-1   -9.336589966908439E-2    8.644153577398198E-1    9.250932936750353E-2
 1.120767296488583E5     8.648494427998359E-1    9.222254024010686E-2    1.364445650223440E-1   -9.292422183653118E-2    1.366571795538209E-1   -9.304869801532169E-2    8.647056210415358E-1    9.218955324343459E-2
 1.129318597019661E5     8.652009951377387E-1    9.193275080351682E-2    1.360547894508673E-1   -9.264713215034043E-2    1.363637808415461E-1   -9.273607224819749E-2    8.649945652821579E-1    9.187399113617335E-2
 1.137935142799240E5     8.656902635859766E-1    9.174518347594877E-2    1.355774493046049E-1   -9.243064110269358E-2    1.360714475309576E-1   -9.242190456902560E-2    8.652962707134123E-1    9.156571321049062E-2
 1.146617431639607E5     8.660092285225495E-1    9.144782278925642E-2    1.352710162940666E-1   -9.214628913571345E-2    1.357799932502417E-1   -9.211085984497579E-2    8.655393797606720E-1    9.125783848744787E-2
 1.155365965151286E5     8.662870917077981E-1    9.114568052668615E-2    1.349804843081464E-1   -9.184027787992227E-2    1.354898412845519E-1   -9.180746045708450E-2    8.658459985786174E-1    9.094916731796755E-2
 1.164181248772018E5     8.665418684559465E-1    9.083204121707038E-2    1.346931286968672E-1   -9.154465544512162E-2    1.352025533752338E-1   -9.150490639133987E-2    8.661225808919545E-1    9.064703102010740E-2
 1.173063791795965E5     8.665748384628570E-1    9.038424334879179E-2    1.346895199485281E-1   -9.108346362178149E-2    1.349060610959738E-1   -9.120493868229468E-2    8.664037360292902E-1    9.033947570849794E-2
 1.182014107403141E5     8.668301943669486E-1    9.008885623039088E-2    1.344246526943514E-1   -9.079693848924417E-2    1.346129534039122E-1   -9.089860888932162E-2    8.666639584872987E-1    9.005362377515561E-2
 1.191032712689044E5     8.671200929829288E-1    8.979765849811443E-2    1.341321989051217E-1   -9.049945608081580E-2    1.343236010247611E-1   -9.060133466746075E-2    8.669359198653710E-1    8.973799650391286E-2
 1.200120128694542E5     8.674314115598268E-1    8.950190771599911E-2    1.338483110040830E-1   -9.020646173897824E-2    1.340329023424704E-1   -9.030311802610286E-2    8.672438299820353E-1    8.946505699856007E-2
 1.209276880435975E5     8.677213923409062E-1    8.921557832145725E-2    1.335590417977463E-1   -8.990933479817229E-2    1.337450870919108E-1   -9.001264223379637E-2    8.675356128515130E-1    8.916478475863018E-2
 1.218503496935483E5     8.679829082478756E-1    8.892737128872368E-2    1.332712621181217E-1   -8.962143766270229E-2    1.334502652695768E-1   -8.971550766470818E-2    8.678207324915599E-1    8.888778364006922E-2
 1.227800511251578E5     8.682745433519621E-1    8.864064782631777E-2    1.329845933442035E-1   -8.932859898165527E-2    1.331609587371631E-1   -8.942765427245709E-2    8.681049993014192E-1    8.858473900862525E-2
 1.237168460509929E5     8.685370050193252E-1    8.835564371683606E-2    1.326921058623142E-1   -8.904324061514444E-2    1.328720683634118E-1   -8.913799400175224E-2    8.684062306934566E-1    8.830769755323749E-2
 1.246607885934402E5     8.688383146125658E-1    8.806792734003219E-2    1.323983247211269E-1   -8.875292667368043E-2    1.325775539292735E-1   -8.885616233019418E-2    8.687084186562530E-1    8.801066336255228E-2
 1.256119332878327E5     8.691074867506807E-1    8.776548282230218E-2    1.321100860879667E-1   -8.846922114384999E-2    1.322893001638593E-1   -8.856974325228431E-2    8.689673168307609E-1    8.772397994466388E-2
 1.265703350856002E5     8.693903175675493E-1    8.748447922917495E-2    1.318203921490648E-1   -8.818559658667731E-2    1.320032621959192E-1   -8.829184476785680E-2    8.692658168583564E-1    8.744605179615142E-2
 1.275360493574453E5     8.696824898610676E-1    8.719585088317118E-2    1.315261304417631E-1   -8.790411167645026E-2    1.317084345794395E-1   -8.800521549949518E-2    8.695373057195547E-1    8.716330770572979E-2
 1.285091318965405E5     8.699826481462718E-1    8.690935882404151E-2    1.312366463068235E-1   -8.761200409271673E-2    1.314229413831486E-1   -8.772988178092070E-2    8.698360742970876E-1    8.688648683165541E-2
 1.294896389217529E5     8.702708572524568E-1    8.664675156013377E-2    1.309090611051579E-1   -8.734038765345016E-2    1.311274574279173E-1   -8.744802140738255E-2    8.701310646617189E-1    8.661557691520973E-2
 1.304776270808914E5     8.705221375634428E-1    8.637543195477124E-2    1.306527443095970E-1   -8.706491648476034E-2    1.308388041461469E-1   -8.717589253392764E-2    8.704660489162539E-1    8.635262622109155E-2
 1.314731534539810E5     8.708300850785776E-1    8.609776306741497E-2    1.303672678455365E-1   -8.678898764097503E-2    1.305444831107173E-1   -8.689951835166713E-2    8.707090795452690E-1    8.607510191966573E-2
 1.324762755565583E5     8.711234528857749E-1    8.583246666950152E-2    1.300762244440036E-1   -8.651325152374784E-2    1.302522353278144E-1   -8.662445794661784E-2    8.710031067711099E-1    8.578523380970379E-2
 1.334870513429962E5     8.717246380415480E-1    8.560524978473259E-2    1.294896121378474E-1   -8.630264221202841E-2    1.299674495175338E-1   -8.635664457873697E-2    8.713094405225013E-1    8.553678105349484E-2
 1.345055392098512E5     8.717180621614465E-1    8.527976219730608E-2    1.294898586862509E-1   -8.597192199158116E-2    1.296733556505082E-1   -8.608586060907641E-2    8.715604926672134E-1    8.525326781888898E-2
 1.355317979992373E5     8.720248616956696E-1    8.502101256259452E-2    1.292002976446844E-1   -8.570413973726262E-2    1.293789627960509E-1   -8.581920916425224E-2    8.718845230478399E-1    8.499121277184157E-2
 1.365658870022265E5     8.722970114183280E-1    8.474525077136022E-2    1.289095082189627E-1   -8.543150469936697E-2    1.290906407912507E-1   -8.554481150643917E-2    8.721696629274052E-1    8.472319601184419E-2
 1.376078659622731E5     8.725790898452431E-1    8.449359034907326E-2    1.286205131960602E-1   -8.516851961258586E-2    1.287896643835714E-1   -8.528261217479650E-2    8.724136512985368E-1    8.443767011949523E-2
 1.386577950786655E5     8.728613385712366E-1    8.420571245378075E-2    1.283306603391241E-1   -8.490862699601405E-2    1.284989987440866E-1   -8.501806631470991E-2    8.726914995806774E-1    8.417833152683089E-2
 1.397157350100044E5     8.731332560806758E-1    8.393743035560976E-2    1.280339353559685E-1   -8.463797111629205E-2    1.282084419347891E-1   -8.475942673505879E-2    8.729860948229680E-1    8.391254386126273E-2
 1.407817468777081E5     8.734135192753877E-1    8.368108155199371E-2    1.277500406161198E-1   -8.438819802684952E-2    1.279116927549953E-1   -8.449360142872597E-2    8.732786226816714E-1    8.366073949818735E-2
 1.418558922695422E5     8.737043664548336E-1    8.343043920151529E-2    1.274642364669754E-1   -8.413859987961117E-2    1.276196844205643E-1   -8.423561462703877E-2    8.735763363661213E-1    8.340444986636854E-2
 1.429382332431784E5     8.739672528816557E-1    8.318328917195864E-2    1.271705707657693E-1   -8.387483022237717E-2    1.273300218821487E-1   -8.397775399117162E-2    8.738779291443566E-1    8.315925436118350E-2
 1.440288323297804E5     8.742871748141495E-1    8.293518348904666E-2    1.268805826689383E-1   -8.362581596706861E-2    1.270390258538383E-1   -8.371823264248350E-2    8.741802253064492E-1    8.288764748471565E-2
 1.451277525376154E5     8.745886067465697E-1    8.267060168410814E-2    1.265929420388739E-1   -8.337210230501110E-2    1.267497514149568E-1   -8.346835136141276E-2    8.744620821275761E-1    8.264239246318617E-2
 1.462350573556962E5     8.748447951028816E-1    8.242867743154260E-2    1.262957489261649E-1   -8.311713985864345E-2    1.264665664918859E-1   -8.321580330588617E-2    8.747454709717007E-1    8.239112066812200E-2
 1.473508107574468E5     8.751234556913615E-1    8.217743765783996E-2    1.260099693128169E-1   -8.286120679742923E-2    1.261648233748662E-1   -8.295755010522701E-2    8.750167187312374E-1    8.212621888458627E-2
 1.484750772044004E5     8.754270750228178E-1    8.190879299952036E-2    1.257124997220305E-1   -8.261061550084697E-2    1.258760441132794E-1   -8.271455569867991E-2    8.753105829301121E-1    8.188253830026943E-2
 1.496079216499225E5     8.757445542978796E-1    8.166851606196709E-2    1.254225652920505E-1   -8.236010369617519E-2    1.255792842230685E-1   -8.245895431661325E-2    8.756119009078123E-1    8.163138942495207E-2
 1.507494095429637E5     8.761254359262611E-1    8.147424964093264E-2    1.250182262060178E-1   -8.215756820989573E-2    1.252897418551996E-1   -8.221260710113354E-2    8.759258103295336E-1    8.139961806494392E-2
 1.518996068318418E5     8.765524478272876E-1    8.127485880357414E-2    1.245678881662454E-1   -8.197869691231878E-2    1.249984238388880E-1   -8.196106360481611E-2    8.762265985787491E-1    8.113398787876232E-2
 1.530585799680507E5     8.765531306840604E-1    8.088969772552751E-2    1.245415877902791E-1   -8.160390377220429E-2    1.247101492268800E-1   -8.171928261862144E-2    8.764877910089721E-1    8.089073926285299E-2
 1.542263959101001E5     8.768834933063606E-1    8.065261522283659E-2    1.242545748438911E-1   -8.137008678844539E-2    1.244119646905322E-1   -8.147155219754526E-2    8.767715267627667E-1    8.064733640788715E-2
 1.554031221273835E5     8.771367711602275E-1    8.041423580920626E-2    1.239627406907925E-1   -8.112531455940740E-2    1.241229047067359E-1   -8.122521728861241E-2    8.770523629338587E-1    8.039462907534248E-2
 1.565888266040779E5     8.774556536964344E-1    8.015897761706572E-2    1.236704346063545E-1   -8.087324916549064E-2    1.238283253537830E-1   -8.097961169149240E-2    8.773320512211568E-1    8.015613071556103E-2
 1.577835778430689E5     8.777323479203403E-1    7.992876116222390E-2    1.233826970087359E-1   -8.063944493553366E-2    1.235358832916116E-1   -8.073415705104750E-2    8.775974139383945E-1    7.990843361917202E-2
 1.589874448699104E5     8.779973379515578E-1    7.967740640306090E-2    1.230930424558354E-1   -8.040208287895959E-2    1.232429663705837E-1   -8.049751968829805E-2    8.779125332666529E-1    7.967683765537037E-2
 1.602004972368116E5     8.782971185274239E-1    7.942905990539981E-2    1.227902687756738E-1   -8.014366313641871E-2    1.229571985278526E-1   -8.025688641888085E-2    8.781836744999817E-1    7.943577864925555E-2
 1.614228050266550E5     8.786014629355984E-1    7.920831644009733E-2    1.224979002315423E-1   -7.990849506805253E-2    1.226660637832883E-1   -8.001979389365167E-2    8.784935107670363E-1    7.919247235321579E-2
 1.626544388570473E5     8.788740434168092E-1    7.895746145600774E-2    1.222028409445533E-1   -7.966689626627411E-2    1.223682580754268E-1   -7.978620704223079E-2    8.787659759196315E-1    7.894500717306203E-2
 1.638954698843964E5     8.791373732471433E-1    7.871856674713998E-2    1.219080052842319E-1   -7.942316168110092E-2    1.220780541998475E-1   -7.954322745422041E-2    8.790652253994690E-1    7.873104302050647E-2
 1.651459698080244E5     8.794517386845898E-1    7.846790968665328E-2    1.216122941215620E-1   -7.918613992009516E-2    1.217815672944642E-1   -7.930412346487324E-2    8.793574190139949E-1    7.847318456347464E-2
 1.664060108743095E5     8.797587815339800E-1    7.824164431912328E-2    1.213232554802734E-1   -7.895584466011236E-2    1.214896734925628E-1   -7.907219878072777E-2    8.796313556062092E-1    7.824491427170431E-2
 1.676756658808590E5     8.800251598166314E-1    7.801924197237087E-2    1.210374291742982E-1   -7.873151601457284E-2    1.211911585223246E-1   -7.883666588199238E-2    8.799348520944030E-1    7.801020101437438E-2
 1.689550081807175E5     8.803251298509648E-1    7.778862887146969E-2    1.207494373581088E-1   -7.850808898184281E-2    1.209016898323260E-1   -7.860454656206030E-2    8.802248553192416E-1    7.779432975073142E-2
 1.702441116866020E5     8.806273182456018E-1    7.755224993257018E-2    1.204570110946593E-1   -7.827794644756204E-2    1.206091973258422E-1   -7.837089061868743E-2    8.805109965640093E-1    7.754926917259677E-2
 1.715430508751738E5     8.809136498916597E-1    7.734432686726778E-2    1.201679479557723E-1   -7.804369387861212E-2    1.203207470982252E-1   -7.814474963368469E-2    8.807805475534465E-1    7.731657384966903E-2
 1.728519007913403E5     8.812126044954049E-1    7.710472761579794E-2    1.198817109422260E-1   -7.782174468130162E-2    1.200297106742219E-1   -7.790772936322203E-2    8.810842901339418E-1    7.709630751049378E-2
 1.741707370525927E5     8.815140189458002E-1    7.687936290307118E-2    1.195852300694554E-1   -7.758719248887697E-2    1.197307218653514E-1   -7.767970783647676E-2    8.813486087927859E-1    7.685644915919035E-2
 1.754996358533718E5     8.817938847008199E-1    7.665859377159372E-2    1.192999905750043E-1   -7.735645725986251E-2    1.194392758399533E-1   -7.745303186672399E-2    8.816193384230697E-1    7.660840593650928E-2
 1.768386739694722E5     8.820862584918271E-1    7.643313281875957E-2    1.190056850345427E-1   -7.713349744145058E-2    1.191465867300789E-1   -7.722518067229547E-2    8.819486785871257E-1    7.639609950108073E-2
 1.781879287624771E5     8.823630282866630E-1    7.619395238519897E-2    1.187075928502541E-1   -7.689933314731008E-2    1.188590513424266E-1   -7.699247664878085E-2    8.822276020011232E-1    7.616580232332622E-2
 1.795474781842276E5     8.826512142605831E-1    7.597269706358642E-2    1.184117630229295E-1   -7.667382757065298E-2    1.185609059024118E-1   -7.676588758756232E-2    8.825186941435929E-1    7.594706425700021E-2
 1.809174007813277E5     8.829754661614473E-1    7.573597174285336E-2    1.181248588023847E-1   -7.644458972769498E-2    1.182739293531961E-1   -7.654255251448562E-2    8.828078662385209E-1    7.573140357172897E-2
 1.822977756996804E5     8.832787528059350E-1    7.550368575273984E-2    1.178369105423244E-1   -7.622575128370900E-2    1.179835286747340E-1   -7.631504359499117E-2    8.830637916926685E-1    7.548900417450820E-2
 1.836886826890609E5     8.835418821100838E-1    7.529033734527442E-2    1.175372759229096E-1   -7.599923361649526E-2    1.176918665998685E-1   -7.609164793605498E-2    8.833642858259666E-1    7.525991811370794E-2
 1.850902021077247E5     8.838604970250115E-1    7.507402715774682E-2    1.172558442387734E-1   -7.577405113073404E-2    1.174021413021013E-1   -7.586949163184979E-2    8.836662291740072E-1    7.504734444239243E-2
 1.865024149270491E5     8.841080598069686E-1    7.483638669831223E-2    1.169646633979989E-1   -7.555970464724837E-2    1.171091982611472E-1   -7.564681591479759E-2    8.839822374300528E-1    7.481622042905467E-2
 1.879254027362132E5     8.844097147284475E-1    7.461110361926282E-2    1.166738014999589E-1   -7.533153686642238E-2    1.168194241913990E-1   -7.542157611123888E-2    8.842789412291773E-1    7.460418165416263E-2
 1.893592477469092E5     8.847309188056468E-1    7.434647729290912E-2    1.163669023962875E-1   -7.512744847387731E-2    1.165320244804131E-1   -7.518436625789714E-2    8.845280996851854E-1    7.441863162137410E-2
 1.908040327980933E5     8.849941977717367E-1    7.417839303084216E-2    1.160938448744560E-1   -7.489309842879768E-2    1.162418538747352E-1   -7.498153031512211E-2    8.848415831442241E-1    7.414453378581098E-2
 1.922598413607715E5     8.852695378815058E-1    7.394945023638134E-2    1.157981955085399E-1   -7.466918551747265E-2    1.159494681709032E-1   -7.476017960711533E-2    8.851207570949302E-1    7.393232588040252E-2
 1.937267575428232E5     8.855545588161107E-1    7.372338732978612E-2    1.155053290505635E-1   -7.445150416210528E-2    1.156569322159736E-1   -7.453820107904578E-2    8.854450076939018E-1    7.371598423587916E-2
 1.952048660938581E5     8.858554389557037E-1    7.351433296259105E-2    1.152172198219004E-1   -7.423220360310706E-2    1.153692863803581E-1   -7.432368376755692E-2    8.857265121773282E-1    7.349799172949585E-2
 1.966942524101142E5     8.861568583948601E-1    7.328350317775352E-2    1.149281218779298E-1   -7.401551394595127E-2    1.150789124357269E-1   -7.410224384310633E-2    8.860289296579823E-1    7.329040694842476E-2
 1.981950025393913E5     8.864612096058327E-1    7.307200022735516E-2    1.146387870836703E-1   -7.379829103969476E-2    1.147831942262820E-1   -7.388404280598390E-2    8.862962407955476E-1    7.304859604330247E-2
 1.997072031860212E5     8.867414617125580E-1    7.286073497385936E-2    1.143503397068600E-1   -7.357745984840110E-2    1.144956738286934E-1   -7.366805761547002E-2    8.866070649666883E-1    7.284109608483783E-2
 2.012309417158795E5     8.870208644678648E-1    7.262931847895873E-2    1.140549124727226E-1   -7.336038576285331E-2    1.142037780989248E-1   -7.344826155854396E-2    8.868516811871873E-1    7.261919742161133E-2
 2.027663061614301E5     8.873129156588847E-1    7.241731280334185E-2    1.137711368269604E-1   -7.314892062286038E-2    1.139148562377389E-1   -7.323635453092076E-2    8.871291877542160E-1    7.239927683180508E-2
 2.043133852268128E5     8.875720723627232E-1    7.220250227603583E-2    1.134802378104693E-1   -7.292995210625242E-2    1.136218834602980E-1   -7.301488576599031E-2    8.874002209132003E-1    7.217286478511291E-2
 2.058722682929675E5     8.878469755778929E-1    7.199879871824455E-2    1.131931872103112E-1   -7.271370234114732E-2    1.133316183335338E-1   -7.280121880271939E-2    8.877042305654693E-1    7.195734852092703E-2
 2.074430454227995E5     8.881295200526484E-1    7.176931397840543E-2    1.129025391999711E-1   -7.250256892932264E-2    1.130436537439591E-1   -7.258499387120934E-2    8.879760912893526E-1    7.173241464021611E-2
 2.090258073663807E5     8.884255744277789E-1    7.155486351319332E-2    1.126121432595980E-1   -7.228289757103372E-2    1.127530962180603E-1   -7.236828582836459E-2    8.882748383796747E-1    7.151318539733449E-2
 2.106206455661938E5     8.887279564111025E-1    7.133030663784909E-2    1.123294071963835E-1   -7.207539654918863E-2    1.124652270940966E-1   -7.215356054242307E-2    8.885745844213865E-1    7.131264266980689E-2
 2.122276521624151E5     8.889589606889040E-1    7.112047222848600E-2    1.120354535811059E-1   -7.186044542376682E-2    1.121716492153483E-1   -7.193780945040701E-2    8.888190892277010E-1    7.109341883922939E-2
 2.138469199982374E5     8.892544982257677E-1    7.089610663246991E-2    1.117462098150738E-1   -7.164649652045811E-2    1.118859172621267E-1   -7.172504473523600E-2    8.891113290108354E-1    7.087709742488832E-2
 2.154785426252357E5     8.895377256817112E-1    7.069832703535107E-2    1.114604142174570E-1   -7.143249743498137E-2    1.116005248882303E-1   -7.151104051796286E-2    8.894137463262901E-1    7.066594729726285E-2
 2.171226143087691E5     8.898385987089644E-1    7.047585068532911E-2    1.111720466067769E-1   -7.121921108112499E-2    1.113121484202806E-1   -7.129481666002208E-2    8.896886207681496E-1    7.044968858558281E-2
 2.187792300334291E5     8.901413094727847E-1    7.026163805691868E-2    1.108830095749087E-1   -7.100750258163592E-2    1.110245146034975E-1   -7.108755269017998E-2    8.899935605029335E-1    7.022850093377382E-2
 2.204484855085266E5     8.903925899066497E-1    7.003024527412456E-2    1.105953094261103E-1   -7.079449051377121E-2    1.107410115666448E-1   -7.087844183842136E-2    8.902542874616689E-1    7.000197510768491E-2
 2.221304771736209E5     8.907053421459434E-1    6.982147853737780E-2    1.103056171426924E-1   -7.058264298660116E-2    1.104591714663525E-1   -7.065996858338384E-2    8.905283363277681E-1    6.979379366409263E-2
 2.238253022040931E5     8.909977270665159E-1    6.962341541569331E-2    1.100192471001370E-1   -7.037109177372808E-2    1.101732617393165E-1   -7.045208065606795E-2    8.908365065292979E-1    6.958399111190758E-2
 2.255330585167579E5     8.912660131670880E-1    6.940751500876240E-2    1.097355089849106E-1   -7.016101635982604E-2    1.098833485031903E-1   -7.024004751877033E-2    8.910843603019563E-1    6.935295704608609E-2
 2.272538447755223E5     8.915669036736131E-1    6.921057891107554E-2    1.094488813208772E-1   -6.994471189680283E-2    1.095948937352736E-1   -7.002491227538267E-2    8.913658706723302E-1    6.914819737937093E-2
 2.289877603970853E5     8.918234789051822E-1    6.899242537642616E-2    1.091592322047205E-1   -6.973400087720602E-2    1.093081727069572E-1   -6.981655052761390E-2    8.916501169214560E-1    6.895323072426959E-2
 2.307349055566813E5     8.921328867799877E-1    6.877206924046429E-2    1.088727423287810E-1   -6.951739437869360E-2    1.090172892365965E-1   -6.960304381241077E-2    8.919028174885647E-1    6.872234082855720E-2
 2.324953811938693E5     8.927507078851925E-1    6.870036228334046E-2    1.082596102329161E-1   -6.944946241633905E-2    1.087389308073612E-1   -6.939336534975388E-2    8.921823583868632E-1    6.851816881978240E-2
 2.342692890183618E5     8.927068770775435E-1    6.830868508848219E-2    1.082785412073259E-1   -6.906593323890754E-2    1.084511275251263E-1   -6.918511808281097E-2    8.924592535094960E-1    6.830302548607135E-2
 2.360567315159030E5     8.930874567683948E-1    6.804260749436671E-2    1.079221901940765E-1   -6.881027991030920E-2    1.081709214609894E-1   -6.897221459485496E-2    8.927780822877943E-1    6.809046291856961E-2
 2.378578119541888E5     8.935055982788830E-1    6.784037247707932E-2    1.075161530126007E-1   -6.860378487789964E-2    1.078924008751553E-1   -6.876840194637157E-2    8.930293669173754E-1    6.789269994793813E-2
 2.396726343888348E5     8.935944684573169E-1    6.764124549773860E-2    1.074062930946563E-1   -6.841829348243243E-2    1.076061313514590E-1   -6.855365728100091E-2    8.933115528911360E-1    6.767593181031679E-2
 2.415013036693852E5     8.938127325942220E-1    6.747684144007085E-2    1.071723116741069E-1   -6.825670924914749E-2    1.073283106907244E-1   -6.834817743083947E-2    8.935863191928518E-1    6.747763970237931E-2
 2.433439254453724E5     8.940961600482418E-1    6.728152527877530E-2    1.068965190497557E-1   -6.805752058926956E-2    1.070406431039067E-1   -6.813503984116531E-2    8.938689027423284E-1    6.726202059988895E-2
 2.452006061724201E5     8.943667504753643E-1    6.706874086231254E-2    1.066182144587183E-1   -6.785173118492160E-2    1.067619743262554E-1   -6.792840961598305E-2    8.941564872263369E-1    6.705904080016312E-2
 2.470714531183934E5     8.946301532614648E-1    6.685887807350981E-2    1.063448821033501E-1   -6.764217959607639E-2    1.064772372920337E-1   -6.771872637500193E-2    8.944484548265850E-1    6.685116436655289E-2
 2.489565743695979E5     8.949135260996708E-1    6.665041624058235E-2    1.060590729809892E-1   -6.743096482076111E-2    1.061950661557126E-1   -6.751160789358059E-2    8.947172961018897E-1    6.665003971425049E-2
 2.508560788370214E5     8.951858882736257E-1    6.641914488145229E-2    1.057762783264187E-1   -6.722961997031626E-2    1.059136462518120E-1   -6.730311351845966E-2    8.949903366804935E-1    6.644583834896296E-2
 2.527700762626280E5     8.954141518970906E-1    6.621743615200711E-2    1.054936576156826E-1   -6.701135175585653E-2    1.056388928510435E-1   -6.709445959974658E-2    8.952584405827116E-1    6.622659626950086E-2
 2.546986772256976E5     8.956967491016333E-1    6.598503376413814E-2    1.052204422508433E-1   -6.680541102568746E-2    1.053589221981793E-1   -6.688478626331089E-2    8.955143886037791E-1    6.601693335182694E-2
 2.566419931492161E5     8.959551042631992E-1    6.576471210762815E-2    1.049414863713354E-1   -6.659960283980751E-2    1.050828243816782E-1   -6.668202541115639E-2    8.958128856406553E-1    6.581641146362929E-2
 2.586001363063102E5     8.962246741970287E-1    6.556793075705322E-2    1.046625078376574E-1   -6.638824033938838E-2    1.048046697643785E-1   -6.647478490103191E-2    8.960856792017067E-1    6.560231785702621E-2
 2.605732198267354E5     8.964849778254826E-1    6.535234547598677E-2    1.043933243698818E-1   -6.618587892003860E-2    1.045310572692966E-1   -6.626639337529128E-2    8.963706731332730E-1    6.540366731475931E-2
 2.625613577034118E5     8.967618014238031E-1    6.515239720684127E-2    1.041172398280448E-1   -6.597349723270422E-2    1.042564895005211E-1   -6.605910332112214E-2    8.966382502254203E-1    6.519463576094367E-2
 2.645646647990093E5     8.970440595977875E-1    6.495376566415370E-2    1.038441034115893E-1   -6.576889481010105E-2    1.039815062670881E-1   -6.585131863315334E-2    8.968958973860813E-1    6.498564119126497E-2
 2.665832568525859E5     8.972819331766149E-1    6.474247999114291E-2    1.035652211491950E-1   -6.555835277602093E-2    1.037047471017501E-1   -6.564448945908559E-2    8.971888240009702E-1    6.476358361244913E-2
 2.686172504862709E5     8.975373472575086E-1    6.454405321327809E-2    1.032983891633492E-1   -6.534980942454496E-2    1.034300793825945E-1   -6.543646082467811E-2    8.974440162297264E-1    6.456287447518777E-2
 2.706667632120051E5     8.977680461648646E-1    6.433137543412526E-2    1.030204789227593E-1   -6.514025178647408E-2    1.031542075772054E-1   -6.522692534298721E-2    8.976965582900799E-1    6.435683977507943E-2
 2.727319134383292E5     8.980794033037415E-1    6.411116626916676E-2    1.027437140161541E-1   -6.492637687630665E-2    1.028854037513875E-1   -6.502527645595194E-2    8.979949621109922E-1    6.414851988571037E-2
 2.748128204772244E5     8.986954932222747E-1    6.395588289541314E-2    1.021390845969843E-1   -6.476720622177146E-2    1.026134153582934E-1   -6.481687821486977E-2    8.982254832491965E-1    6.393624990923828E-2
 2.769096045510074E5     8.987007603091183E-1    6.371673507409528E-2    1.022045496844498E-1   -6.450696940475760E-2    1.023407523795832E-1   -6.460997545981581E-2    8.984966906105010E-1    6.374006541932731E-2
 2.790223867992730E5     8.989545766570081E-1    6.350407243649825E-2    1.019191721520617E-1   -6.427892063032493E-2    1.020759077043634E-1   -6.440864050178835E-2    8.987977440811651E-1    6.353579383190905E-2
 2.811512892858952E5     8.993066971109619E-1    6.321430924177386E-2    1.015707048214926E-1   -6.401504838605655E-2    1.018022845364518E-1   -6.419748887280172E-2    8.990473295638557E-1    6.332006916180265E-2
 2.832964350060779E5     8.996164815470412E-1    6.300180178210889E-2    1.012353717294560E-1   -6.379258557999978E-2    1.015332087330034E-1   -6.399283536764479E-2    8.992792036254045E-1    6.312160930182960E-2
 2.854579478934632E5     8.997739739247013E-1    6.281954041415204E-2    1.010628467349585E-1   -6.361014212762497E-2    1.012737787974215E-1   -6.378902260278090E-2    8.995739845884437E-1    6.290685660244173E-2
 2.876359528272883E5     9.000132519593415E-1    6.262422035206726E-2    1.008205886963664E-1   -6.341612021612587E-2    1.010051014485568E-1   -6.358350794685128E-2    8.998326928286741E-1    6.270891419400056E-2
 2.898305756396023E5     9.003958183375392E-1    6.238284531322373E-2    1.004565211846468E-1   -6.317879984473697E-2    1.007440679536851E-1   -6.338169154122160E-2    9.001020862698055E-1    6.249370974960060E-2
 2.920419431225354E5     9.005863889836165E-1    6.218674688050829E-2    1.002480000390493E-1   -6.298808731573668E-2    1.004780037164682E-1   -6.317307956346260E-2    9.003655280446977E-1    6.228749760052052E-2
 2.942701830356239E5     9.009053345467025E-1    6.201812644232919E-2    9.994951859303587E-2   -6.281817208356567E-2    1.002165495163823E-1   -6.297010715711118E-2    9.006481233433122E-1    6.209107101818841E-2
 2.965154241131938E5     9.012249803954421E-1    6.191473326282045E-2    9.963762705672553E-2   -6.272103898625449E-2    9.995521124027254E-2   -6.276939063611539E-2    9.009189062375187E-1    6.189757019181946E-2
 2.987777960717941E5     9.012965991179843E-1    6.166759387498880E-2    9.958631422093198E-2   -6.247485145323019E-2    9.969815518843227E-2   -6.256291008737730E-2    9.011873757039772E-1    6.168885763374121E-2
 3.010574296176943E5     9.016769217492628E-1    6.149732003803028E-2    9.922758366446832E-2   -6.230480378588194E-2    9.944099674280840E-2   -6.236143341350637E-2    9.014399858396619E-1    6.148635846425882E-2
 3.033544564544337E5     9.021781773975227E-1    6.147248479804184E-2    9.866806270334277E-2   -6.227907765989250E-2    9.918865111118613E-2   -6.215959331064932E-2    9.016873713752538E-1    6.126054537928095E-2
 3.056690092904338E5     9.023070872815265E-1    6.114268626159739E-2    9.857057778552800E-2   -6.195301529302163E-2    9.892955859487901E-2   -6.196008825964836E-2    9.019458710004397E-1    6.106837758685314E-2
 3.080012218466610E5     9.023094686835395E-1    6.086879840556517E-2    9.857648818983263E-2   -6.167492235772663E-2    9.867632521122432E-2   -6.175826702837704E-2    9.021624295987211E-1    6.086047438553448E-2
 3.103512288643551E5     9.025355405965113E-1    6.066455198732880E-2    9.832006928511883E-2   -6.147279976452505E-2    9.841802357803259E-2   -6.155414719161082E-2    9.024312249774316E-1    6.066148394736008E-2
 3.127191661128128E5     9.027956605488935E-1    6.045321738758973E-2    9.806311171852276E-2   -6.127502412239763E-2    9.816714150256042E-2   -6.135530511564297E-2    9.026894959230635E-1    6.045790056204864E-2
 3.151051703972316E5     9.030566206411644E-1    6.026347012252014E-2    9.781684064427816E-2   -6.107768993198930E-2    9.791403170512093E-2   -6.115316444892478E-2    9.029341282323391E-1    6.026225174245264E-2
 3.175093795666154E5     9.032915933799767E-1    6.004538333198512E-2    9.756095181897663E-2   -6.087977134745097E-2    9.765924123496880E-2   -6.095393443383209E-2    9.031728968401096E-1    6.005967990492485E-2
 3.199319325217355E5     9.035282956486282E-1    5.983949349598488E-2    9.731887742073264E-2   -6.068147448594055E-2    9.740182705027114E-2   -6.075379638504529E-2    9.034337355661589E-1    5.985853479112742E-2
 3.223729692231574E5     9.037579773762436E-1    5.964697139385371E-2    9.706459994519014E-2   -6.047969266753154E-2    9.715746041505258E-2   -6.055289313272557E-2    9.036832709068167E-1    5.964261929809696E-2
 3.248326306993267E5     9.040137821555880E-1    5.943978225022227E-2    9.681558308565701E-2   -6.028331315743580E-2    9.691009077937131E-2   -6.035787450314600E-2    9.039483970031216E-1    5.946412936979321E-2
 3.273110590547157E5     9.042462940990882E-1    5.923370739337623E-2    9.656749670093892E-2   -6.008378879482466E-2    9.666587785475335E-2   -6.016171415046247E-2    9.041806164183691E-1    5.926004565010173E-2
 3.298083974780366E5     9.045497636913598E-1    5.904670610823574E-2    9.632065415377339E-2   -5.988392605943872E-2    9.642264783087312E-2   -5.996589043770414E-2    9.044381618161548E-1    5.905322082289265E-2
 3.323247902505097E5     9.047866434964887E-1    5.884740156732877E-2    9.607393886261915E-2   -5.969349821940521E-2    9.617857254793501E-2   -5.977002516012540E-2    9.047003885143678E-1    5.886749076410489E-2
 3.348603827542018E5     9.051935584126691E-1    5.857232256347708E-2    9.563874933917368E-2   -5.941775027078669E-2    9.593202619844662E-2   -5.957731844152280E-2    9.049139280815677E-1    5.865638922308254E-2
 3.374153214804250E5     9.056135678429064E-1    5.852356564359473E-2    9.523148723617988E-2   -5.937113035018161E-2    9.568617012483598E-2   -5.937707382140666E-2    9.051561945147319E-1    5.845562059327537E-2
 3.399897540381991E5     9.059150509673095E-1    5.843228922543214E-2    9.493208232926136E-2   -5.930032422086061E-2    9.544514117666826E-2   -5.918340851600404E-2    9.053901833528215E-1    5.825268225160218E-2
 3.425838291627830E5     9.060791203925209E-1    5.808956348641813E-2    9.480319750068336E-2   -5.895339752353257E-2    9.520484007828321E-2   -5.899155683747166E-2    9.056355574044450E-1    5.805405030775628E-2
 3.451976967242625E5     9.062469414109049E-1    5.779884660375944E-2    9.462474103786327E-2   -5.865424473174261E-2    9.496553606665450E-2   -5.879993289654575E-2    9.058996815154897E-1    5.786591387456059E-2
 3.478315077362126E5     9.063379720007303E-1    5.758084348334216E-2    9.454013659869337E-2   -5.844990285732413E-2    9.472466123277241E-2   -5.860454293630282E-2    9.061563728438135E-1    5.766979478053631E-2
 3.504854143644205E5     9.067505722128986E-1    5.751063961052830E-2    9.409521168590027E-2   -5.839261053247960E-2    9.448451133295094E-2   -5.841070988384456E-2    9.064147032565567E-1    5.748156744998505E-2
 3.531595699356794E5     9.071651893512391E-1    5.748577198542550E-2    9.373847518443544E-2   -5.836391934244256E-2    9.424478479236359E-2   -5.822346468909300E-2    9.066475854703381E-1    5.728625876494789E-2
 3.558541289466428E5     9.074046212876252E-1    5.729127665998635E-2    9.350002111200779E-2   -5.817894898663117E-2    9.400619199560555E-2   -5.802857200931363E-2    9.068492113050268E-1    5.709074522254236E-2
 3.585692470727532E5     9.075931508994730E-1    5.709228378009402E-2    9.326203384859658E-2   -5.799209523971070E-2    9.376844110018974E-2   -5.783863558655297E-2    9.070628080393526E-1    5.689049219722476E-2
 3.613050811772345E5     9.078521071701018E-1    5.690872510412800E-2    9.302626115012658E-2   -5.781174346560788E-2    9.353090417467165E-2   -5.764731836462342E-2    9.073213390716726E-1    5.669549089281541E-2
 3.640617893201578E5     9.080749074314255E-1    5.670221629562971E-2    9.278884629986242E-2   -5.761905810935442E-2    9.329904152238047E-2   -5.746535597103842E-2    9.075443293809515E-1    5.651012842349054E-2
 3.668395307675686E5     9.079016196129519E-1    5.630144541505848E-2    9.297362363555121E-2   -5.720810182312022E-2    9.306173294888231E-2   -5.727291933243484E-2    9.077474287212763E-1    5.630524320379358E-2
 3.696384660006910E5     9.081176420602058E-1    5.612067104753123E-2    9.274979280691860E-2   -5.703260540929224E-2    9.283514715795456E-2   -5.708936240472517E-2    9.079987854525935E-1    5.612010239490717E-2
 3.724587567251991E5     9.083261318683903E-1    5.591702719341613E-2    9.251511127698683E-2   -5.685106572354259E-2    9.259768865523295E-2   -5.689891147011041E-2    9.082047759673795E-1    5.592802332210983E-2
 3.753005658805580E5     9.085884497023212E-1    5.572843213695974E-2    9.228145237682507E-2   -5.666253617165982E-2    9.236442628220790E-2   -5.671283753430782E-2    9.084202750456387E-1    5.574326930530268E-2
 3.781640576494411E5     9.090673405071711E-1    5.547668882355146E-2    9.183856940965947E-2   -5.641545502261493E-2    9.213520450689364E-2   -5.652943445124098E-2    9.087065680411038E-1    5.554899926859529E-2
 3.810493974672107E5     9.090856351281620E-1    5.531956739101546E-2    9.180323723093499E-2   -5.626205857634494E-2    9.190541748170569E-2   -5.634483808916759E-2    9.089323175699179E-1    5.537503435806453E-2
 3.839567520314787E5     9.092572685338086E-1    5.515625884490314E-2    9.158891151903886E-2   -5.610468512837578E-2    9.167640869919177E-2   -5.616306224230920E-2    9.091661047398687E-1    5.517301316725524E-2
 3.868862893117373E5     9.094701110070668E-1    5.496587750801154E-2    9.136255786570123E-2   -5.593191642295683E-2    9.144885648808875E-2   -5.598128136843507E-2    9.094024034458600E-1    5.497487048237400E-2
 3.898381785590618E5     9.097364316652742E-1    5.478193982849720E-2    9.112984419157102E-2   -5.574131215061259E-2    9.122078405523779E-2   -5.579704794396229E-2    9.095842053295972E-1    5.479527190898775E-2
 3.928125903158922E5     9.101273582892825E-1    5.455251204771389E-2    9.073260522710291E-2   -5.552342794815844E-2    9.099028524271331E-2   -5.561548412308666E-2    9.098129343782522E-1    5.460678246047207E-2
 3.958096964258819E5     9.106294750727456E-1    5.463211215848749E-2    9.024112403578399E-2   -5.561451714134710E-2    9.076804281182976E-2   -5.544000592135866E-2    9.100376910403940E-1    5.442019143882933E-2
 3.988296700438284E5     9.108921401833031E-1    5.437149896281785E-2    9.001565148484368E-2   -5.535608910188256E-2    9.054836650324763E-2   -5.525711729330677E-2    9.102939722443163E-1    5.423476628082342E-2
 4.018726856456762E5     9.109154965357806E-1    5.393221594984847E-2    8.996819224795394E-2   -5.492041108684608E-2    9.031672596683299E-2   -5.508316081717307E-2    9.104997671519649E-1    5.405349031752672E-2
 4.049389190385970E5     9.111856392605732E-1    5.381088311578831E-2    8.966182580294331E-2   -5.479924507705997E-2    9.009382867136409E-2   -5.489989926977396E-2    9.107187396001326E-1    5.386937296280980E-2
 4.080285473711492E5     9.114771101554209E-1    5.365432633200937E-2    8.935902234782561E-2   -5.465743116611321E-2    8.986741455774237E-2   -5.472219183206324E-2    9.109425747066379E-1    5.368104131316251E-2
 4.111417491435081E5     9.117127913838796E-1    5.345677013271613E-2    8.913931885301536E-2   -5.447042776449403E-2    8.963742966190012E-2   -5.454199102591584E-2    9.111641217193358E-1    5.350989106350838E-2
 4.142787042177814E5     9.119308050632562E-1    5.325812627118166E-2    8.893506381450896E-2   -5.428653011777018E-2    8.941983455034347E-2   -5.436882451728050E-2    9.113994717937667E-1    5.331163968283920E-2
 4.174395938283992E5     9.121169222126602E-1    5.303928146514695E-2    8.876290088406284E-2   -5.406537424250542E-2    8.920103472641776E-2   -5.419287467885654E-2    9.116282828450462E-1    5.314248186454282E-2
 4.206246005925882E5     9.122592373876330E-1    5.282096547250232E-2    8.859724407244222E-2   -5.386461224621511E-2    8.898224545886574E-2   -5.401739771202042E-2    9.118661951791887E-1    5.295236458853868E-2
 4.238339085209167E5     9.122626403976209E-1    5.272719118481677E-2    8.861499417215102E-2   -5.378329153204509E-2    8.875547717884022E-2   -5.384480229609911E-2    9.120945439524853E-1    5.277547247908816E-2
 4.270677030279291E5     9.124063003386526E-1    5.257138470020113E-2    8.843356045164427E-2   -5.363167766159803E-2    8.853215405461475E-2   -5.366838727506543E-2    9.122954732725573E-1    5.259624678016914E-2
 4.303261709428567E5     9.126591976218755E-1    5.239593300321733E-2    8.821496251573792E-2   -5.346234840832032E-2    8.831267217183209E-2   -5.349743809307685E-2    9.124958227059180E-1    5.241541980086255E-2
 4.336095005204146E5     9.128584247634616E-1    5.220161063148157E-2    8.799527466924410E-2   -5.328972413193848E-2    8.809852426495045E-2   -5.332680690507841E-2    9.127705807030261E-1    5.223451549279495E-2
 4.369178814516730E5     9.130946393881890E-1    5.203408193674744E-2    8.777278555883646E-2   -5.311236942356307E-2    8.787631204647445E-2   -5.315258279775539E-2    9.129554083689436E-1    5.205635704686955E-2
 4.402515048750198E5     9.133127234657290E-1    5.185288805815376E-2    8.754954312243601E-2   -5.294433990080862E-2    8.765250524535778E-2   -5.297652863409639E-2    9.131863755909306E-1    5.188067092046545E-2
 4.436105633872023E5     9.135396434169973E-1    5.166905228232475E-2    8.733628490799301E-2   -5.277049599870674E-2    8.743639566209516E-2   -5.280783292540828E-2    9.134095691009754E-1    5.169487578315728E-2
 4.469952510544541E5     9.137446704711191E-1    5.149427040328423E-2    8.711444356178227E-2   -5.259733358981473E-2    8.722215347626910E-2   -5.263452863735186E-2    9.136529065909497E-1    5.152400565074875E-2
 4.504057634237097E5     9.139764397418934E-1    5.130372970377685E-2    8.689672677093878E-2   -5.242974309786890E-2    8.699575223002121E-2   -5.246327311903744E-2    9.138651452103622E-1    5.133704288381028E-2
 4.538422975338975E5     9.141553860254985E-1    5.112761548692066E-2    8.667277643880186E-2   -5.225611911487939E-2    8.678052735137427E-2   -5.228893967924048E-2    9.140672997948946E-1    5.115912843380541E-2
 4.573050519273265E5     9.143936177533222E-1    5.095320111644428E-2    8.645726234910017E-2   -5.208451485129255E-2    8.656520616387721E-2   -5.212549546981473E-2    9.142972550539359E-1    5.098110622452841E-2
 4.607942266611566E5     9.146098674007825E-1    5.078014697272728E-2    8.623928934284068E-2   -5.191041077354410E-2    8.635004194845876E-2   -5.195108698425833E-2    9.144954187355955E-1    5.080841754993334E-2
 4.643100233189550E5     9.148434354589925E-1    5.059653913281602E-2    8.602561972226777E-2   -5.174112267768356E-2    8.613136431815539E-2   -5.177989163065620E-2    9.147333137750969E-1    5.062660449781655E-2
 4.678526450223470E5     9.150435011544695E-1    5.041071243773512E-2    8.580787688983577E-2   -5.156986344731498E-2    8.591838482349930E-2   -5.161046491489021E-2    9.149384722122715E-1    5.044629865072914E-2
 4.714222964427450E5     9.152108398252172E-1    5.023874510285636E-2    8.558949618323398E-2   -5.140064427562660E-2    8.570352170073271E-2   -5.144078807272419E-2    9.151409927548555E-1    5.026355376835768E-2
 4.750191838131770E5     9.154298520271231E-1    5.005118590381322E-2    8.537652349598156E-2   -5.123005423124323E-2    8.548839276210946E-2   -5.127521498206632E-2    9.153282220426624E-1    5.009402525391661E-2
 4.786435149402010E5     9.156556647965169E-1    4.987708189499832E-2    8.516078819910462E-2   -5.105939795536510E-2    8.527700736512180E-2   -5.110327225542462E-2    9.155501037850452E-1    4.990788443503025E-2
 4.822954992159092E5     9.158880467638468E-1    4.969354180325360E-2    8.494951726293781E-2   -5.089292139413289E-2    8.505762268232209E-2   -5.093458161614452E-2    9.157362186943476E-1    4.972392040030980E-2
 4.859753476300298E5     9.161089963156610E-1    4.951162068612772E-2    8.473614291381634E-2   -5.072052907987346E-2    8.484576330088575E-2   -5.076628340456212E-2    9.159556126672449E-1    4.955026215831673E-2
 4.896832727821107E5     9.163200387514617E-1    4.934370111080352E-2    8.452414164739530E-2   -5.054948060013889E-2    8.463447300451055E-2   -5.059829861050954E-2    9.161739482742187E-1    4.937443600825651E-2
 4.934194888938060E5     9.165086621648594E-1    4.915857097680826E-2    8.431615607553741E-2   -5.038251870225598E-2    8.442647678020233E-2   -5.042980027227171E-2    9.163826342784426E-1    4.918850202924665E-2
 4.971842118212518E5     9.166931671996358E-1    4.898498459306017E-2    8.410462733174272E-2   -5.021178412265315E-2    8.421669183907426E-2   -5.026140110217305E-2    9.165807787568973E-1    4.903219282441131E-2
 5.009776590675358E5     9.169019298356579E-1    4.880089193520958E-2    8.389111209940832E-2   -5.003989868527815E-2    8.399957212721203E-2   -5.008887338413004E-2    9.167915511067178E-1    4.883933840324158E-2
 5.048000497952673E5     9.171330917648928E-1    4.862495399625851E-2    8.368938919783979E-2   -4.987327947039424E-2    8.379331203209094E-2   -4.992553976026941E-2    9.170337308791239E-1    4.867314764818478E-2
 5.086516048392332E5     9.173781737800609E-1    4.844139916921646E-2    8.347927387863650E-2   -4.970554025534726E-2    8.358590742479227E-2   -4.975530067571293E-2    9.172333431571521E-1    4.849149449662655E-2
 5.125325467191607E5     9.175631486894481E-1    4.826523970609722E-2    8.327052947097725E-2   -4.952824845597895E-2    8.338110102162349E-2   -4.959113668669859E-2    9.174450257646365E-1    4.831591065515586E-2
 5.164430996525706E5     9.177169788649567E-1    4.808745906710635E-2    8.306673399640203E-2   -4.936175220012184E-2    8.317343948205268E-2   -4.942655464152922E-2    9.176275690299318E-1    4.814239032428463E-2
 5.203834895677360E5     9.179648981439997E-1    4.790904728831967E-2    8.286703063549429E-2   -4.920404401120934E-2    8.296899464491056E-2   -4.926010646749220E-2    9.178399024558079E-1    4.797494162562462E-2
 5.243539441167285E5     9.181293940282917E-1    4.774084889724237E-2    8.266161382239180E-2   -4.903564642104344E-2    8.276260687788206E-2   -4.908881693011773E-2    9.180432133883510E-1    4.778714297613743E-2
 5.283546926885745E5     9.182958936719751E-1    4.757205821260679E-2    8.245247256283120E-2   -4.886904240594418E-2    8.255921259241002E-2   -4.891711592689050E-2    9.182343859367698E-1    4.762066474701680E-2
 5.323859664225065E5     9.185147434446520E-1    4.738853028105855E-2    8.225223185368448E-2   -4.870273937057141E-2    8.235050157638642E-2   -4.875323485350039E-2    9.184331800541743E-1    4.744055436930252E-2
 5.364479982213206E5     9.186933610165763E-1    4.723171769541108E-2    8.205193389550780E-2   -4.853543868627185E-2    8.214691617591696E-2   -4.858709342409101E-2    9.186059490406704E-1    4.726019487104393E-2
 5.405410227648258E5     9.189886963914892E-1    4.703224978907648E-2    8.185049016044654E-2   -4.836854807754506E-2    8.195441531709192E-2   -4.842379713932136E-2    9.188228897649394E-1    4.709053031801741E-2
 5.446652765234077E5     9.191546941373743E-1    4.686079660412245E-2    8.165700209270232E-2   -4.820146249839718E-2    8.175028375494869E-2   -4.826029671388978E-2    9.190515580031723E-1    4.692486100684200E-2
 5.488209977716873E5     9.193663051219371E-1    4.667962128087415E-2    8.145461228330458E-2   -4.804062779065239E-2    8.155215413621092E-2   -4.809363779640385E-2    9.192283337978284E-1    4.674347182021486E-2
 5.530084266022880E5     9.195285271690938E-1    4.652131335201614E-2    8.125672758159630E-2   -4.787215321692607E-2    8.136008908179088E-2   -4.793078631867475E-2    9.194248107872944E-1    4.659112668054360E-2
 5.572278049397101E5     9.196895331493244E-1    4.633553066032807E-2    8.106035759846204E-2   -4.770721624208342E-2    8.115990832222389E-2   -4.776755746002220E-2    9.196248076516794E-1    4.641180122801830E-2
 5.614793765543010E5     9.198924226587346E-1    4.617047396605044E-2    8.086503845911983E-2   -4.754795955793206E-2    8.096935790783363E-2   -4.761082134183461E-2    9.198286828914415E-1    4.623874375284866E-2
 5.657633870763436E5     9.201097894703595E-1    4.598980085744151E-2    8.067520366862795E-2   -4.738741662900448E-2    8.077299570886921E-2   -4.744463125108175E-2    9.200285246957501E-1    4.604327018124392E-2
 5.700800840102463E5     9.203133523283631E-1    4.582736202746341E-2    8.047762259722349E-2   -4.721966285034635E-2    8.057738776873712E-2   -4.728200357699130E-2    9.202181582826383E-1    4.587301523025646E-2
 5.744297167488408E5     9.204823064174084E-1    4.565441358961628E-2    8.028250385836895E-2   -4.705755793913389E-2    8.038350137402460E-2   -4.711931055345901E-2    9.203517607246197E-1    4.571934559548736E-2
 5.788125365877954E5     9.206822477620018E-1    4.548135645842770E-2    8.009371447060840E-2   -4.689625309322252E-2    8.019522238400197E-2   -4.696220968690875E-2    9.205481034781527E-1    4.555481022390534E-2
 5.832287967401261E5     9.208543337641777E-1    4.531778857966321E-2    7.989825670612025E-2   -4.673110251373050E-2    8.000177522748092E-2   -4.679952827701732E-2    9.207279763540330E-1    4.539486869939700E-2
 5.876787523508312E5     9.210398031198656E-1    4.514178987664943E-2    7.970498299035270E-2   -4.657164090462174E-2    7.980640481986417E-2   -4.663562170553535E-2    9.208975356062812E-1    4.521459222579218E-2
 5.921626605116295E5     9.212579774980925E-1    4.495961797941206E-2    7.952297471835276E-2   -4.641519051199893E-2    7.961589893958448E-2   -4.648045217293661E-2    9.210675493142245E-1    4.503188471736205E-2
 5.966807802758140E5     9.214488073338279E-1    4.479594139845283E-2    7.933480236563174E-2   -4.625879024835056E-2    7.943425850053773E-2   -4.631688720424443E-2    9.212888659286368E-1    4.489553886905614E-2
 6.012333726732214E5     9.215826968425258E-1    4.463379035420984E-2    7.914734770226801E-2   -4.609869098697894E-2    7.924537325836430E-2   -4.616539912765306E-2    9.214658385309515E-1    4.471801557510419E-2
 6.058207007253073E5     9.217402218287380E-1    4.446752139833180E-2    7.895787390899940E-2   -4.593767111952367E-2    7.905698566549831E-2   -4.600582634557795E-2    9.215989061747343E-1    4.455822646606399E-2
 6.104430294603459E5     9.219346137993630E-1    4.430245101041574E-2    7.877260521351419E-2   -4.578057240566515E-2    7.887394114912984E-2   -4.585477662418134E-2    9.217952074421240E-1    4.438630208403928E-2
 6.151006259287392E5     9.221059564025482E-1    4.416195668537269E-2    7.859033321515765E-2   -4.562478215554119E-2    7.868911161125346E-2   -4.569634541688342E-2    9.220074412395988E-1    4.422090526251162E-2
 6.197937592184512E5     9.223237059070227E-1    4.397521785854100E-2    7.841010244717057E-2   -4.547701995158974E-2    7.850420198182688E-2   -4.554571363426498E-2    9.221868787883111E-1    4.404928399511750E-2
 6.245227004705463E5     9.224829162229260E-1    4.380708144040559E-2    7.822771168445579E-2   -4.531988948372834E-2    7.831931769692953E-2   -4.538350734242846E-2    9.223595812732898E-1    4.390218683775102E-2
 6.292877228948588E5     9.226592991433537E-1    4.364517007040800E-2    7.804135586670811E-2   -4.517023434079397E-2    7.813164087939511E-2   -4.522900349840245E-2    9.225057183679167E-1    4.374301372360859E-2
 6.340891017857760E5     9.228529906193289E-1    4.349052805933773E-2    7.786577335745665E-2   -4.501850299436457E-2    7.795305163572923E-2   -4.508017390191604E-2    9.227013533648681E-1    4.358956186906097E-2
 6.389271145381465E5     9.229994754785639E-1    4.332928596903311E-2    7.767836425891593E-2   -4.486800862874037E-2    7.777204577498378E-2   -4.492969351046285E-2    9.229039181735619E-1    4.340300645816869E-2
 6.438020406633007E5     9.231758955324642E-1    4.316211177878835E-2    7.750238809740348E-2   -4.471847126161219E-2    7.759068234297035E-2   -4.477793832852910E-2    9.230920359788077E-1    4.324441453574218E-2
 6.487141618052023E5     9.233628541511336E-1    4.300637940213008E-2    7.732131135736989E-2   -4.456548008693137E-2    7.740967057988081E-2   -4.462291138124675E-2    9.232328741252739E-1    4.309842020828484E-2
 6.536637617567203E5     9.235567993993694E-1    4.284538932400488E-2    7.714529499223338E-2   -4.442122590449044E-2    7.722846238194911E-2   -4.448070387453359E-2    9.234483003272800E-1    4.292094863200897E-2
 6.586511264760230E5     9.237148686651697E-1    4.270554642709206E-2    7.696059095111064E-2   -4.426865440460256E-2    7.704707176677475E-2   -4.432596069253551E-2    9.235834218236370E-1    4.279285230930202E-2
 6.636765441031042E5     9.239088957812345E-1    4.253542205457027E-2    7.678459330051340E-2   -4.411819851174900E-2    7.687116459719173E-2   -4.418347763235247E-2    9.237999617450641E-1    4.262635114624960E-2
 6.687403049764220E5     9.240653432381235E-1    4.237861005518322E-2    7.660875735193200E-2   -4.397406574587422E-2    7.669327858910979E-2   -4.403985999174468E-2    9.239613176826098E-1    4.246726573594400E-2
 6.738427016496789E5     9.242270296736254E-1    4.222577865558044E-2    7.643014569655940E-2   -4.382705926826078E-2    7.651507452840642E-2   -4.388943464827291E-2    9.241042238852075E-1    4.231444763484134E-2
 6.789840289087215E5     9.243727499609775E-1    4.208807636965734E-2    7.624867841083029E-2   -4.367847054728572E-2    7.633654550728186E-2   -4.374617809253972E-2    9.243017779385452E-1    4.217259347166756E-2
 6.841645837885707E5     9.245778198449958E-1    4.191263186507854E-2    7.607210443981929E-2   -4.353949376374557E-2    7.615625382306353E-2   -4.360250604726433E-2    9.245093230999987E-1    4.200213831415676E-2
 6.893846655905881E5     9.248065762669483E-1    4.174451581005755E-2    7.589720072446543E-2   -4.339361904007343E-2    7.598497633310780E-2   -4.346503994445310E-2    9.246850609568272E-1    4.184405584325092E-2
 6.946445758997592E5     9.249370934899599E-1    4.159042484436690E-2    7.572246144085477E-2   -4.325554355046125E-2    7.580433903530442E-2   -4.332138020439404E-2    9.248805156488370E-1    4.168487662942271E-2
 6.999446186021230E5     9.251074182667496E-1    4.144370406490951E-2    7.553977900517991E-2   -4.310603186291011E-2    7.562977602604007E-2   -4.317992914735287E-2    9.250654177311252E-1    4.151114724790656E-2
 7.052850999023273E5     9.253009305807022E-1    4.128062734709802E-2    7.536700080739679E-2   -4.296942890674401E-2    7.545200332559263E-2   -4.303218775128303E-2    9.252102743923013E-1    4.137305896073601E-2
 7.106663283413178E5     9.254488158983731E-1    4.112635879329157E-2    7.519089936049038E-2   -4.282795291391867E-2    7.527766608630146E-2   -4.289086340148316E-2    9.253773708676269E-1    4.124724559365877E-2
 7.160886148141696E5     9.256532663967388E-1    4.096655124968669E-2    7.501278642816997E-2   -4.268913446253562E-2    7.510176146561000E-2   -4.275691257523322E-2    9.255541985069708E-1    4.108190597241514E-2
 7.215522725880400E5     9.258097646277315E-1    4.082772129147413E-2    7.483779166064916E-2   -4.254502218549092E-2    7.492487819989216E-2   -4.261826055686205E-2    9.257068132234151E-1    4.094505039638043E-2
 7.270576173202734E5     9.259890764940163E-1    4.068163892452386E-2    7.465779185862760E-2   -4.240547334233185E-2    7.474984370130375E-2   -4.247824038324423E-2    9.258745951269554E-1    4.079062677997847E-2
 7.326049670766364E5     9.261518526623435E-1    4.051465344319771E-2    7.448667758813329E-2   -4.226522172684274E-2    7.457609645129377E-2   -4.234124098683170E-2    9.261250377179312E-1    4.060429547666038E-2
 7.381946423496918E5     9.262999836530212E-1    4.037688152038090E-2    7.431441434209343E-2   -4.213158407841849E-2    7.439645711911652E-2   -4.219558247547680E-2    9.262462061565044E-1    4.047088820708870E-2
 7.438269660773217E5     9.264963437234490E-1    4.022142433499860E-2    7.414142686139789E-2   -4.199256060650861E-2    7.421785392531897E-2   -4.205847280620660E-2    9.264057339358328E-1    4.031461698373785E-2
 7.495022636613748E5     9.266970753329620E-1    4.005235760977383E-2    7.396417413151876E-2   -4.185512941462542E-2    7.404066279331921E-2   -4.192075728252950E-2    9.265840660516168E-1    4.016689145115595E-2
 7.552208629864733E5     9.268531477195070E-1    3.990529090473387E-2    7.379280521151739E-2   -4.171681299504323E-2    7.386686046286720E-2   -4.178288982489702E-2    9.267676892850301E-1    4.001852861936388E-2
 7.609830944389519E5     9.270066428856428E-1    3.974097339693530E-2    7.361857668635902E-2   -4.158064530195950E-2    7.369522850315736E-2   -4.164328490881809E-2    9.269416895221582E-1    3.988557348166148E-2
 7.667892909259528E5     9.272160999774225E-1    3.957606074111376E-2    7.344305035781054E-2   -4.144219664833710E-2    7.351968455576099E-2   -4.151090497396912E-2    9.271075948909171E-1    3.974288077337990E-2
 7.726397878946491E5     9.273785975672316E-1    3.945313237259363E-2    7.326922315608518E-2   -4.129999429177816E-2    7.334631697031323E-2   -4.136786560789886E-2    9.272343780211475E-1    3.960049470398802E-2
 7.785349233516312E5     9.275356141881336E-1    3.930809549013992E-2    7.309452132318252E-2   -4.116302287103089E-2    7.317108124473640E-2   -4.122585557246054E-2    9.273839474113195E-1    3.947231455585325E-2
 7.844750378824320E5     9.276758514543509E-1    3.917250770184761E-2    7.292164745271852E-2   -4.103074118852008E-2    7.299616013765178E-2   -4.109122420356908E-2    9.275886353363622E-1    3.930872029158666E-2
 7.904604746712097E5     9.278342507144230E-1    3.902432158271455E-2    7.275249581197363E-2   -4.089059077455063E-2    7.282183986881186E-2   -4.095865966017303E-2    9.277386605074318E-1    3.915676959199707E-2
 7.964915795205662E5     9.280399809504175E-1    3.885618520760430E-2    7.257884899931072E-2   -4.075497542447998E-2    7.265182052724817E-2   -4.082107998990635E-2    9.279326877143376E-1    3.898879982386540E-2
 8.025687008715309E5     9.281896303197447E-1    3.870374659064681E-2    7.240393659803764E-2   -4.061541041858983E-2    7.248218908002957E-2   -4.068374531672592E-2    9.280800837589982E-1    3.885047440594457E-2
 8.086921898236905E5     9.283656433766869E-1    3.854707585976139E-2    7.223493861391331E-2   -4.048062999143666E-2    7.230589743531445E-2   -4.054571686871703E-2    9.282440025286300E-1    3.870233601848494E-2
 8.148624001554718E5     9.285143158858976E-1    3.840562122415864E-2    7.206503518723542E-2   -4.034088301862795E-2    7.213274809744723E-2   -4.040154105104863E-2    9.284478618199828E-1    3.853302469279830E-2
 8.210796883445872E5     9.286521310356767E-1    3.826057514306726E-2    7.189137442635114E-2   -4.019950471201993E-2    7.196457680234895E-2   -4.027127202551213E-2    9.286074517259849E-1    3.840753033681291E-2
 8.273444135886204E5     9.288288766569147E-1    3.812401626415986E-2    7.172295041863935E-2   -4.006942209360502E-2    7.179387196256769E-2   -4.013391726353073E-2    9.287591977056171E-1    3.822614265654280E-2
 8.336569378257846E5     9.289836707619354E-1    3.799505925618034E-2    7.155497115682172E-2   -3.993357984771546E-2    7.162654987744829E-2   -3.999357821112764E-2    9.289411235436585E-1    3.808642734654986E-2
 8.400176257558319E5     9.291329136313838E-1    3.780836528419238E-2    7.138395934421599E-2   -3.979337844821028E-2    7.145554397908561E-2   -3.986508302318806E-2    9.291416078557072E-1    3.791156185706465E-2
 8.464268448611222E5     9.292951914833381E-1    3.766001783148769E-2    7.121958366060974E-2   -3.965727933156322E-2    7.129198952089631E-2   -3.972677009316224E-2    9.292695067106893E-1    3.777013213024145E-2
 8.528849654278599E5     9.294886762538728E-1    3.750702075707982E-2    7.104890559097382E-2   -3.951821803419292E-2    7.112080834219907E-2   -3.959037508591311E-2    9.294367275522221E-1    3.760699797684480E-2
 8.593923605674774E5     9.296671312132293E-1    3.734668565100377E-2    7.088240495483955E-2   -3.937881967006961E-2    7.095782057841404E-2   -3.944900022769154E-2    9.295969840570621E-1    3.746342336505703E-2
 8.659494062381978E5     9.298168785140757E-1    3.718900381217181E-2    7.072206473722722E-2   -3.924304166933140E-2    7.078979372168126E-2   -3.931321331426874E-2    9.297688325904575E-1    3.732560808817530E-2
 8.725564812667536E5     9.299785454077830E-1    3.703156097220836E-2    7.055535415588855E-2   -3.910902804806296E-2    7.062538619661722E-2   -3.917392030152765E-2    9.299340480274997E-1    3.719162254104243E-2
 8.792139673702718E5     9.301367712981673E-1    3.688567113535106E-2    7.039392291990985E-2   -3.897521398578790E-2    7.045788048235553E-2   -3.903817613920032E-2    9.300308065793345E-1    3.707831088688798E-2
 8.859222491783336E5     9.303177397274244E-1    3.671844545856709E-2    7.023379985574957E-2   -3.883766001127861E-2    7.029480055221859E-2   -3.890271476014785E-2    9.302042615694238E-1    3.693693606763355E-2
 8.926817142551860E5     9.305038022296845E-1    3.657325542721421E-2    7.006819915267065E-2   -3.870216196053113E-2    7.013931779659921E-2   -3.876917395715243E-2    9.303856660169217E-1    3.677085919689965E-2
 8.994927531221397E5     9.306330198982726E-1    3.642984357747894E-2    6.990446209889038E-2   -3.856266919151380E-2    6.997561260359524E-2   -3.863613265232209E-2    9.305734271186229E-1    3.659444466405657E-2
 9.063557592801275E5     9.307931552632289E-1    3.627225584474422E-2    6.974984168720043E-2   -3.842270435170125E-2    6.981282055293189E-2   -3.850106704364508E-2    9.307152158021722E-1    3.645593181581944E-2
 9.132711292324457E5     9.309553388764303E-1    3.611749675599131E-2    6.959127759049070E-2   -3.829534088905175E-2    6.965602067045212E-2   -3.836827082292445E-2    9.308846394242056E-1    3.628874662914213E-2
 9.202392625076511E5     9.310798854637266E-1    3.598422639333107E-2    6.943015733304185E-2   -3.815753351552514E-2    6.949534091106403E-2   -3.823186271169349E-2    9.310540032408466E-1    3.614936431636744E-2
 9.272605616826499E5     9.312174399078504E-1    3.580496314016679E-2    6.927147338996316E-2   -3.802414838463883E-2    6.933816980413361E-2   -3.810153270194666E-2    9.311938743584918E-1    3.599550427389250E-2
 9.343354324059531E5     9.314082638458637E-1    3.565814155254326E-2    6.911955077921843E-2   -3.789195518462424E-2    6.918306626135010E-2   -3.796691823936723E-2    9.313478351972770E-1    3.582930681601996E-2
 9.414642834211199E5     9.315624437892319E-1    3.551281919037937E-2    6.896135629805683E-2   -3.775437319431700E-2    6.902605563868848E-2   -3.783051408948773E-2    9.315039144670999E-1    3.568964097482326E-2
 9.486475265903610E5     9.317017772850226E-1    3.536207692649947E-2    6.880677264988322E-2   -3.762944209251911E-2    6.886658933009776E-2   -3.770073048200002E-2    9.316396728720653E-1    3.554773913515809E-2
 9.558855769183410E5     9.318686291138459E-1    3.519354515774951E-2    6.865499002245143E-2   -3.749619652472994E-2    6.871131470481222E-2   -3.756582493486258E-2    9.318013978133124E-1    3.543026017956016E-2
 9.631788525761530E5     9.319975145894277E-1    3.504865406297750E-2    6.849575962154163E-2   -3.736414965374380E-2    6.856135859329836E-2   -3.743863100407659E-2    9.319577104198682E-1    3.528508993687964E-2
 9.705277749254764E5     9.321373278714586E-1    3.492651706270056E-2    6.834401085295169E-2   -3.723391075217653E-2    6.840587792101564E-2   -3.730534619128588E-2    9.320743088738989E-1    3.517090209516300E-2
 9.779327685429282E5     9.322655871693131E-1    3.477523513324961E-2    6.819413402973606E-2   -3.710515459366456E-2    6.825231758963297E-2   -3.717529719678523E-2    9.322345202476988E-1    3.501499991431611E-2
 9.853942612445805E5     9.324781685912993E-1    3.462052450193789E-2    6.804677934273463E-2   -3.697857368596603E-2    6.809775887017026E-2   -3.704816103720326E-2    9.323846497728525E-1    3.484771576391467E-2
 9.929126841106854E5     9.326091571548599E-1    3.448352391858664E-2    6.789291180785152E-2   -3.684900729961760E-2    6.794986415411250E-2   -3.692279669451048E-2    9.325822052714668E-1    3.468995228293835E-2
 1.000488471510578E6     9.327545781086699E-1    3.437609545532152E-2    6.774415822180727E-2   -3.672209659005458E-2    6.779888210884960E-2   -3.678877376917384E-2    9.326860994777932E-1    3.454597716515195E-2
 1.008122061127771E6     9.329078104417853E-1    3.421233470091330E-2    6.759507202130444E-2   -3.659297564146477E-2    6.764809831360966E-2   -3.666444035620004E-2    9.328707510359037E-1    3.441036716814663E-2
 1.015813893985245E6     9.330485812426541E-1    3.408666753640863E-2    6.744389658923558E-2   -3.646619882858015E-2    6.749876544163105E-2   -3.653881388425318E-2    9.330029938581434E-1    3.426776222624471E-2
 1.023564414470923E6     9.331814205101419E-1    3.394519497055132E-2    6.729541290650749E-2   -3.634235411273447E-2    6.734722655058736E-2   -3.641179033619208E-2    9.331220637178059E-1    3.414682743808518E-2
 1.031374070363347E6     9.333262959248432E-1    3.379560889430438E-2    6.714818393116552E-2   -3.621947883850081E-2    6.719882495544813E-2   -3.628633315421136E-2    9.332400094179870E-1    3.398888097244537E-2
 1.039243312857548E6     9.334524937365716E-1    3.365029038368441E-2    6.699989232328971E-2   -3.610067801315370E-2    6.704875778670093E-2   -3.616500632085974E-2    9.333883567877607E-1    3.384001662583752E-2
 1.047172596591111E6     9.335833741650943E-1    3.353040440199326E-2    6.685093976663595E-2   -3.597590949837139E-2    6.689611351646448E-2   -3.604439595427594E-2    9.335391269572838E-1    3.366036237046687E-2
 1.055162379670449E6     9.337470001693527E-1    3.338640639328102E-2    6.670019899598094E-2   -3.584377269222589E-2    6.675161432344581E-2   -3.591960865740725E-2    9.337044487104241E-1    3.354514687642020E-2
 1.063213123697260E6     9.338958869478707E-1    3.323946732682581E-2    6.655203466396556E-2   -3.572498729958403E-2    6.660029746869360E-2   -3.579802924859557E-2    9.338204749807092E-1    3.341863542829991E-2
 1.071325293795198E6     9.340432871082613E-1    3.312306343277431E-2    6.640915544802643E-2   -3.560848841895257E-2    6.645517093801200E-2   -3.567278262698165E-2    9.339894551672596E-1    3.327154268400399E-2
 1.079499358636750E6     9.341776984198402E-1    3.298717292562756E-2    6.626075752392355E-2   -3.548742587844460E-2    6.630895996461540E-2   -3.555367926850090E-2    9.341390411533055E-1    3.314733527194434E-2
 1.087735790470306E6     9.343037519565149E-1    3.284629870565707E-2    6.610955807649176E-2   -3.536682302333963E-2    6.615663675906798E-2   -3.543602828240942E-2    9.342622892147414E-1    3.300171613601124E-2
 1.096035065147453E6     9.344235756738318E-1    3.271860124061753E-2    6.596419858649800E-2   -3.524125265148854E-2    6.600790278116328E-2   -3.531408522246162E-2    9.343982489113213E-1    3.286770599790659E-2
 1.104397662150453E6     9.345641443067100E-1    3.260948666434377E-2    6.581791373174091E-2   -3.512216442697925E-2    6.585983211493361E-2   -3.519903429305179E-2    9.345601884369962E-1    3.271988247123517E-2
 1.112824064619953E6     9.347341031510304E-1    3.244844193459175E-2    6.567325811930581E-2   -3.500349818464954E-2    6.571141775422332E-2   -3.508012124061467E-2    9.347027745205950E-1    3.257793552946865E-2
 1.121314759382903E6     9.348766205868073E-1    3.230242542341014E-2    6.552471573410018E-2   -3.488509046939453E-2    6.556857552565654E-2   -3.496106338946112E-2    9.348357962413332E-1    3.243877198011833E-2
 1.129870236980669E6     9.350017290764562E-1    3.217538708990141E-2    6.537888570302200E-2   -3.477103760991647E-2    6.541467719349897E-2   -3.483937759500317E-2    9.349824469683484E-1    3.232298653351493E-2
 1.138490991697383E6     9.351196505839736E-1    3.205090143294638E-2    6.523169967597496E-2   -3.464895519256035E-2    6.527105402322309E-2   -3.471923065687468E-2    9.351669250496709E-1    3.217352012770353E-2
 1.147177521588496E6     9.352687158401278E-1    3.192949043161886E-2    6.508233305689785E-2   -3.452786381627637E-2    6.512709387358549E-2   -3.460135801967184E-2    9.353242239408783E-1    3.201667379615292E-2
 1.155930328509552E6     9.354411408219423E-1    3.179250242775804E-2    6.493639240013499E-2   -3.441230543055181E-2    6.497892344134729E-2   -3.447952446930487E-2    9.354456947230549E-1    3.191470227850320E-2
 1.164749918145190E6     9.355915811572263E-1    3.164038222565885E-2    6.479000695510009E-2   -3.429216562776075E-2    6.482892127503076E-2   -3.436192872540327E-2    9.356071398206477E-1    3.178354686146030E-2
 1.173636800038349E6     9.357000943032806E-1    3.150007345993053E-2    6.464100761666369E-2   -3.417584697793616E-2    6.468226920577023E-2   -3.424507495406082E-2    9.357068332285211E-1    3.161591900241234E-2
 1.182591487619709E6     9.358576836690148E-1    3.134099923361480E-2    6.449356132090299E-2   -3.405937959267947E-2    6.453009497209534E-2   -3.412666207661926E-2    9.358617785752427E-1    3.148433679834920E-2
 1.191614498237359E6     9.359567816976839E-1    3.122995182470452E-2    6.434739865660137E-2   -3.393487803634654E-2    6.438433139910904E-2   -3.400678585812451E-2    9.360042028436723E-1    3.132317024906506E-2
 1.200706353186678E6     9.360908697151918E-1    3.107601148635306E-2    6.420694328089019E-2   -3.381937725632971E-2    6.423885502671199E-2   -3.388720197069954E-2    9.361563519744819E-1    3.121330069842306E-2
 1.209867577740467E6     9.362648921893355E-1    3.092917327022160E-2    6.406256447970235E-2   -3.370169124344224E-2    6.409323302473281E-2   -3.376391444832050E-2    9.362762938635935E-1    3.110007832623704E-2
 1.219098701179276E6     9.364222501233398E-1    3.082699301570310E-2    6.391562658556174E-2   -3.358063179433235E-2    6.394949285089219E-2   -3.364477932890588E-2    9.364455798525764E-1    3.098035886698228E-2
 1.228400256821998E6     9.365524764602549E-1    3.069240197020199E-2    6.377313287568789E-2   -3.346141547459948E-2    6.380235054884360E-2   -3.352487148210600E-2    9.365753957770846E-1    3.080373044219823E-2
 1.237772782056674E6     9.366983233022577E-1    3.054693926237557E-2    6.362703001405350E-2   -3.334330767740182E-2    6.365558613288591E-2   -3.340828446398572E-2    9.366816722470839E-1    3.068438552781447E-2
 1.247216818371540E6     9.368158900687956E-1    3.040769979141138E-2    6.348225002296679E-2   -3.322038918278629E-2    6.351695517221001E-2   -3.328920812385391E-2    9.368406381969727E-1    3.055963045242950E-2
 1.256732911386322E6     9.369763713675689E-1    3.028067125037117E-2    6.334150851283579E-2   -3.310072529103542E-2    6.337620336855819E-2   -3.316778727100395E-2    9.370179832885560E-1    3.043270405593591E-2
 1.266321610883739E6     9.371103920001667E-1    3.015980835177608E-2    6.319771088026076E-2   -3.298828069908679E-2    6.323602356201612E-2   -3.304459514136954E-2    9.371370273274938E-1    3.030401047806060E-2
 1.275983470841281E6     9.372427265588097E-1    3.002911334396085E-2    6.305769556747620E-2   -3.286523600830949E-2    6.309112655739853E-2   -3.292642714940957E-2    9.372697822759318E-1    3.015374460210150E-2
 1.285719049463211E6     9.373570114156358E-1    2.988178594168929E-2    6.291864424238848E-2   -3.274389207294655E-2    6.295027504437650E-2   -3.280579856606415E-2    9.373868814993109E-1    3.002450434452925E-2
 1.295528909212810E6     9.375159890441352E-1    2.972158197906261E-2    6.277904864858912E-2   -3.262383589575728E-2    6.280772858466011E-2   -3.268911016491027E-2    9.375369246709920E-1    2.989614547312477E-2
 1.305413616844883E6     9.376324237941736E-1    2.961464514317892E-2    6.263937354548955E-2   -3.250893038626603E-2    6.267404087078378E-2   -3.256507921535744E-2    9.376695167805023E-1    2.972947621821822E-2
 1.315373743438491E6     9.377639192940547E-1    2.945926277750033E-2    6.250277808948831E-2   -3.239266458321761E-2    6.253349585008344E-2   -3.244870283749197E-2    9.378046455491339E-1    2.959909149735119E-2
 1.325409864429950E6     9.379100438536816E-1    2.936801850900442E-2    6.236627997461442E-2   -3.226899562345909E-2    6.239061357526306E-2   -3.233487119735905E-2    9.379179526973613E-1    2.944690130979243E-2
 1.335522559646084E6     9.380534553570592E-1    2.920567275238506E-2    6.222835264408969E-2   -3.215188208874058E-2    6.225836294776897E-2   -3.220885881043947E-2    9.380340371156463E-1    2.931278847388863E-2
 1.345712413337699E6     9.381765169369475E-1    2.906958365015210E-2    6.209358192425862E-2   -3.203223179793859E-2    6.212234345645757E-2   -3.208913797038940E-2    9.381422753855180E-1    2.913591646207123E-2
 1.355980014213373E6     9.382980376612515E-1    2.891837364128298E-2    6.195958486728010E-2   -3.191975090923128E-2    6.198830824593040E-2   -3.197168989277187E-2    9.383068341613945E-1    2.901846627731396E-2
 1.366325955473440E6     9.384311297039485E-1    2.877533752656173E-2    6.183328507272518E-2   -3.180001758843451E-2    6.185415215177596E-2   -3.185477409392209E-2    9.384463311380006E-1    2.891717616585377E-2
 1.376750834844268E6     9.385535350107019E-1    2.863591963527450E-2    6.169652620603744E-2   -3.168160395182095E-2    6.172279897026019E-2   -3.173534655986230E-2    9.385761644781617E-1    2.876945000513889E-2
 1.387255254612807E6     9.386770113522473E-1    2.851781661963181E-2    6.156222695757584E-2   -3.156485272928113E-2    6.159030302445556E-2   -3.161904141378031E-2    9.387017966092742E-1    2.862741376465586E-2
 1.397839821661363E6     9.387964889970580E-1    2.840606273139299E-2    6.143363397966443E-2   -3.145063312467147E-2    6.145650923855629E-2   -3.150183760521048E-2    9.388365177252065E-1    2.847810682658185E-2
 1.408505147502673E6     9.389791794332275E-1    2.827675587057982E-2    6.130044516039837E-2   -3.133243981001844E-2    6.132681718552832E-2   -3.138847554526771E-2    9.389506338437650E-1    2.834165896403222E-2
 1.419251848315235E6     9.390826347554599E-1    2.813583807448007E-2    6.116869166259145E-2   -3.122284274483406E-2    6.119581664843179E-2   -3.127089267423917E-2    9.391011860987574E-1    2.823480072760998E-2
 1.430080544978898E6     9.392234358278989E-1    2.800607883289068E-2    6.104371697809097E-2   -3.110160721871178E-2    6.106824326622942E-2   -3.116025126104103E-2    9.392072380173566E-1    2.806951422538728E-2
 1.440991863110751E6     9.393175718325300E-1    2.785096121675198E-2    6.091039269799671E-2   -3.099089204483871E-2    6.094139418752898E-2   -3.104404585808327E-2    9.393505269964031E-1    2.795006259177837E-2
 1.451986433101243E6     9.394380711210254E-1    2.770936862627317E-2    6.078666024094317E-2   -3.087952523428304E-2    6.081265366497313E-2   -3.093444684403868E-2    9.394716386139204E-1    2.783214931358441E-2
 1.463064890150622E6     9.395531885287619E-1    2.756275450273281E-2    6.065447265940972E-2   -3.076913719761113E-2    6.067955641375988E-2   -3.081968154395481E-2    9.395999617452441E-1    2.770303534114425E-2
 1.474227874305625E6     9.396501001133691E-1    2.744452698606983E-2    6.052598438634554E-2   -3.065548521712381E-2    6.055387202106499E-2   -3.070906618209524E-2    9.397238171744021E-1    2.756467805154532E-2
 1.485476030496454E6     9.397898187757253E-1    2.731536903855756E-2    6.039871408059052E-2   -3.054449289757970E-2    6.042562583301016E-2   -3.059568053073411E-2    9.398454369092365E-1    2.743209887485931E-2
 1.496810008574050E6     9.398870757231617E-1    2.717649179178571E-2    6.027352379160827E-2   -3.043326756522872E-2    6.029665765324439E-2   -3.048578198514477E-2    9.399476088221498E-1    2.728997567747488E-2
 1.508230463347619E6     9.400131637275558E-1    2.704128347853741E-2    6.014440548285789E-2   -3.032779509110346E-2    6.017613950407930E-2   -3.037571643020822E-2    9.401105034967793E-1    2.718444003043360E-2
 1.519738054622472E6     9.401522130566222E-1    2.693053458178341E-2    6.002247694624065E-2   -3.021510645355024E-2    6.004716435989834E-2   -3.026851332637315E-2    9.402077608880344E-1    2.704819143003790E-2
 1.531333447238147E6     9.402834049983908E-1    2.680154442854609E-2    5.989478620495085E-2   -3.010923000348041E-2    5.992077396876955E-2   -3.015606262331818E-2    9.403266287197520E-1    2.693170987976220E-2
 1.543017311106810E6     9.404299852157035E-1    2.666880686387246E-2    5.976814713969832E-2   -2.999770379869762E-2    5.979260220573731E-2   -3.004746987114447E-2    9.404444597374830E-1    2.678385286013692E-2
 1.554790321251977E6     9.405300338787701E-1    2.656366068922535E-2    5.964194782661023E-2   -2.989174620395195E-2    5.966908670324696E-2   -2.994141097582055E-2    9.405888915593751E-1    2.665714191439009E-2
 1.566653157847488E6     9.406587363789739E-1    2.641430733548183E-2    5.951759398382597E-2   -2.978759278848134E-2    5.954136592067213E-2   -2.983388754560040E-2    9.407129056986339E-1    2.653587884122527E-2
 1.578606506256824E6     9.407738682438596E-1    2.626964001538381E-2    5.938900651369008E-2   -2.967958702773294E-2    5.941470254291120E-2   -2.972356235888347E-2    9.408198092705734E-1    2.641831488045842E-2
 1.590651057072690E6     9.409123455289718E-1    2.616251364271217E-2    5.925991382629820E-2   -2.957164102974936E-2    5.928641147320061E-2   -2.961725172527472E-2    9.409537330698304E-1    2.628133386832761E-2
 1.602787506156919E6     9.410514497138283E-1    2.604314701902382E-2    5.913332059576155E-2   -2.946657397322127E-2    5.915663063922437E-2   -2.950947852016446E-2    9.410575022923491E-1    2.616163268920212E-2
 1.615016554680682E6     9.411346972769326E-1    2.591843711235002E-2    5.900495678511285E-2   -2.935779620596887E-2    5.903303741770605E-2   -2.940149367204434E-2    9.412033863230456E-1    2.601504509195050E-2
 1.627338909164981E6     9.413162505807703E-1    2.578202666479792E-2    5.888060428061049E-2   -2.925115400574128E-2    5.890402612084360E-2   -2.929427623133090E-2    9.413355204610422E-1    2.591468361112403E-2
 1.639755281521474E6     9.414385098150166E-1    2.565978003094111E-2    5.875754261179220E-2   -2.914423456681457E-2    5.878407620175935E-2   -2.918837840790607E-2    9.414879905880762E-1    2.576701865143750E-2
 1.652266389093622E6     9.415452608196603E-1    2.552118810667148E-2    5.863326286544950E-2   -2.903787905103070E-2    5.865599600361000E-2   -2.907967861215385E-2    9.416204957018498E-1    2.566616916607020E-2
 1.664872954698102E6     9.416646202331641E-1    2.539669034386384E-2    5.851007629553360E-2   -2.893222713003068E-2    5.852847657720769E-2   -2.897478626471491E-2    9.417532727697570E-1    2.552674163883534E-2
 1.677575706666590E6     9.417566881114066E-1    2.524813183718588E-2    5.838025192345574E-2   -2.882212974185759E-2    5.840170591839671E-2   -2.886933176329048E-2    9.418439493292845E-1    2.537313122588562E-2
 1.690375378887833E6     9.418615257830423E-1    2.510708970568878E-2    5.825131203274708E-2   -2.871690745121126E-2    5.827827054780774E-2   -2.875955362944591E-2    9.419663719607023E-1    2.524302469442204E-2
 1.703272710850043E6     9.420081936349659E-1    2.502204652401737E-2    5.812768698643420E-2   -2.860821715312651E-2    5.815075629239628E-2   -2.865248531692432E-2    9.420685370421195E-1    2.512656278387826E-2
 1.716268447683636E6     9.421457181689810E-1    2.487885292475145E-2    5.800737708888493E-2   -2.850134858418821E-2    5.802662433691861E-2   -2.854483499995838E-2    9.421693257310912E-1    2.498078086173264E-2
 1.729363340204262E6     9.422625312301168E-1    2.474792307475353E-2    5.787976315634983E-2   -2.839706767235208E-2    5.790078945064969E-2   -2.843875916908224E-2    9.422868762342252E-1    2.483647437568353E-2
 1.742558144956193E6     9.423971823901922E-1    2.464196600421904E-2    5.775755120772955E-2   -2.828765927062398E-2    5.777873507797871E-2   -2.832972382323635E-2    9.424288364353753E-1    2.472959145632971E-2
 1.755853624256030E6     9.424645132636112E-1    2.448432111339296E-2    5.763226977290038E-2   -2.818137633255844E-2    5.765776388789959E-2   -2.821806041919881E-2    9.425416922412013E-1    2.460079557863633E-2
 1.769250546236744E6     9.425808071205342E-1    2.434840944817649E-2    5.751004043734786E-2   -2.807009491645997E-2    5.753509588139338E-2   -2.811298499247428E-2    9.426645612990342E-1    2.445079116202034E-2
 1.782749684892061E6     9.426977127577774E-1    2.420782226913577E-2    5.738804245783719E-2   -2.796737281905463E-2    5.741574778701038E-2   -2.800521691317778E-2    9.427909919688239E-1    2.432018590215934E-2
 1.796351820121167E6     9.428376147377822E-1    2.409523497666815E-2    5.726828044961873E-2   -2.785811864715618E-2    5.729113534280747E-2   -2.789749236994703E-2    9.429029955006838E-1    2.420124414494979E-2
 1.810057737773773E6     9.429169486585064E-1    2.395488807269424E-2    5.714481488359609E-2   -2.774940606651541E-2    5.717260887482369E-2   -2.778758823299740E-2    9.430007596836384E-1    2.406536573267445E-2
 1.823868229695514E6     9.430692520951068E-1    2.383301586149059E-2    5.702717819139294E-2   -2.764265270620261E-2    5.705219823292971E-2   -2.768127196414280E-2    9.431024789362406E-1    2.393329155894320E-2
 1.837784093773698E6     9.431747481544539E-1    2.369674779139376E-2    5.690957839832027E-2   -2.753354028903704E-2    5.692934182145892E-2   -2.757039212386640E-2    9.432344536637192E-1    2.380628144186956E-2
 1.851806133983411E6     9.432899568193611E-1    2.357978004506659E-2    5.679759117140314E-2   -2.742500019602128E-2    5.681364443490504E-2   -2.746383827795194E-2    9.433739825952575E-1    2.368596752196565E-2
 1.865935160433950E6     9.434171454920776E-1    2.343877140843431E-2    5.667986502507088E-2   -2.732149639934947E-2    5.669792844295802E-2   -2.735977616859316E-2    9.434627646378217E-1    2.354490544490974E-2
 1.880171989415638E6     9.435247568769769E-1    2.332950321882827E-2    5.656103951828903E-2   -2.721582365515848E-2    5.658140213272476E-2   -2.725151352696993E-2    9.435672468912442E-1    2.341150929465966E-2
 1.894517443446981E6     9.436364957993910E-1    2.318972687233405E-2    5.644214181341816E-2   -2.710524596533111E-2    5.646499205476335E-2   -2.714262341714452E-2    9.436660305266207E-1    2.329364883265270E-2
 1.908972351322182E6     9.437626205751106E-1    2.304506786884103E-2    5.633326612421784E-2   -2.700391745052724E-2    5.634794885480408E-2   -2.703514557487674E-2    9.437868851400866E-1    2.315057028999128E-2
 1.923537548159045E6     9.438351821896139E-1    2.292083148058371E-2    5.621931380548571E-2   -2.689948228552668E-2    5.623276145842786E-2   -2.693155085563061E-2    9.438602988034357E-1    2.302619967873321E-2
 1.938213875447196E6     9.439659059966098E-1    2.279369307669028E-2    5.610392545680888E-2   -2.679377893467587E-2    5.611717110696869E-2   -2.683092622992874E-2    9.440338693967238E-1    2.289542742331748E-2
 1.953002181096708E6     9.440305398161941E-1    2.264825801625701E-2    5.599051923483105E-2   -2.669022692374194E-2    5.600791227765767E-2   -2.672433928423628E-2    9.441625419658923E-1    2.277468411882190E-2
 1.967903319487111E6     9.441868702543054E-1    2.252489125271831E-2    5.588143592129868E-2   -2.658742644743848E-2    5.589453481534899E-2   -2.661900949963962E-2    9.442510312683365E-1    2.264905537130210E-2
 1.982918151516703E6     9.442716944338064E-1    2.240053739997261E-2    5.576563478377944E-2   -2.648214721283914E-2    5.577845449974887E-2   -2.651640356132586E-2    9.443558519484562E-1    2.252865205970431E-2
 1.998047544652348E6     9.444075491764859E-1    2.227065431380517E-2    5.565341041546504E-2   -2.638249664517526E-2    5.566704857857079E-2   -2.641652616771092E-2    9.444687177395542E-1    2.239725963659500E-2
 2.013292372979546E6     9.445002603951329E-1    2.215110799665840E-2    5.554520480131511E-2   -2.628024803554206E-2    5.555984242383399E-2   -2.631317755824546E-2    9.445855610427413E-1    2.226194806756153E-2
 2.028653517252947E6     9.445929917747804E-1    2.202059030029921E-2    5.543232174061039E-2   -2.618068096505021E-2    5.545024260238517E-2   -2.620858614593590E-2    9.446830423762113E-1    2.213642904177767E-2
 2.044131864947255E6     9.446942918664125E-1    2.188602228935646E-2    5.531679454019579E-2   -2.608065135853056E-2    5.533512497897458E-2   -2.610738569012233E-2    9.447828814936516E-1    2.199515923005854E-2
 2.059728310308467E6     9.447731985208790E-1    2.176334644332477E-2    5.520609803546002E-2   -2.597405709809762E-2    5.521851212817968E-2   -2.600835823080850E-2    9.448687466982140E-1    2.187153200820920E-2
 2.075443754405562E6     9.448897762504481E-1    2.164476632492479E-2    5.509368583042689E-2   -2.587843729728894E-2    5.511029914411259E-2   -2.590722164787063E-2    9.449823169303412E-1    2.174820315604871E-2
 2.091279105182548E6     9.450198215369279E-1    2.152689042757710E-2    5.498218344222768E-2   -2.577619153574140E-2    5.500103757661143E-2   -2.580493042198927E-2    9.450799903679508E-1    2.162688051924111E-2
 2.107235277510921E6     9.450923320791055E-1    2.139471097770173E-2    5.487612868484958E-2   -2.567994409399449E-2    5.488298015190432E-2   -2.570645278450923E-2    9.451694312053255E-1    2.148878528158827E-2
 2.123313193242529E6     9.451914096517126E-1    2.126925755708698E-2    5.476090205735069E-2   -2.557947067392056E-2    5.477247732837305E-2   -2.560514884125057E-2    9.452738586602606E-1    2.137134691194503E-2
 2.139513781262815E6     9.452781222990417E-1    2.114472923929671E-2    5.465331309111451E-2   -2.548063334486121E-2    5.466321073197647E-2   -2.551307695767736E-2    9.454023611796106E-1    2.124322397789784E-2
 2.155837977544490E6     9.454423544409625E-1    2.102023606416024E-2    5.453836127778943E-2   -2.538485076788582E-2    5.455052971976032E-2   -2.540706521478302E-2    9.454662547762520E-1    2.112653632100110E-2
 2.172286725201612E6     9.455626012729350E-1    2.090542541887574E-2    5.442905211750767E-2   -2.528429727355251E-2    5.443452082640893E-2   -2.530402747273662E-2    9.455585847035558E-1    2.100333040699364E-2
 2.188860974544063E6     9.456318746448887E-1    2.078493272945166E-2    5.431311579328752E-2   -2.518403425629442E-2    5.432413924240700E-2   -2.520964990665830E-2    9.456654551238478E-1    2.086617197973816E-2
 2.205561683132472E6     9.457394323587381E-1    2.066987191543071E-2    5.420737650467159E-2   -2.508723830507748E-2    5.421928283670872E-2   -2.510721396131780E-2    9.458139958563779E-1    2.074173653449134E-2
 2.222389815833514E6     9.458210842672273E-1    2.054241528030509E-2    5.409709684439866E-2   -2.498827678376035E-2    5.410431311100994E-2   -2.500809596107731E-2    9.459357196506619E-1    2.061680655614323E-2
 2.239346344875663E6     9.459462286010499E-1    2.041154948363236E-2    5.398413946098309E-2   -2.488935630667354E-2    5.399564454284781E-2   -2.490648598306650E-2    9.460233117370941E-1    2.049232830282907E-2
 2.256432249905369E6     9.460204975490448E-1    2.031743750660965E-2    5.387129019356869E-2   -2.478980158108385E-2    5.388194245527269E-2   -2.480291658208673E-2    9.461433065559992E-1    2.037659736501381E-2
 2.273648518043640E6     9.461385321802241E-1    2.017093809654193E-2    5.376070728337082E-2   -2.469011108041374E-2    5.377444010536928E-2   -2.470206663659673E-2    9.462611809090187E-1    2.024216817465473E-2
 2.290996143943099E6     9.462475770361277E-1    2.006686499766821E-2    5.364973249119247E-2   -2.459335710913023E-2    5.366012441361733E-2   -2.459715807013396E-2    9.463197020901490E-1    2.010122180431382E-2
 2.308476129845417E6     9.463813310159593E-1    1.993588955631065E-2    5.354123169379588E-2   -2.449755462865565E-2    5.355624112415252E-2   -2.449904315905010E-2    9.464424507723450E-1    1.997486432361078E-2
 2.326089485639235E6     9.464676733410081E-1    1.980844122637708E-2    5.343099373535434E-2   -2.439762079649794E-2    5.344593315360077E-2   -2.439856331106533E-2    9.465461222210552E-1    1.986390248031756E-2
 2.343837228918507E6     9.466309894470561E-1    1.969408262579256E-2    5.332201697961742E-2   -2.429740326822702E-2    5.333781802739652E-2   -2.428966837017899E-2    9.466330882496752E-1    1.974247653211385E-2
 2.361720385041283E6     9.467256885974041E-1    1.953255497096527E-2    5.321145863138414E-2   -2.419811884837915E-2    5.323520851442255E-2   -2.418802828460374E-2    9.467545337249431E-1    1.960844256268249E-2
 2.379739987188969E6     9.468169838623269E-1    1.943211894291294E-2    5.310648471125918E-2   -2.410037700869705E-2    5.313430435929475E-2   -2.408631045936971E-2    9.468389574373344E-1    1.948542252900304E-2
 2.397897076425990E6     9.469421588844186E-1    1.928662011696969E-2    5.299772376500422E-2   -2.399605858244790E-2    5.302754046697207E-2   -2.398638906430784E-2    9.469585622220145E-1    1.934435136749802E-2
 2.416192701759947E6     9.470099316379370E-1    1.915415735136154E-2    5.288843383938314E-2   -2.389283890649941E-2    5.293021865005244E-2   -2.389137236472549E-2    9.470680344585292E-1    1.925067507513744E-2
 2.434627920202243E6     9.471570449789287E-1    1.903330736534698E-2    5.278273194477720E-2   -2.379691239841253E-2    5.282514949435468E-2   -2.378928643298846E-2    9.471416939196805E-1    1.910818223833633E-2
 2.453203796829114E6     9.472756700882665E-1    1.889228899961609E-2    5.267771744241452E-2   -2.369290078838812E-2    5.272402249998222E-2   -2.368924852260182E-2    9.472419311106921E-1    1.895420793841072E-2
 2.471921404843189E6     9.473976848535447E-1    1.876673388236107E-2    5.258053400262223E-2   -2.359098291490744E-2    5.262152476672598E-2   -2.359786432027679E-2    9.473565294851973E-1    1.884505211191485E-2
 2.490781825635486E6     9.474959227245933E-1    1.863056666130070E-2    5.247732577823930E-2   -2.349341034246395E-2    5.251911229560867E-2   -2.349838647378555E-2    9.474332715887480E-1    1.870213790929462E-2
 2.509786148847881E6     9.476094280051039E-1    1.722553741756236E-2    5.275118238075872E-2   -2.307732485034929E-2    5.236849031583546E-2   -2.391171432560061E-2    9.479252195367084E-1    1.896406718660772E-2
 2.528935472436085E6     9.477299531446676E-1    1.720460815951296E-2    5.265038364118657E-2   -2.295846313819275E-2    5.226948565935402E-2   -2.379301042231456E-2    9.479564422944685E-1    1.876388884380070E-2
 2.548230902733043E6     9.478168669932322E-1    1.720132515446526E-2    5.254710827988066E-2   -2.286728463486801E-2    5.216970605528413E-2   -2.369565742598176E-2    9.480109812543407E-1    1.854757568122381E-2
 2.567673554512876E6     9.479338762730997E-1    1.689252903174643E-2    5.244988303900708E-2   -2.276986414463987E-2    5.206627616945005E-2   -2.358788899046914E-2    9.481089807502416E-1    1.849404216255307E-2
 2.587264551055275E6     9.480614715516761E-1    1.675541062242349E-2    5.235147693614174E-2   -2.266950828836162E-2    5.198407762627439E-2   -2.348359333509987E-2    9.482433044700926E-1    1.829878329015301E-2
 2.607005024210399E6     9.480817766301293E-1    1.643482505107052E-2    5.224470410515237E-2   -2.258152112450728E-2    5.189767680636530E-2   -2.336472327095985E-2    9.483370069103948E-1    1.825129770694529E-2
 2.626896114464281E6     9.482898351525646E-1    1.655345505242466E-2    5.214548818146598E-2   -2.248777878849407E-2    5.181433990778896E-2   -2.326056365438931E-2    9.484519422187709E-1    1.825246153332236E-2
 2.646938971004693E6     9.483357208672751E-1    1.626326368590201E-2    5.205026685590546E-2   -2.239225608492134E-2    5.170806875634243E-2   -2.315923321126438E-2    9.485043285462120E-1    1.805624258347346E-2
 2.667134751787555E6     9.483677670328713E-1    1.607620939597965E-2    5.193537936432899E-2   -2.230935371397892E-2    5.162608136267713E-2   -2.305792484999936E-2    9.486447618992649E-1    1.800810377471173E-2
 2.687484623603833E6     9.485060418647469E-1    1.598733435638605E-2    5.185014857038019E-2   -2.219650603958718E-2    5.152800871314143E-2   -2.295781854264269E-2    9.487282273290777E-1    1.783376868282333E-2
 2.707989762146940E6     9.486788049470744E-1    1.610051000052267E-2    5.175540193994060E-2   -2.210747488413163E-2    5.144697925963225E-2   -2.285295524506557E-2    9.487995320527867E-1    1.762365953724492E-2
 2.728651352080688E6     9.486918041477927E-1    1.586963787459358E-2    5.165381946833153E-2   -2.201628044545884E-2    5.135526634272872E-2   -2.275173941056173E-2    9.489569984358452E-1    1.756590631998083E-2
 2.749470587107692E6     9.488270548422810E-1    1.580099894665989E-2    5.155802380162865E-2   -2.191180294020891E-2    5.126742882201225E-2   -2.264598338771453E-2    9.489815697279383E-1    1.729812304208902E-2
 2.770448670038360E6     9.489408866604004E-1    1.579461992358470E-2    5.145860127118358E-2   -2.182284965550468E-2    5.116865779966799E-2   -2.255256229157980E-2    9.490843988203388E-1    1.729034777447291E-2
 2.791586812860380E6     9.490133387323295E-1    1.545479640452216E-2    5.135149797102535E-2   -2.174308812784297E-2    5.107926379421387E-2   -2.244983307035995E-2    9.491739457510040E-1    1.707807174759310E-2
 2.812886236808732E6     9.491486320296368E-1    1.543556871424666E-2    5.126273723404184E-2   -2.163802388089734E-2    5.098400991035967E-2   -2.235018195057567E-2    9.493065423053774E-1    1.705312891336555E-2
 2.834348172436268E6     9.491191393600444E-1    1.491257555458591E-2    5.115544480424777E-2   -2.155694151806547E-2    5.089745412969858E-2   -2.224830285807826E-2    9.494497590100491E-1    1.699172642638381E-2
 2.855973859684773E6     9.491967633815446E-1    1.479724139244786E-2    5.105687854455387E-2   -2.146794054683874E-2    5.080510667408985E-2   -2.215017873803730E-2    9.494612989935377E-1    1.677474501301401E-2
 2.877764547956619E6     9.493501764148543E-1    1.473432322426475E-2    5.098116627172176E-2   -2.135850929454463E-2    5.070250896675186E-2   -2.205738781844553E-2    9.495266012660353E-1    1.649118084871940E-2
 2.899721496186967E6     9.494911416906019E-1    1.489949546233993E-2    5.087553635730953E-2   -2.126702697080242E-2    5.061733440288684E-2   -2.195428920307941E-2    9.496414722282435E-1    1.646863885044425E-2
 2.921845972916440E6     9.495588979263015E-1    1.466425373942318E-2    5.078385285700792E-2   -2.117019314519290E-2    5.052696618803459E-2   -2.185121633958097E-2    9.497379246194535E-1    1.631655335300740E-2
 2.944139256364495E6     9.496180111280220E-1    1.454193076036034E-2    5.068414674015297E-2   -2.107799961958868E-2    5.043843986433693E-2   -2.175864062074855E-2    9.498443378587913E-1    1.619146155748930E-2
 2.966602634503201E6     9.496880342371997E-1    1.432894414564967E-2    5.058283290952530E-2   -2.099207806226640E-2    5.035040705682783E-2   -2.165662235605319E-2    9.500266275230597E-1    1.626176949883728E-2
 2.989237405131679E6     9.498162144684705E-1    1.427043765374264E-2    5.048674196080518E-2   -2.090595256725271E-2    5.025073553566885E-2   -2.155369443458749E-2    9.501174939046813E-1    1.610585685909663E-2
 3.012044875951098E6     9.498226742278646E-1    1.445035744146924E-2    5.040109039108747E-2   -2.093677158279210E-2    5.025850095980308E-2   -2.123080567017600E-2    9.502418270717580E-1    1.592004202485342E-2
 3.035026364640187E6     9.499790312967997E-1    1.436173981646073E-2    5.031500482532420E-2   -2.084829845215561E-2    5.015505008179757E-2   -2.114830613453393E-2    9.502863279592668E-1    1.566743416321764E-2
 3.058183198931389E6     9.500301841064878E-1    1.426436637111256E-2    5.020998543839522E-2   -2.076286424995731E-2    5.006459927127554E-2   -2.104668514909787E-2    9.504177781477717E-1    1.556634486482994E-2
 3.081516716687564E6     9.500722778748241E-1    1.397674661009698E-2    5.012044874397524E-2   -2.065867067818946E-2    4.997451802606854E-2   -2.095241100095025E-2    9.505049212685517E-1    1.552527652246809E-2
 3.105028265979277E6     9.502519721513812E-1    1.408561336306664E-2    5.003821087771546E-2   -2.055154143541645E-2    4.989159882268100E-2   -2.085703854207709E-2    9.505985663149302E-1    1.523971660249356E-2
 3.128719205162701E6     9.503088905528766E-1    1.397311005173038E-2    4.994016559617717E-2   -2.046963441433887E-2    4.979494780640288E-2   -2.076768490670323E-2    9.506610299193012E-1    1.502511949767924E-2
 3.152590902958065E6     9.503750033763716E-1    1.359472590077320E-2    4.984353283762650E-2   -2.038655437856246E-2    4.970650026566224E-2   -2.067485711891288E-2    9.507358629115880E-1    1.485113746926502E-2
 3.176644738528751E6     9.505072548832746E-1    1.354191945759068E-2    4.975569737766086E-2   -2.028541855589359E-2    4.961297116476378E-2   -2.058165666432078E-2    9.508346194607225E-1    1.468296385316991E-2
 3.200882101560967E6     9.505687435380250E-1    1.347590853419447E-2    4.966334107625811E-2   -2.019595910148303E-2    4.952602994061265E-2   -2.049256772743853E-2    9.508785324328923E-1    1.452814390110617E-2
 3.225304392344028E6     9.506955444128472E-1    1.332087698988444E-2    4.956912185923479E-2   -2.011242306614647E-2    4.944063477010436E-2   -2.039522409398906E-2    9.510116679753920E-1    1.440780168598850E-2
 3.249913021851289E6     9.508095513550123E-1    1.322299193500032E-2    4.949513972849356E-2   -2.000578177421096E-2    4.935192328356174E-2   -2.029707839643730E-2    9.510923484327545E-1    1.441778439025784E-2
 3.274709411821612E6     9.508221477379806E-1    1.290039851753188E-2    4.940049604260431E-2   -1.992385969466692E-2    4.926803131275329E-2   -2.020175204925454E-2    9.511651403665164E-1    1.420430238376982E-2
 3.299694994841541E6     9.509109136989948E-1    1.286919465707138E-2    4.931627276703882E-2   -1.982285940175724E-2    4.917950626081195E-2   -2.011300233140674E-2    9.512247724213493E-1    1.399015691258489E-2
 3.324871214428060E6     9.510274498595185E-1    1.267202454111056E-2    4.922353102945969E-2   -1.969715913444732E-2    4.906938034467775E-2   -2.005723530539655E-2    9.513958149830890E-1    1.410433238937431E-2
 3.350239525111979E6     9.511417351869272E-1    1.258369633889804E-2    4.913825111605584E-2   -1.960001918712570E-2    4.898154910539485E-2   -1.996365851701368E-2    9.514483657898255E-1    1.390333864509840E-2
 3.375801392522001E6     9.512318082485300E-1    1.254793989830238E-2    4.905275305289638E-2   -1.951745916814050E-2    4.888812378371962E-2   -1.987758285126251E-2    9.514773785005700E-1    1.371481503094777E-2
 3.401558293469354E6     9.513081761624987E-1    1.230992111326127E-2    4.896534190067185E-2   -1.946380153694246E-2    4.882731590965964E-2   -1.974666565467716E-2    9.516092176877787E-1    1.358771996697757E-2
 3.427511716033138E6     9.514504336129530E-1    1.222229733882997E-2    4.887705623240671E-2   -1.937475217480929E-2    4.873814203722871E-2   -1.965336575301599E-2    9.516524236544501E-1    1.335104380315460E-2
 3.453663159646295E6     9.515307034584360E-1    1.218227808412620E-2    4.879492942576447E-2   -1.928213496023740E-2    4.865327762496303E-2   -1.956979526216918E-2    9.517112186983043E-1    1.317455969854494E-2
 3.480014135182226E6     9.515948109397506E-1    1.211069484497927E-2    4.870837360331531E-2   -1.918565628396005E-2    4.857257181914513E-2   -1.947782878793804E-2    9.518676540539539E-1    1.319605346245902E-2
 3.506566165042107E6     9.517263133325122E-1    1.216508480278757E-2    4.861747941543530E-2   -1.912917084708537E-2    4.850658960233868E-2   -1.936298575965735E-2    9.519621859395014E-1    1.302752952025036E-2
 3.533320783242811E6     9.518467829293477E-1    1.190410806197184E-2    4.852579158943807E-2   -1.904135663372070E-2    4.842385435906386E-2   -1.927159426419634E-2    9.521785596104456E-1    1.316866350013455E-2
 3.560279535505542E6     9.518684635675055E-1    1.172451212047741E-2    4.844578899377346E-2   -1.894703653251175E-2    4.834205348546385E-2   -1.918286637603914E-2    9.521242205762184E-1    1.279248472338011E-2
 3.587443979345170E6     9.519364657050382E-1    1.133482463618440E-2    4.835097038150662E-2   -1.887129490553496E-2    4.825650791699874E-2   -1.908142473625175E-2    9.521980331681320E-1    1.259395793511465E-2
 3.614815684160168E6     9.520197338170613E-1    1.122132239063454E-2    4.825947338526028E-2   -1.877621120581057E-2    4.817367582555147E-2   -1.899235126254918E-2    9.522753531354972E-1    1.234910420503582E-2
 3.642396231323309E6     9.521271857411919E-1    1.108649082459363E-2    4.818901109406512E-2   -1.868455925215294E-2    4.807584043389957E-2   -1.891371133424911E-2    9.523274354378433E-1    1.212333239113801E-2
 3.670187214273024E6     9.522792181733103E-1    1.071280798870310E-2    4.808160741715597E-2   -1.844253497665998E-2    4.788856663353493E-2   -1.905049603011559E-2    9.523202599059211E-1    1.214316558276019E-2
 3.698190238605455E6     9.523404925775926E-1    1.044782372878064E-2    4.799015732716723E-2   -1.835457162111880E-2    4.779580802970849E-2   -1.896694195482771E-2    9.524201836603432E-1    1.198417613027080E-2
 3.726406922167240E6     9.524648773324100E-1    1.039495740460913E-2    4.791648145636351E-2   -1.825035319036339E-2    4.772881224377417E-2   -1.887116862037664E-2    9.526089767913436E-1    1.203945170762754E-2
 3.754838895148946E6     9.525488270869092E-1    1.024807618003699E-2    4.783119427051435E-2   -1.816520736034551E-2    4.764910680880826E-2   -1.877513384939146E-2    9.527192227300599E-1    1.190349806500032E-2
 3.783487800179276E6     9.525844330806054E-1    1.008685988960267E-2    4.775695925347327E-2   -1.811780901975912E-2    4.757207527058806E-2   -1.860248117924974E-2    9.527235698404282E-1    1.155358830941739E-2
 3.812355292419964E6     9.527170175311952E-1    1.015299221969936E-2    4.768335902016647E-2   -1.801411153279253E-2    4.749267653874430E-2   -1.852328239393115E-2    9.528946101254975E-1    1.157753317267450E-2
 3.841443039661395E6     9.527455991831338E-1    9.953376853838196E-3    4.760211119505953E-2   -1.791785126037089E-2    4.740766269113144E-2   -1.842756200039667E-2    9.530544512394977E-1    1.167085601401867E-2
 3.870752722418987E6     9.528349520889069E-1    9.993811255355497E-3    4.750907789593770E-2   -1.783663080096952E-2    4.732266744487048E-2   -1.833686952053980E-2    9.530581852320339E-1    1.150983847888758E-2
 3.900286034030236E6     9.529138249320286E-1    9.915903075430783E-3    4.743328059902295E-2   -1.774361535322623E-2    4.724213580251858E-2   -1.824586051056819E-2    9.532540638802510E-1    1.147420643339056E-2
 3.930044680752580E6     9.530205064465146E-1    9.776109968148658E-3    4.735749497078549E-2   -1.764897456215847E-2    4.715508055780020E-2   -1.816309915570184E-2    9.531725039332614E-1    1.097478518716475E-2
 3.960030381861967E6     9.531021478635784E-1    9.599728987635113E-3    4.727699528891376E-2   -1.755549372259914E-2    4.707906112919157E-2   -1.807172763133095E-2    9.532851831465822E-1    1.076152917899927E-2
 3.990244869752173E6     9.531546530350172E-1    9.443923537101486E-3    4.718657839354163E-2   -1.748087898486807E-2    4.699418860214125E-2   -1.798138248273669E-2    9.533817053700183E-1    1.079905835146196E-2
 4.020689890034929E6     9.532198708381122E-1    9.523778206892259E-3    4.711900905244052E-2   -1.746635736884090E-2    4.697729576160548E-2   -1.776986534365533E-2    9.534091470464107E-1    1.038388646382965E-2
 4.051367201640718E6     9.532963705700137E-1    9.470356098035223E-3    4.702604667003452E-2   -1.739507898285910E-2    4.688743686635510E-2   -1.769248366344196E-2    9.533922007101616E-1    1.008537453688189E-2
 4.082278576920427E6     9.534348729560526E-1    9.235055673921185E-3    4.694509200524592E-2   -1.730498859984909E-2    4.681510090364609E-2   -1.759512996107767E-2    9.536054447044297E-1    1.023372350878013E-2
 4.113425801747740E6     9.534589554596246E-1    9.047196856159023E-3    4.686456883233674E-2   -1.722048065916556E-2    4.673136404582613E-2   -1.751355359483688E-2    9.536898226732494E-1    1.002193463165696E-2
 4.144810675622302E6     9.534967707209377E-1    8.862549091209196E-3    4.678315682533406E-2   -1.712666685224903E-2    4.665215303982385E-2   -1.742394687620235E-2    9.537567277423296E-1    9.881349882710876E-3
 4.176435011773718E6     9.535661144271523E-1    8.684965466586472E-3    4.671135758903316E-2   -1.703642301027634E-2    4.658562135805272E-2   -1.732420156668472E-2    9.538775526071593E-1    9.813986868610080E-3
 4.208300637266261E6     9.536455906218277E-1    8.407604479197953E-3    4.662523916556380E-2   -1.695486450210324E-2    4.649519421424601E-2   -1.724328914371577E-2    9.538756952985434E-1    9.533410615803402E-3
 4.240409393104453E6     9.537147164263047E-1    8.350290720894825E-3    4.654788286141352E-2   -1.686252362672966E-2    4.642574016769450E-2   -1.714552869278472E-2    9.540477518013921E-1    9.573566790845679E-3
 4.272763134339464E6     9.537968672276448E-1    8.269825941366840E-3    4.647453082610318E-2   -1.677516086195723E-2    4.634783590298094E-2   -1.705779493802988E-2    9.541017417049692E-1    9.426821657692000E-3
 4.305363730176185E6     9.538700805290602E-1    8.058822555151611E-3    4.639127425796190E-2   -1.669762840906599E-2    4.626516894037330E-2   -1.697314574962632E-2    9.541839991830884E-1    9.360879344852167E-3
 4.338213064081349E6     9.539479399568211E-1    7.868079742054305E-3    4.631220203862515E-2   -1.656887118975366E-2    4.616291034966787E-2   -1.692014688584522E-2    9.541735111401942E-1    9.024539840971232E-3
 4.371313033892244E6     9.540339163881372E-1    7.683185134423737E-3    4.623150920851011E-2   -1.647840859230783E-2    4.607903292405868E-2   -1.684316990560162E-2    9.543049065866855E-1    8.948621999517372E-3
 4.404665551926396E6     9.541370152331244E-1    7.645038459030491E-3    4.615708151595929E-2   -1.639290893567507E-2    4.600177949098967E-2   -1.674679791981649E-2    9.544191780562667E-1    8.896803966785327E-3
 4.438272545092077E6     9.542410518826050E-1    7.522489428023266E-3    4.607716560456541E-2   -1.630479747289098E-2    4.591957923379432E-2   -1.666991913506484E-2    9.545444637424025E-1    8.806888925037830E-3
 4.472135954999580E6     9.542809018390703E-1    7.417821162647884E-3    4.600182833275721E-2   -1.621400072070775E-2    4.585516202807331E-2   -1.656751378249330E-2    9.545645996976392E-1    8.628959772540060E-3
 4.506257738073424E6     9.543765204363703E-1    7.341596814517779E-3    4.592421874037701E-2   -1.611895322560548E-2    4.576865262576134E-2   -1.648628482102986E-2    9.546172767553498E-1    8.383608530306135E-3
 4.540639865665382E6     9.544410224632379E-1    7.223613866428136E-3    4.584832852663964E-2   -1.607647920094859E-2    4.572064454437651E-2   -1.635722848344809E-2    9.547240760275987E-1    8.116500019988860E-3
 4.575284324168356E6     9.545722942781733E-1    7.073952851725822E-3    4.577431672088909E-2   -1.599012033941359E-2    4.565154005851210E-2   -1.626619600299410E-2    9.549241215474495E-1    8.314345469776729E-3
 4.610193115131186E6     9.546227009438688E-1    6.785320011099885E-3    4.567832644152257E-2   -1.581764053968138E-2    4.551248295193488E-2   -1.630531917525846E-2    9.549783497940786E-1    8.203422689194877E-3
 4.645368255374223E6     9.546583587341375E-1    6.635263877425993E-3    4.559901740847074E-2   -1.572682351494769E-2    4.542940469057133E-2   -1.622788335444784E-2    9.549168787871655E-1    7.836307908378241E-3
 4.680811777105891E6     9.547169791682462E-1    6.447642341114041E-3    4.552543051929784E-2   -1.564211751310859E-2    4.534864531823968E-2   -1.614194275857895E-2    9.550090623452306E-1    7.697273786207023E-3
 4.716525728040087E6     9.547829136542092E-1    6.264727026666822E-3    4.545025390498918E-2   -1.555738323009518E-2    4.528305944160246E-2   -1.605340306870276E-2    9.551166146846770E-1    7.648131725285967E-3
 4.752512171514469E6     9.549249695122169E-1    6.127758830755402E-3    4.537597752735723E-2   -1.546355418666708E-2    4.520678453317856E-2   -1.596569821781210E-2    9.552129504994294E-1    7.713165566796068E-3
 4.788773186609713E6     9.549442130991763E-1    5.996973438720317E-3    4.530314542742721E-2   -1.537846602743763E-2    4.512672514075169E-2   -1.588460600319897E-2    9.552315262720361E-1    7.281060026894508E-3
 4.825310868269563E6     9.550488415700835E-1    5.742821996702884E-3    4.521483299575781E-2   -1.525450790821669E-2    4.504136804320710E-2   -1.588888074913859E-2    9.552748852616624E-1    7.224203551960756E-3
 4.862127327421905E6     9.551469088131236E-1    5.588103311031122E-3    4.514614616991122E-2   -1.516297643553194E-2    4.497296370189621E-2   -1.579255831586578E-2    9.554224050813186E-1    7.322239927628232E-3
 4.899224691100715E6     9.552019870426736E-1    5.424493739212632E-3    4.506387915791540E-2   -1.507639512687411E-2    4.489309157394464E-2   -1.571590236739978E-2    9.554723044736241E-1    6.998882466279289E-3
 4.936605102568937E6     9.553004402819174E-1    5.318045311891284E-3    4.499826614196374E-2   -1.497890857687885E-2    4.482564776591272E-2   -1.561851840286492E-2    9.555056764522389E-1    6.909819263498334E-3
 4.974270721442348E6     9.553314717325211E-1    5.191647358632472E-3    4.492217774448966E-2   -1.489218827073305E-2    4.475657134010913E-2   -1.553079556948866E-2    9.555254903727610E-1    6.550156549213584E-3
 5.012223723814265E6     9.554391824854669E-1    5.070819403223290E-3    4.485158905217315E-2   -1.480138080857999E-2    4.467279113190343E-2   -1.545571605961583E-2    9.555703858589154E-1    6.224001257801418E-3
 5.050466302381308E6     9.554956725808911E-1    4.883987004675928E-3    4.477686828242636E-2   -1.471654005085146E-2    4.460137537585978E-2   -1.537192431150585E-2    9.556757160388777E-1    6.153942036100672E-3
 5.089000666570071E6     9.555360208779859E-1    4.689957054510719E-3    4.470623145596497E-2   -1.462526258962374E-2    4.453422659368076E-2   -1.527923820457961E-2    9.557818639223220E-1    6.194963755682598E-3
 5.127829042664761E6     9.556031868254374E-1    4.567755818325483E-3    4.464482427810400E-2   -1.453652326215646E-2    4.446153135855632E-2   -1.519558955646309E-2    9.558822598475915E-1    6.042057444946916E-3
 5.166953673935857E6     9.556299942414201E-1    4.396122521600532E-3    4.456287959152274E-2   -1.444693032428388E-2    4.438878516667018E-2   -1.510915423902992E-2    9.559254915899127E-1    5.911760289462178E-3
 5.206376820769652E6     9.557334442927353E-1    4.283757863931204E-3    4.449165773986318E-2   -1.436696955452395E-2    4.431495273086258E-2   -1.503015096071108E-2    9.559079632786319E-1    5.406360280390771E-3
 5.246100760798878E6     9.558478906946347E-1    4.136942870842853E-3    4.440958161267166E-2   -1.429233741581792E-2    4.423531747238112E-2   -1.495769396344014E-2    9.560086355728816E-1    5.292306246816802E-3
 5.286127789034322E6     9.559634301075440E-1    4.005313649314046E-3    4.434171519481699E-2   -1.420039311148149E-2    4.416656699939852E-2   -1.486042864654807E-2    9.561236497500186E-1    5.495764747916843E-3
 5.326460217997355E6     9.559919631499024E-1    4.263681778484945E-3    4.430947198265857E-2   -1.428780709991127E-2    4.422351515522879E-2   -1.449346610398989E-2    9.562627550079096E-1    5.001379045962449E-3
 5.367100377853584E6     9.560343503997283E-1    4.074006354246783E-3    4.423003861051417E-2   -1.420209729051433E-2    4.414999370185649E-2   -1.440615668671126E-2    9.563361753839417E-1    4.820335431279618E-3
 5.408050616547454E6     9.560812104119703E-1    3.927830351342007E-3    4.416117179670035E-2   -1.411361839785278E-2    4.407844976931227E-2   -1.433505816207779E-2    9.563915500319456E-1    4.711004367383044E-3
 5.449313299937895E6     9.561102510544135E-1    3.738962792672958E-3    4.409414360591513E-2   -1.402214768256484E-2    4.401288537516062E-2   -1.423749005336783E-2    9.565446117931332E-1    4.907238537535792E-3
 5.490890811935049E6     9.561751631075599E-1    3.233349414919722E-3    4.399169809763432E-2   -1.376153363443226E-2    4.382037956872476E-2   -1.442869330313019E-2    9.564733164078763E-1    4.729243376780150E-3
 5.532785554637930E6     9.562476915134493E-1    3.064629229628051E-3    4.391722121308823E-2   -1.367802593205796E-2    4.375402298847976E-2   -1.433103558477562E-2    9.565571782317054E-1    4.806515378447907E-3
 5.574999948473252E6     9.563578687602731E-1    3.256665091269261E-3    4.388548159512384E-2   -1.375175785173130E-2    4.380171042542882E-2   -1.398058458127492E-2    9.566882698530519E-1    4.211483504695605E-3
 5.617536432335250E6     9.564054227338443E-1    3.108882965299852E-3    4.381148729912541E-2   -1.367660830191331E-2    4.373362082436763E-2   -1.388772958182494E-2    9.567149968557708E-1    4.049697234543992E-3
 5.660397463726575E6     9.564758444361613E-1    2.968235857227017E-3    4.374472401282885E-2   -1.359210955070884E-2    4.366470904119943E-2   -1.380452648467572E-2    9.567538062378580E-1    3.774714521087404E-3
 5.703585518900323E6     9.565773958590619E-1    2.419673051038302E-3    4.364448385005409E-2   -1.332644407969786E-2    4.348071828759747E-2   -1.399889741388767E-2    9.567645129071728E-1    3.768991942298855E-3
 5.747103093003022E6     9.566775611733446E-1    2.267756013214130E-3    4.357000918232908E-2   -1.324865664154647E-2    4.340869384287901E-2   -1.391893178970435E-2    9.568748755886802E-1    3.453422994556022E-3
 5.790952700218840E6     9.567036559867587E-1    2.102073849710603E-3    4.350122647664936E-2   -1.316654862264370E-2    4.334161733353078E-2   -1.383562580372698E-2    9.568893979846484E-1    3.279069558350540E-3
 5.835136873914825E6     9.567575044104394E-1    2.320038167003813E-3    4.347325503038977E-2   -1.324541823605346E-2    4.339444717754422E-2   -1.345985464072122E-2    9.570390071954162E-1    3.127843603195931E-3
 5.879658166787256E6     9.568321370308445E-1    2.191758450326369E-3    4.339972549678582E-2   -1.316105722351704E-2    4.333008594684697E-2   -1.336339173758401E-2    9.570824589587917E-1    3.038619967430494E-3
 5.924519151009166E6     9.568178438134219E-1    2.012504411254235E-3    4.332811433358073E-2   -1.307700270039916E-2    4.326778883471891E-2   -1.327420486128054E-2    9.572204267874601E-1    3.047928982726335E-3
 5.969722418378883E6     9.568605631410277E-1    1.847041783698071E-3    4.326540037752771E-2   -1.299160670833690E-2    4.319795175575229E-2   -1.319430705440431E-2    9.572636460328785E-1    2.785956251313764E-3
 6.015270580469812E6     9.569801145243086E-1    1.670105769324365E-3    4.319927521233211E-2   -1.290284921804710E-2    4.312787118468348E-2   -1.310804724495592E-2    9.572030583965538E-1    2.384540223353330E-3
 6.061166268781302E6     9.570411515644868E-1    1.517260751699154E-3    4.313243080764439E-2   -1.282425079129009E-2    4.306411106537729E-2   -1.301531220010505E-2    9.573399361353512E-1    2.176326492878613E-3
 6.107412134890671E6     9.570652274244918E-1    1.321237653091895E-3    4.306494940610956E-2   -1.271346445979475E-2    4.297715245895105E-2   -1.294564896130443E-2    9.574058526260176E-1    2.030794432287647E-3
 6.154010850606443E6     9.571596126010027E-1    1.138105943317032E-3    4.299578687198598E-2   -1.262675518309790E-2    4.291291091295142E-2   -1.284907348918575E-2    9.574314318284829E-1    2.062751337462176E-3
 6.200965108122637E6     9.572363041506814E-1    9.654903048954081E-4    4.293358652517636E-2   -1.254205539402187E-2    4.284577277924415E-2   -1.276503788987785E-2    9.574970018633385E-1    1.758822884306303E-3
 6.248277620174343E6     9.572737806621666E-1    7.844223416496934E-4    4.286339006048220E-2   -1.246031063514527E-2    4.278302080819965E-2   -1.267623126030439E-2    9.575780568421085E-1    1.570410279513960E-3
 6.295951120194497E6     9.573642660592095E-1    6.478719791524441E-4    4.280371259122074E-2   -1.236244164576351E-2    4.271861191586586E-2   -1.259009391626767E-2    9.576339953544001E-1    1.394345739210561E-3
 6.343988362471664E6     9.574541342004553E-1    5.109226917732333E-4    4.273714508624016E-2   -1.230681916244745E-2    4.267477627733701E-2   -1.248320680737812E-2    9.576530263558010E-1    1.268680680018293E-3
 6.392392122309345E6     9.575074393119017E-1    3.079455986408057E-4    4.267410641471254E-2   -1.222362755039552E-2    4.261135618994578E-2   -1.239797231255487E-2    9.577184159335580E-1    1.031952659452077E-3
 6.441165196186168E6     9.575595123295126E-1    1.428584676959611E-4    4.260650344549585E-2   -1.214589843876335E-2    4.254493650505938E-2   -1.230836671508771E-2    9.578037037415851E-1    9.215973435731708E-4
 6.490310401917514E6     9.576529440825055E-1   -4.055424024177457E-5    4.254314458070279E-2   -1.205657202947783E-2    4.248669865843352E-2   -1.221759951163011E-2    9.578798321798495E-1    8.003867563566741E-4
 6.539830578818345E6     9.577207817148574E-1   -2.040243945296466E-4    4.247931884888852E-2   -1.197184267587100E-2    4.242480107277648E-2   -1.212638661350946E-2    9.579124035100250E-1    7.007201852174350E-4
 6.589728587867169E6     9.577249393852746E-1   -3.708745126859723E-4    4.241712011243121E-2   -1.187688855601552E-2    4.236188029854118E-2   -1.204180036393836E-2    9.579824478941250E-1    4.744472949468930E-4
 6.640007311871376E6     9.578114542008722E-1   -5.471306944331921E-4    4.235241481188503E-2   -1.179392300083937E-2    4.229234796943110E-2   -1.196407487303490E-2    9.580503568474654E-1    6.877393607420453E-5
 6.690669655633785E6     9.578372378775506E-1   -7.353480087451324E-4    4.229171267439302E-2   -1.170684669324283E-2    4.222922522933976E-2   -1.187155458587936E-2    9.581031405962159E-1   -1.656106837827097E-5
 6.741718546120445E6     9.578445599148842E-1   -8.875129876101900E-4    4.222560776393419E-2   -1.161608247724357E-2    4.217028029288460E-2   -1.178556691385611E-2    9.581292057620120E-1   -2.439190098021300E-4
 6.793156932629797E6     9.579428030607605E-1   -1.085261798340347E-3    4.216892851373420E-2   -1.153338025096298E-2    4.210937719463197E-2   -1.169883702115059E-2    9.582088427840332E-1   -4.048082502216721E-4
 6.844987786962981E6     9.579709554962224E-1   -1.244837878061651E-3    4.210271392989402E-2   -1.144588113438119E-2    4.204482159056789E-2   -1.161158634463646E-2    9.582425517088055E-1   -6.212696614068766E-4
 6.897214103595586E6     9.579786057167048E-1   -1.533976933449605E-3    4.203341703124439E-2   -1.130402257671733E-2    4.193335862759525E-2   -1.157732027839571E-2    9.583120399626311E-1   -8.669755236608015E-4
 6.949838899850640E6     9.580219801518753E-1   -1.704845447619234E-3    4.197093538108557E-2   -1.121865421022049E-2    4.187031993037822E-2   -1.149005534932423E-2    9.583996521220102E-1   -1.034437311499105E-3
 7.002865216072913E6     9.580940967065024E-1   -2.138507034114419E-3    4.189077430507843E-2   -1.104672512851874E-2    4.175038308198065E-2   -1.156144619908899E-2    9.584588988204029E-1   -1.259494786649424E-3
 7.056296115804635E6     9.581775198014745E-1   -2.313230391915818E-3    4.182985433117898E-2   -1.096386121264078E-2    4.169316555947646E-2   -1.147652530317058E-2    9.584996819434185E-1   -1.451867250706931E-3
 7.110134685962399E6     9.582444555181263E-1   -2.500822959920754E-3    4.176995260593820E-2   -1.087224770251527E-2    4.162629263259692E-2   -1.139078150234300E-2    9.584996523602729E-1   -1.735905540801250E-3
 7.164384037015557E6     9.583382629827506E-1   -2.706188747767476E-3    4.170996780415688E-2   -1.078397422578551E-2    4.156548358683246E-2   -1.130320428516772E-2    9.585996039342498E-1   -1.879027326002110E-3
 7.219047303165923E6     9.583899874511097E-1   -2.887368887314162E-3    4.164496025109491E-2   -1.069845003340293E-2    4.150892458332893E-2   -1.121431435737128E-2    9.586737905870756E-1   -2.071010009062274E-3
 7.274127642528819E6     9.584856234516839E-1   -3.076545775619223E-3    4.158312356986883E-2   -1.060879982071340E-2    4.144658258462833E-2   -1.112224473342204E-2    9.587397701864703E-1   -2.223075901738403E-3
 7.329628237315600E6     9.585836764184338E-1   -3.384892673633324E-3    4.150866044145191E-2   -1.048605590404140E-2    4.138072047259608E-2   -1.113947013205795E-2    9.588365391529108E-1   -2.427450442748288E-3
 7.385552294017412E6     9.585633190081100E-1   -3.547765129535649E-3    4.144726293406899E-2   -1.040468542161159E-2    4.132208148013947E-2   -1.104913866032292E-2    9.588495988827003E-1   -2.644179691959434E-3
 7.441903043590503E6     9.586475584301344E-1   -3.349334817529085E-3    4.142833528806607E-2   -1.046754452714824E-2    4.135675409328962E-2   -1.066517385804570E-2    9.589671930293909E-1   -2.857594990022715E-3
 7.498683741642874E6     9.587196900748249E-1   -3.520860822463014E-3    4.137286949874547E-2   -1.038285171675622E-2    4.129311140933875E-2   -1.058012807606075E-2    9.590102796231842E-1   -3.053456737753635E-3
 7.555897668622349E6     9.587591307822290E-1   -4.015439431072591E-3    4.128720435121798E-2   -1.017853307280121E-2    4.115482966587766E-2   -1.068824832117915E-2    9.590411375411458E-1   -3.220245990808261E-3
 7.613548130006171E6     9.588125374997875E-1   -4.219641011595108E-3    4.122516308504198E-2   -1.008934340870674E-2    4.109596361778716E-2   -1.059884110922608E-2    9.591453938106419E-1   -3.419530281370676E-3
 7.671638456491867E6     9.590160753578406E-1   -4.649635542049889E-3    4.111954431321612E-2   -9.929978443456267E-3    4.106464681883904E-2   -1.077043892273490E-2    9.591398943057855E-1   -3.606257461392777E-3
 7.730172004189732E6     9.591127112638304E-1   -4.858210049731728E-3    4.106239521621286E-2   -9.843111371329852E-3    4.101008250157880E-2   -1.068350134384135E-2    9.591865918497043E-1   -3.802319093695090E-3
 7.789152154816771E6     9.591907795363878E-1   -5.048895812971704E-3    4.100187874204959E-2   -9.760038889091344E-3    4.095460038970992E-2   -1.059274397824314E-2    9.592692996208845E-1   -3.992381642144934E-3
 7.848582315891974E6     9.590417905360487E-1   -4.999616155882918E-3    4.099188928531905E-2   -9.747553060687289E-3    4.086419495510867E-2   -1.024503005440603E-2    9.593489997398913E-1   -4.191480544462767E-3
 7.908465920933248E6     9.590804106202301E-1   -5.233786433157567E-3    4.093438224702232E-2   -9.665184942374162E-3    4.080863176855652E-2   -1.015681983418453E-2    9.594178034957069E-1   -4.387731625840317E-3
 7.968806429655775E6     9.591899819914208E-1   -5.455636417905097E-3    4.087369224696565E-2   -9.580685127063660E-3    4.075356606613589E-2   -1.006796268419668E-2    9.594501415685927E-1   -4.588086923180691E-3
 8.029607328171868E6     9.592410938694650E-1   -5.619086485078413E-3    4.081710387679083E-2   -9.494122413770933E-3    4.069503423929428E-2   -9.978559756587067E-3    9.594814878612349E-1   -4.771139377639418E-3
 8.090872129192449E6     9.592819687227004E-1   -5.800720375075391E-3    4.075980792499363E-2   -9.410724835462115E-3    4.063839527952492E-2   -9.888990558922634E-3    9.595426799464212E-1   -4.983278223530333E-3
 8.152604372229892E6     9.592796589905920E-1   -6.016506143212111E-3    4.070264331487810E-2   -9.324642850873659E-3    4.058243525663491E-2   -9.799601968544531E-3    9.595772945356896E-1   -5.195423480891464E-3
 8.214807623802581E6     9.593422162245129E-1   -6.206898138030937E-3    4.065114814619657E-2   -9.233795752241765E-3    4.052765632507271E-2   -9.713031650788720E-3    9.596609121053721E-1   -5.389503581382213E-3
 8.277485477640945E6     9.593919253614813E-1   -6.417045739894210E-3    4.059207410251167E-2   -9.142221727771665E-3    4.047514218499287E-2   -9.623776560801746E-3    9.596751835160958E-1   -5.593717271040442E-3
 8.340641554895067E6     9.594425019055988E-1   -6.627163022477293E-3    4.053347959514800E-2   -9.053506845901227E-3    4.042117615008531E-2   -9.532841616106758E-3    9.597581319447930E-1   -5.787467963831632E-3
 8.404279504343957E6     9.595333313629874E-1   -6.831378945868122E-3    4.047797449142674E-2   -8.963880728857242E-3    4.036084364817939E-2   -9.439101071828765E-3    9.597868178461814E-1   -5.978152275807969E-3
 8.468403002606256E6     9.595808036333714E-1   -7.043512096791155E-3    4.042335164146525E-2   -8.872376662942445E-3    4.030801830104024E-2   -9.350456996057044E-3    9.598575958817422E-1   -6.212844240081463E-3
 8.533015754352720E6     9.596322907507688E-1   -7.119030947493305E-3    4.039101524880429E-2   -8.826826955586366E-3    4.028091241518739E-2   -9.154702398318209E-3    9.599366288516008E-1   -6.447751541577080E-3
 8.598121492520234E6     9.596526037369519E-1   -7.314862902433031E-3    4.033365981824745E-2   -8.735585109941180E-3    4.022619251511858E-2   -9.064248434878783E-3    9.599988399079122E-1   -6.627019187681862E-3
 8.663723978527457E6     9.599247282414765E-1   -7.948325634695880E-3    4.020900462353887E-2   -8.529180362754995E-3    4.018434044500220E-2   -9.353619262549068E-3    9.600671236749704E-1   -6.809593010517331E-3
 8.729827002492212E6     9.599703235216568E-1   -8.140301803536488E-3    4.015297818052394E-2   -8.439945075240471E-3    4.012936653419287E-2   -9.267052336521031E-3    9.600936374554567E-1   -7.029074207232968E-3
 8.796434383450346E6     9.600711904066795E-1   -8.400196282980542E-3    4.010285164316681E-2   -8.354110383185889E-3    4.007917693418851E-2   -9.177244546530915E-3    9.601777008133294E-1   -7.243768952821445E-3
 8.863549969576446E6     9.600158169781600E-1   -8.471544104539139E-3    4.008034927111750E-2   -8.303245590302540E-3    3.998811997729191E-2   -8.923687833862741E-3    9.602447079533631E-1   -7.456678213908706E-3
 8.931177638406139E6     9.600359262089058E-1   -8.694627682700882E-3    4.001996110091151E-2   -8.213304225183148E-3    3.993179015559909E-2   -8.833586940361725E-3    9.603010424193448E-1   -7.642490702219287E-3
 8.999321297060097E6     9.600762955433154E-1   -8.921283695335798E-3    3.997027461631029E-2   -8.128089520901466E-3    3.987920162452550E-2   -8.743135897539963E-3    9.603399965782541E-1   -7.900296610196837E-3
 9.067984882469844E6     9.601276694112723E-1   -9.134603493904079E-3    3.991913040093002E-2   -8.042681439719306E-3    3.982735226754353E-2   -8.651230041858469E-3    9.603916916082678E-1   -8.094559673041497E-3
 9.137172361605095E6     9.601658213658260E-1   -9.376272032298577E-3    3.986433978033569E-2   -7.957668673052377E-3    3.977145093065850E-2   -8.560413900322862E-3    9.604519840201581E-1   -8.295087282287278E-3
 9.206887731702998E6     9.601814238959795E-1   -9.225653235180547E-3    3.985872298944267E-2   -7.976429835188332E-3    3.977302705575243E-2   -8.185484585109055E-3    9.605365368837843E-1   -8.581144792720324E-3
 9.277135020499127E6     9.602579240395875E-1   -9.490108562512227E-3    3.980455729703014E-2   -7.892137444143217E-3    3.972582107491381E-2   -8.092522633843535E-3    9.606554840324787E-1   -8.795852586649748E-3
 9.347918286460072E6     9.603163994603565E-1   -9.676759745449156E-3    3.975684006070229E-2   -7.801347834852442E-3    3.967336335234554E-2   -8.000942991179937E-3    9.606517900729885E-1   -8.989138126251742E-3
 9.419241619017981E6     9.603689193998275E-1   -9.923616303659111E-3    3.970382140341802E-2   -7.716598802934575E-3    3.962129807612930E-2   -7.911724941108783E-3    9.607442571409994E-1   -9.238000442212332E-3
 9.491109138806809E6     9.603539112906594E-1   -1.015183516404376E-2    3.965037420699084E-2   -7.629140655860598E-3    3.956805069536940E-2   -7.817918983074601E-3    9.607397968873344E-1   -9.460588360305991E-3
 9.563524997900363E6     9.604197446086593E-1   -1.039679047685275E-2    3.959869958045319E-2   -7.543662890231509E-3    3.951742473034429E-2   -7.723063086564377E-3    9.607641789762702E-1   -9.672112881420303E-3
 9.636493380052259E6     9.604411355164141E-1   -1.059299005170159E-2    3.954639484172579E-2   -7.454439452914889E-3    3.946939517015388E-2   -7.632861661579888E-3    9.608679294406982E-1   -9.904956264703359E-3
 9.710018500937525E6     9.605131567817699E-1   -1.082980642847010E-2    3.949846697889102E-2   -7.367880894139560E-3    3.941475334948745E-2   -7.538995407265286E-3    9.608591211276699E-1   -1.012812249476298E-2
 9.784104608396223E6     9.605914202818510E-1   -1.130117377367655E-2    3.941375720943466E-2   -7.198198867569722E-3    3.931496220662750E-2   -7.627837333629353E-3    9.608876583103009E-1   -1.029375885980007E-2
 9.858755982678859E6     9.606234035582554E-1   -1.152716724319172E-2    3.936226990995496E-2   -7.104195024863565E-3    3.926449843998429E-2   -7.534551610658691E-3    9.609015922280125E-1   -1.053185539554773E-2
 9.933976936693633E6     9.606740498981184E-1   -1.176823845207543E-2    3.931171669791192E-2   -7.010969487196123E-3    3.921700102413161E-2   -7.442388337839840E-3    9.609641768754783E-1   -1.073071051282485E-2
 1.000977181625571E7     9.607288351414704E-1   -1.201210020806733E-2    3.926028986702886E-2   -6.921314606786886E-3    3.916870641485106E-2   -7.351882138874792E-3    9.610337223340173E-1   -1.095677247097327E-2
 1.008614500033817E7     9.607831758868883E-1   -1.222268012906430E-2    3.920801384143247E-2   -6.825903557226383E-3    3.911770268473773E-2   -7.256906038966606E-3    9.610479477421386E-1   -1.118254527136536E-2
 1.016310090132507E7     9.608725747887081E-1   -1.246067128178815E-2    3.916139834644749E-2   -6.736489122616687E-3    3.906832504485747E-2   -7.162687190887710E-3    9.610956781778258E-1   -1.141410730428834E-2
 1.024064396526634E7     9.608225811092345E-1   -1.247746413201032E-2    3.913988634455173E-2   -6.717159519613229E-3    3.906917412383904E-2   -6.887349390073164E-3    9.610908132507160E-1   -1.170598342069539E-2
 1.031877867213467E7     9.609104446188890E-1   -1.270413881590903E-2    3.908854051424384E-2   -6.628303223695384E-3    3.901938824812178E-2   -6.789814275337310E-3    9.611371574015264E-1   -1.196489691097611E-2
 1.039750953608436E7     9.609433734101789E-1   -1.294287092629424E-2    3.903825962740735E-2   -6.538516339107322E-3    3.897171359456342E-2   -6.699056424758298E-3    9.612518875776861E-1   -1.217402316215165E-2
 1.047684110571204E7     9.609844168757782E-1   -1.315016421977656E-2    3.898896006669143E-2   -6.445640070027283E-3    3.892360731516656E-2   -6.601212507567115E-3    9.612841284040891E-1   -1.241450451771681E-2
 1.055677796431950E7     9.610348497223667E-1   -1.340805512510336E-2    3.894164938938125E-2   -6.346770843304920E-3    3.887722728640458E-2   -6.505031096202858E-3    9.613376982945631E-1   -1.264710931948958E-2
 1.063732473017859E7     9.612752592062817E-1   -1.412772959119107E-2    3.880584409561292E-2   -6.102012671801163E-3    3.883569674705847E-2   -6.879780992264428E-3    9.613417184881090E-1   -1.282381444173457E-2
 1.071848605679777E7     9.613217934902223E-1   -1.441340569330163E-2    3.875734895962817E-2   -5.996770434958516E-3    3.878988128827773E-2   -6.787290039831478E-3    9.613444817315918E-1   -1.306502752468617E-2
 1.080026663319129E7     9.612553742481937E-1   -1.457350897236167E-2    3.874540813194587E-2   -5.916673520747368E-3    3.869263499560703E-2   -6.518529785645961E-3    9.614493020098127E-1   -1.330237763188315E-2
 1.088267118414987E7     9.613341148950504E-1   -1.485568404640846E-2    3.869996408724954E-2   -5.793594294918066E-3    3.864683589962317E-2   -6.421983354800711E-3    9.614886325012987E-1   -1.353401298106480E-2
 1.096570447051370E7     9.614727492282581E-1   -1.525020691440456E-2    3.861783385873538E-2   -5.667663104548108E-3    3.865199666966578E-2   -6.499192832389718E-3    9.614931361774740E-1   -1.380972357731757E-2
 1.104937128944762E7     9.615139587612439E-1   -1.549770581727633E-2    3.857128727780612E-2   -5.562716033467149E-3    3.860739780835436E-2   -6.405901315479034E-3    9.615719334384938E-1   -1.404097525238804E-2
 1.113367647471805E7     9.615663649218064E-1   -1.572986090514206E-2    3.852663848769917E-2   -5.454283476376829E-3    3.856237492556144E-2   -6.311790741683773E-3    9.616123727423749E-1   -1.427566278093561E-2
 1.121862489697252E7     9.614583864083424E-1   -1.532610140446073E-2    3.858944167342882E-2   -5.548546659563844E-3    3.857769928088763E-2   -5.641583290691486E-3    9.617170099451955E-1   -1.463246846529415E-2
 1.130422146402085E7     9.614950790103303E-1   -1.554481213099440E-2    3.854349602319532E-2   -5.442768295688002E-3    3.852850388802269E-2   -5.546108297476057E-3    9.617318338451178E-1   -1.492500486283977E-2
 1.139047112111875E7     9.615384386121671E-1   -1.580519903874734E-2    3.849730417555010E-2   -5.341162607894931E-3    3.848492067842527E-2   -5.448127072993671E-3    9.617492767910973E-1   -1.514615656658337E-2
 1.147737885125368E7     9.615813617276787E-1   -1.605853869840760E-2    3.845412471976420E-2   -5.235016636463312E-3    3.843791563348189E-2   -5.345850756984693E-3    9.618618675084539E-1   -1.538726659505119E-2
 1.156494967543242E7     9.616207010433152E-1   -1.632672347561636E-2    3.840982192843521E-2   -5.134500936205130E-3    3.839319046272146E-2   -5.248928122236104E-3    9.618406651687712E-1   -1.563643720280006E-2
 1.165318865297152E7     9.616220029381602E-1   -1.665718440249615E-2    3.836003430510120E-2   -5.009162449481676E-3    3.832904241879326E-2   -5.166128090453198E-3    9.618637598159349E-1   -1.587763238654684E-2
 1.174210088178934E7     9.618982354488647E-1   -1.746652752306142E-2    3.820769511621969E-2   -4.730884985611189E-3    3.825564441585402E-2   -5.631455064179946E-3    9.619233397972056E-1   -1.604079226932052E-2
 1.183169149870061E7     9.619137760322077E-1   -1.775834880127861E-2    3.816389999028608E-2   -4.630501979642653E-3    3.821304864008817E-2   -5.534734521977293E-3    9.619780565375925E-1   -1.627732446332037E-2
 1.192196567971337E7     9.619611373519277E-1   -1.801234957705626E-2    3.811944896196955E-2   -4.531356734707123E-3    3.817092904279363E-2   -5.441450108834111E-3    9.620180766491485E-1   -1.652959217032494E-2
 1.201292864032780E7     9.620230520529953E-1   -1.826551682392871E-2    3.807363919275156E-2   -4.432155148020718E-3    3.812948114758317E-2   -5.342184012375598E-3    9.620438168133707E-1   -1.678941391446293E-2
 1.210458563583766E7     9.620327836321901E-1   -1.851368514788863E-2    3.802811543518825E-2   -4.330972846220344E-3    3.808746798337997E-2   -5.243278961976791E-3    9.620836722508925E-1   -1.708850990633282E-2
 1.219694196163385E7     9.620491537802700E-1   -1.879812149976714E-2    3.798378728467982E-2   -4.231575881612204E-3    3.804428482534365E-2   -5.144264772248158E-3    9.621175767239947E-1   -1.734773247106212E-2
 1.229000295351040E7     9.618874604207202E-1   -1.869103638067788E-2    3.802218137816591E-2   -4.216200359221055E-3    3.795206512759934E-2   -4.623454644765699E-3    9.621618368965585E-1   -1.766048570686552E-2
 1.238377398797275E7     9.619709955356890E-1   -1.896956097205258E-2    3.798171670105455E-2   -4.115998270015475E-3    3.790783309344761E-2   -4.521617818667469E-3    9.622304071836907E-1   -1.791945391551499E-2
 1.247826048254829E7     9.620119793379805E-1   -1.923983589270109E-2    3.794186076123890E-2   -4.014372235044501E-3    3.786634188534722E-2   -4.420933783267508E-3    9.622604720425733E-1   -1.815717492263688E-2
 1.257346789609938E7     9.621492031346588E-1   -1.922355198371470E-2    3.793720488780140E-2   -4.034026237914302E-3    3.793403287152741E-2   -4.138136938474443E-3    9.622813077759297E-1   -1.855887666438531E-2
 1.266940172913885E7     9.621605361425483E-1   -1.947923012422124E-2    3.789665856499533E-2   -3.929343194696530E-3    3.789239416755184E-2   -4.033894790734939E-3    9.623278758799971E-1   -1.882473928664763E-2
 1.276606752414753E7     9.621677390049762E-1   -1.975844928361504E-2    3.785370541873573E-2   -3.827410174252855E-3    3.785038488073558E-2   -3.928699829174393E-3    9.623641959423064E-1   -1.910351327096843E-2
 1.286347086589479E7     9.622268216404785E-1   -2.006187573251314E-2    3.781469161470653E-2   -3.728060075978935E-3    3.780882072070459E-2   -3.828474379572866E-3    9.623581965148927E-1   -1.940232008262306E-2
 1.296161738176090E7     9.622432709537470E-1   -2.036075665728077E-2    3.777277380996590E-2   -3.623270419050067E-3    3.776824436780656E-2   -3.723931670307374E-3    9.623735376100320E-1   -1.966981048026966E-2
 1.306051274206230E7     9.622904057717487E-1   -2.061960551015623E-2    3.773165386917330E-2   -3.520639749586984E-3    3.772976294614457E-2   -3.623500660715324E-3    9.624255850045118E-1   -1.996701597300513E-2
 1.316016266037924E7     9.623070689406025E-1   -2.091467597761258E-2    3.769003384194720E-2   -3.415653031572080E-3    3.769096159790900E-2   -3.518516218080849E-3    9.624978417554428E-1   -2.020626367055774E-2
 1.326057289388563E7     9.623552246829362E-1   -2.129231291747803E-2    3.764274326691554E-2   -3.270261062676325E-3    3.761225710684588E-2   -3.449810973169055E-3    9.625677033449280E-1   -2.046044659095487E-2
 1.336174924368203E7     9.623422873967955E-1   -2.158075389270952E-2    3.760128954795446E-2   -3.166700339724824E-3    3.757110272592493E-2   -3.345415339070188E-3    9.625830487067767E-1   -2.074243847730307E-2
 1.346369755513046E7     9.623931139518177E-1   -2.180695643491496E-2    3.756933859526079E-2   -3.104524428066620E-3    3.757082846769141E-2   -3.206194721991939E-3    9.626022644115340E-1   -2.105690406879621E-2
 1.356642371819227E7     9.624605863431746E-1   -2.210029928798509E-2    3.753081535213121E-2   -3.000742756624010E-3    3.753169201380108E-2   -3.102777634624843E-3    9.626287519460970E-1   -2.136411074122012E-2
 1.366993366776852E7     9.625210091131369E-1   -2.239693951875877E-2    3.749276974347877E-2   -2.893049172535399E-3    3.748990387382973E-2   -2.995686394623730E-3    9.626634702606188E-1   -2.165418456646168E-2
 1.377423338404255E7     9.625637938647584E-1   -2.265953349522991E-2    3.745558508174274E-2   -2.786019596928071E-3    3.745016091216669E-2   -2.891704755795196E-3    9.626869146497917E-1   -2.193275869881042E-2
 1.387932889282586E7     9.625710907130587E-1   -2.338548910503557E-2    3.734028245055192E-2   -2.531621017618038E-3    3.729423577449286E-2   -3.112601677845897E-3    9.627461743840099E-1   -2.213534093217824E-2
 1.398522626590596E7     9.627912660468364E-1   -2.394827754750387E-2    3.723961293857731E-2   -2.383834085245943E-3    3.734075081286523E-2   -3.310612004840709E-3    9.627885489779520E-1   -2.239171801763834E-2
 1.409193162139728E7     9.628268225746789E-1   -2.423766227565545E-2    3.720276781416015E-2   -2.276737800794532E-3    3.730472343032489E-2   -3.207993254332784E-3    9.628351240098552E-1   -2.268704334995567E-2
 1.419945112409473E7     9.626814248334568E-1   -2.430955727805602E-2    3.722514542761308E-2   -2.211743402087375E-3    3.718004327792024E-2   -2.798351254883914E-3    9.628953692859501E-1   -2.296391603858022E-2
 1.430779098582953E7     9.627087208324367E-1   -2.461075389366779E-2    3.718560331829101E-2   -2.106676116461821E-3    3.714625395267757E-2   -2.694017428392636E-3    9.629398597657409E-1   -2.328755865932171E-2
 1.441695746582855E7     9.627442640148189E-1   -2.491894044561495E-2    3.714831356837069E-2   -1.999597790372157E-3    3.710898023193245E-2   -2.586849018102487E-3    9.629697464757565E-1   -2.360461855047942E-2
 1.452695687107559E7     9.628156448394213E-1   -2.524480996349340E-2    3.711005180131370E-2   -1.892263204436660E-3    3.707119829839128E-2   -2.478402136683632E-3    9.630000727122653E-1   -2.390116369597188E-2
 1.463779555667585E7     9.628527832411166E-1   -2.553566924538532E-2    3.707394683852126E-2   -1.785683199929000E-3    3.703548455814298E-2   -2.372526281475279E-3    9.630372230127134E-1   -2.420445958858127E-2
 1.474947992622320E7     9.628897627709254E-1   -2.582699579175811E-2    3.703486993166874E-2   -1.675427335864566E-3    3.700133921181174E-2   -2.264353382357659E-3    9.630547259737307E-1   -2.450204158473848E-2
 1.486201643216998E7     9.628826141443636E-1   -2.598833406450482E-2    3.704478995008351E-2   -1.624781965295332E-3    3.699314600244605E-2   -1.943523994058879E-3    9.630898994395890E-1   -2.483711737766162E-2
 1.497541157619987E7     9.628924712666250E-1   -2.651959642938427E-2    3.696199733652344E-2   -1.458765227349832E-3    3.692709320831008E-2   -2.047100931538219E-3    9.630957371308650E-1   -2.513139746223831E-2
 1.508967190960350E7     9.629275326425500E-1   -2.683556896402543E-2    3.692426387654523E-2   -1.347465350448119E-3    3.689370721396946E-2   -1.939178679646235E-3    9.631454511564681E-1   -2.545137446587277E-2
 1.520480403365694E7     9.629858342987629E-1   -2.714614747408869E-2    3.688695845214139E-2   -1.239687396488857E-3    3.685855322875031E-2   -1.828673925911540E-3    9.631708797479459E-1   -2.574219106136836E-2
 1.532081460000315E7     9.630093147303358E-1   -2.748861208555028E-2    3.685191887664021E-2   -1.132227027410305E-3    3.682235530546583E-2   -1.719860087605325E-3    9.632046754650346E-1   -2.607982029525453E-2
 1.543771031103615E7     9.630760792209135E-1   -2.776704331037511E-2    3.681616331907899E-2   -1.016642770261401E-3    3.679146301291903E-2   -1.609002249125076E-3    9.632658851665534E-1   -2.641071468129800E-2
 1.555549792028828E7     9.630701792620066E-1   -2.811817813945168E-2    3.677927386470874E-2   -9.052615947093099E-4    3.675527049631671E-2   -1.501047123614217E-3    9.633283862045470E-1   -2.670434738150892E-2
 1.567418423282054E7     9.630628193478442E-1   -2.823016166973635E-2    3.679302871378670E-2   -8.492194753530100E-4    3.674671065777783E-2   -1.174300690751830E-3    9.632762355738108E-1   -2.707807091754871E-2
 1.579377610561541E7     9.631297807108328E-1   -2.856512641031068E-2    3.675550747317343E-2   -7.366427657455690E-4    3.671194665405407E-2   -1.060297590785957E-3    9.633054383948402E-1   -2.740548820976712E-2
 1.591428044797338E7     9.631381511744357E-1   -2.888482539947183E-2    3.672289168472202E-2   -6.254977996544312E-4    3.667738317888403E-2   -9.484231636433588E-4    9.633148657743107E-1   -2.774797502642662E-2
 1.603570422191187E7     9.631751438742795E-1   -2.923947917983911E-2    3.668684716527421E-2   -5.129162964645103E-4    3.664484418104140E-2   -8.365526816673790E-4    9.633607119259742E-1   -2.807665126630454E-2
 1.615805444256752E7     9.631948735352380E-1   -2.957335258523364E-2    3.665307762330676E-2   -3.992081668499379E-4    3.661081260839832E-2   -7.219905502382435E-4    9.634151676398245E-1   -2.838006986521048E-2
 1.628133817860163E7     9.631986633945907E-1   -2.992036241847606E-2    3.661972543484501E-2   -2.841321728503872E-4    3.657921883130448E-2   -6.077084091733607E-4    9.634607608041199E-1   -2.871899634912868E-2
 1.640556255260818E7     9.632505353590537E-1   -3.035467657510338E-2    3.656821818957817E-2   -1.454585465355861E-4    3.652751369104439E-2   -5.753121273384925E-4    9.634713341823687E-1   -2.905247106242696E-2
 1.653073474152580E7     9.632694421315537E-1   -3.070207154986353E-2    3.653610943410192E-2   -3.111200677902387E-5    3.649707402407755E-2   -4.603856250485335E-4    9.634952221662171E-1   -2.939790055799735E-2
 1.665686197705204E7     9.633261993749282E-1   -3.106470465685801E-2    3.650186786741154E-2    8.547653465364045E-5    3.646480606791219E-2   -3.442718353997542E-4    9.635141863528002E-1   -2.973941316911714E-2
 1.678395154606132E7     9.633234375234901E-1   -3.139433823711663E-2    3.646862263991051E-2    2.002056533695303E-4    3.643258115730365E-2   -2.321804478648262E-4    9.635173626123034E-1   -3.007933335549052E-2
 1.691201079102603E7     9.634144612074037E-1   -3.188339159432753E-2    3.640813855378561E-2    3.439379969150829E-4    3.639809397120948E-2   -2.585679022487567E-4    9.635831089557954E-1   -3.041506446034543E-2
 1.704104711044038E7     9.634073052959339E-1   -3.224640894425925E-2    3.637597709061532E-2    4.593396594060071E-4    3.636830993438120E-2   -1.413653429961063E-4    9.636246857067305E-1   -3.073974668891899E-2
 1.717106795924834E7     9.634405241263261E-1   -3.257490309191838E-2    3.634248725836779E-2    5.770833149977349E-4    3.633911107527364E-2   -2.552582617083035E-5    9.636592324979585E-1   -3.107048821806880E-2
 1.730208084927390E7     9.636548926159116E-1   -3.315879584877730E-2    3.625158033955416E-2    7.238647917911920E-4    3.642701950559212E-2   -2.231224355853583E-4    9.636298169427636E-1   -3.143189799492904E-2
 1.743409334965526E7     9.634904766588500E-1   -3.332724258513273E-2    3.628026722237623E-2    8.119362998310324E-4    3.627930292139214E-2    2.052380060417711E-4    9.636542769974207E-1   -3.182138741816823E-2
 1.756711308728221E7     9.635225777491288E-1   -3.369253693422784E-2    3.624880927845726E-2    9.262597913418211E-4    3.624771621241250E-2    3.222466990937578E-4    9.636730218417396E-1   -3.216641211470459E-2
 1.770114774723655E7     9.635422618749934E-1   -3.405545624850225E-2    3.622019261209601E-2    1.047860972598912E-3    3.622106812458063E-2    4.418396903826434E-4    9.637348321837785E-1   -3.252395973317428E-2
 1.783620507323623E7     9.636006883246913E-1   -3.400258212526509E-2    3.628260325350945E-2    1.040143988343143E-3    3.627986931278857E-2    9.276826826864950E-4    9.636966275939282E-1   -3.297708499241655E-2
 1.797229286808272E7     9.635561349034272E-1   -3.447975643107266E-2    3.623474674969557E-2    1.198619680006747E-3    3.621789433403449E-2    1.007860059271846E-3    9.637720459159054E-1   -3.327161873645899E-2
 1.810941899411174E7     9.635817605976555E-1   -3.474555574803551E-2    3.622031171258372E-2    1.282510060778781E-3    3.622245610932021E-2    1.169449831306208E-3    9.637651714137863E-1   -3.369518993572312E-2
 1.824759137364766E7     9.636475342096297E-1   -3.516425231411256E-2    3.619196044555752E-2    1.401673073292825E-3    3.619228305475902E-2    1.289530359023591E-3    9.637772975948099E-1   -3.409766183620423E-2
 1.838681798946100E7     9.636910292701482E-1   -3.551284772005053E-2    3.616499097739369E-2    1.524429586990449E-3    3.616404089964918E-2    1.413714922069122E-3    9.637977496589843E-1   -3.443560539105415E-2
 1.852710688522972E7     9.637025040159110E-1   -3.640388164072080E-2    3.601548466447239E-2    1.782237745819682E-3    3.608483541006576E-2    1.033506984481119E-3    9.638758260979555E-1   -3.468081965096070E-2
 1.866846616600409E7     9.636294043904807E-1   -3.668437643878486E-2    3.601244186312329E-2    1.888451807187115E-3    3.602553826405585E-2    1.285041939001722E-3    9.638766665288087E-1   -3.506461297972314E-2
 1.881090399867451E7     9.636901706323818E-1   -3.670909465410001E-2    3.606898243680510E-2    1.912557759460776E-3    3.606426935391163E-2    1.763644587636679E-3    9.638721613685522E-1   -3.552475112380483E-2
 1.895442861244394E7     9.636998165837690E-1   -3.707902089511090E-2    3.604274187834694E-2    2.037519131974118E-3    3.603789754609964E-2    1.888627486001697E-3    9.638982235167327E-1   -3.589831778561051E-2
 1.909904829930285E7     9.637366315720635E-1   -3.748467499248457E-2    3.601687052746296E-2    2.159765075773124E-3    3.601007108353261E-2    2.012272538203506E-3    9.639066080234946E-1   -3.628338723424451E-2
 1.924477141450845E7     9.637604661619357E-1   -3.784964840875835E-2    3.599098034424726E-2    2.282456380676959E-3    3.598473071475700E-2    2.138835917042727E-3    9.639379690404758E-1   -3.666683999039110E-2
 1.939160637706759E7     9.637632064017589E-1   -3.827976336022461E-2    3.596313394316636E-2    2.409270708988563E-3    3.595905301049592E-2    2.263409728654347E-3    9.639579162645358E-1   -3.705329231192727E-2
 1.953956167022271E7     9.637805919286769E-1   -3.866309420098164E-2    3.593718042557354E-2    2.537341109178178E-3    3.593338770891999E-2    2.388934251167349E-3    9.639821174182793E-1   -3.745385970898546E-2
 1.968864584194249E7     9.637994828985507E-1   -3.912004376275726E-2    3.589981773719703E-2    2.680218744936813E-3    3.588957233575107E-2    2.488741137304393E-3    9.639654220952557E-1   -3.785698774125093E-2
 1.983886750541528E7     9.638536358539377E-1   -3.992152364963816E-2    3.576939904898820E-2    2.901568227265074E-3    3.585825467978210E-2    2.148703463340401E-3    9.640272845335366E-1   -3.815468975629090E-2
 1.999023533954688E7     9.638674059078606E-1   -4.034787822499455E-2    3.574270756984807E-2    3.027248490826649E-3    3.583441923164886E-2    2.274923770823660E-3    9.640257848473347E-1   -3.855652537577445E-2
 2.014275808946211E7     9.638853694635224E-1   -4.075247427564184E-2    3.571890894410890E-2    3.156788743066111E-3    3.581102494248997E-2    2.400130769743032E-3    9.640338566861261E-1   -3.898294986082249E-2
 2.029644456700960E7     9.638841650633790E-1   -4.116727177870845E-2    3.569314195627514E-2    3.280769104128911E-3    3.578889584194875E-2    2.528179789417799E-3    9.640683562357802E-1   -3.934864243388995E-2
 2.045130365127147E7     9.639054287033340E-1   -4.159808213615216E-2    3.566922334447719E-2    3.413139577055973E-3    3.576590145983356E-2    2.656433794349959E-3    9.640599667911293E-1   -3.975680667974822E-2
 2.060734428907584E7     9.639366910068358E-1   -4.198560388360600E-2    3.564407801501294E-2    3.541250280020265E-3    3.574545396253510E-2    2.784956892716948E-3    9.640587822735882E-1   -4.014772342922032E-2
 2.076457549551392E7     9.639662198958493E-1   -4.241776498913460E-2    3.562080438718736E-2    3.670002451624800E-3    3.572225179915738E-2    2.914481821162291E-3    9.640899946449837E-1   -4.058551398719096E-2
 2.092300635446098E7     9.639484615697770E-1   -4.285344351399176E-2    3.559562443934632E-2    3.800535883143176E-3    3.570164052385833E-2    3.043337855073017E-3    9.640871582254773E-1   -4.101185648658919E-2
 2.108264601910070E7     9.639454651929681E-1   -4.329907387670074E-2    3.557230400680256E-2    3.931117106186313E-3    3.567970727943004E-2    3.173438602589515E-3    9.641130731331152E-1   -4.141534599816434E-2
 2.124350371245464E7     9.639633509885489E-1   -4.325820506682207E-2    3.567686238131755E-2    3.946121323544934E-3    3.568021657934275E-2    3.831074789589340E-3    9.640708200957275E-1   -4.196615658874533E-2
 2.140558872791451E7     9.639568980969526E-1   -4.366001944010747E-2    3.565501933452429E-2    4.078183579203148E-3    3.565811509710429E-2    3.966841604653963E-3    9.640969163561887E-1   -4.236609515104472E-2
 2.156891042977939E7     9.639301842020679E-1   -4.436734714473729E-2    3.556061551740954E-2    4.299138434656587E-3    3.556471083956642E-2    3.856142548064629E-3    9.641380234620918E-1   -4.270456385381580E-2
 2.173347825379676E7     9.639621773070547E-1   -4.480246798633473E-2    3.553914412003599E-2    4.434259617642331E-3    3.554489023236427E-2    3.989367640710663E-3    9.641547284950686E-1   -4.314358989957341E-2
 2.189930170770744E7     9.639124995675421E-1   -4.525770751214410E-2    3.551470596335411E-2    4.568877237441433E-3    3.552518011202021E-2    4.121967958638973E-3    9.641752429863434E-1   -4.356338138385232E-2
 2.206639037179505E7     9.639298832075003E-1   -4.567026375143453E-2    3.549542430564025E-2    4.705080697952645E-3    3.550209465680722E-2    4.257507779180171E-3    9.641672493692572E-1   -4.401095967330555E-2
 2.223475389943947E7     9.640085659413739E-1   -4.586402810560584E-2    3.554736293795738E-2    4.752713683446346E-3    3.555373074060218E-2    4.636643220264572E-3    9.641497478146988E-1   -4.454399919670225E-2
 2.240440201767448E7     9.640446088410162E-1   -4.630572470157134E-2    3.552799563679709E-2    4.889391046510695E-3    3.553309696797769E-2    4.774580928081658E-3    9.641529044681404E-1   -4.497416462237744E-2
 2.257534452774993E7     9.640149078268520E-1   -4.678847227285963E-2    3.550847200618130E-2    5.029944221713996E-3    3.551417463848175E-2    4.915145949868313E-3    9.641391648175679E-1   -4.541946688707142E-2
 2.274759130569773E7     9.640098257441465E-1   -4.724614450340400E-2    3.548910363340291E-2    5.165410842681748E-3    3.549403923541810E-2    5.050796931949832E-3    9.641492359104055E-1   -4.587080444400690E-2
 2.292115230290256E7     9.640332120327766E-1   -4.770500424950110E-2    3.546942785715458E-2    5.304647677266413E-3    3.547460273443431E-2    5.191747218640198E-3    9.641771095371949E-1   -4.630736777857727E-2
 2.309603754667697E7     9.640194509979847E-1   -4.816125564895862E-2    3.545126250124225E-2    5.443695157943683E-3    3.545686823215967E-2    5.330013046242589E-3    9.641571206637212E-1   -4.679410616140596E-2
 2.327225714084021E7     9.640120092259603E-1   -4.865658314872071E-2    3.543191501255615E-2    5.584354542569136E-3    3.543785974916009E-2    5.470665278457601E-3    9.641819505405747E-1   -4.723326289913733E-2
 2.344982126630262E7     9.639925565471785E-1   -4.928522850375669E-2    3.536064119695206E-2    5.793597000578739E-3    3.536309039546661E-2    5.453113813167152E-3    9.642568350258887E-1   -4.757179499021605E-2
 2.362874018165328E7     9.639688065708626E-1   -4.981206880305242E-2    3.534127817146441E-2    5.932662566494932E-3    3.534315542159470E-2    5.591546063082279E-3    9.642402158312279E-1   -4.804401917160248E-2
 2.380902422375290E7     9.640124784330599E-1   -5.044784080437532E-2    3.527291629241242E-2    6.105768710652178E-3    3.534627209251526E-2    5.487290019948186E-3    9.642412874842482E-1   -4.849751735021191E-2
 2.399068380833123E7     9.639889419522402E-1   -5.093503589438095E-2    3.525564243032652E-2    6.248161152006688E-3    3.533347653342327E-2    5.626392332698185E-3    9.642445485075978E-1   -4.896846773665126E-2
 2.417372943058824E7     9.639945636930928E-1   -5.120542262568459E-2    3.528928751257426E-2    6.361401041433042E-3    3.529452801485776E-2    6.017850228744694E-3    9.642621516311523E-1   -4.944632163000352E-2
 2.435817166580120E7     9.639595342796388E-1   -5.166758528701019E-2    3.527056253484905E-2    6.504504214110153E-3    3.527687070622982E-2    6.161787651397329E-3    9.642495290803041E-1   -4.993285764163095E-2
 2.454402116993507E7     9.640186452348605E-1   -5.237419482742259E-2    3.520361688055308E-2    6.678716666959200E-3    3.528473564165259E-2    6.055756804222957E-3    9.642490379823060E-1   -5.038457175274212E-2
 2.473128868025839E7     9.640021410145626E-1   -5.288266215277999E-2    3.518549592959144E-2    6.824334569675444E-3    3.526893252103608E-2    6.200557938095261E-3    9.642451213014597E-1   -5.086951863106739E-2
 2.491998501596375E7     9.639999478393018E-1   -5.336105449822545E-2    3.516846802360310E-2    6.968048659059647E-3    3.525415905341059E-2    6.344898717446692E-3    9.642566103078533E-1   -5.133495510980574E-2
 2.511012107879237E7     9.640219448336224E-1   -5.350539029115398E-2    3.525946006997449E-2    7.024900970219269E-3    3.526476658214450E-2    6.909452624481439E-3    9.641963276014720E-1   -5.193126343540126E-2
 2.530170785366461E7     9.640020129230237E-1   -5.399210430202353E-2    3.524315849927317E-2    7.172971776732213E-3    3.524875051898065E-2    7.057398452745737E-3    9.642021204292791E-1   -5.242659761100002E-2
 2.549475640931404E7     9.640212766086861E-1   -5.448428919239362E-2    3.522483261122065E-2    7.326860570265999E-3    3.523190198051226E-2    7.207058603387070E-3    9.641839853980178E-1   -5.291794935831359E-2
 2.568927789892715E7     9.640352126243616E-1   -5.503339779969753E-2    3.520884494686644E-2    7.478208688679332E-3    3.521292644460219E-2    7.360681535247828E-3    9.641775637386455E-1   -5.342132981958311E-2
 2.588528356078789E7     9.639670863195526E-1   -5.556716384040668E-2    3.516812851268104E-2    7.664294182106087E-3    3.516836434521464E-2    7.460262370340428E-3    9.641901698665150E-1   -5.388068763721416E-2
 2.608278471892660E7     9.640143290710652E-1   -5.602024023177375E-2    3.517786356493911E-2    7.795707886401455E-3    3.518316487464135E-2    7.675634673422889E-3    9.641462480373474E-1   -5.442887245160822E-2
 2.628179278377446E7     9.640128240188024E-1   -5.652653431187173E-2    3.516955036548775E-2    7.955199582833486E-3    3.517620037435640E-2    7.836246048475369E-3    9.641497577206799E-1   -5.491540444903945E-2
 2.648231925282269E7     9.639579825512364E-1   -5.723874998262764E-2    3.510587130039373E-2    8.170642726193647E-3    3.512232075944368E-2    7.820710625085745E-3    9.642027153263829E-1   -5.533007070000367E-2
 2.668437571128672E7     9.639364267274539E-1   -5.777926758407386E-2    3.510094283847474E-2    8.324528503408051E-3    3.511526304391123E-2    7.974926521200798E-3    9.642079341912377E-1   -5.584623446803822E-2
 2.688797383277575E7     9.639149207562335E-1   -5.829512696384647E-2    3.509231885801973E-2    8.478581867146361E-3    3.510756597287555E-2    8.127391850913003E-3    9.641824646670529E-1   -5.636253772554016E-2
 2.709312537996687E7     9.639167974950443E-1   -5.873631783808989E-2    3.511614642360366E-2    8.604340604089196E-3    3.512170066676926E-2    8.397559248645449E-3    9.641921714361633E-1   -5.690616448487344E-2
 2.729984220528475E7     9.639181178869592E-1   -5.924239255394651E-2    3.510793273791441E-2    8.760034037883802E-3    3.511274706134279E-2    8.554999479606673E-3    9.641663384462015E-1   -5.746870339466002E-2
 2.750813625158667E7     9.639308965570510E-1   -5.978580367842663E-2    3.510110568173512E-2    8.919692034708876E-3    3.510634383039272E-2    8.713497055424317E-3    9.641550407237979E-1   -5.800522385247656E-2
 2.771801955285188E7     9.639315554772588E-1   -6.071850204660637E-2    3.498823883010784E-2    9.125518128827149E-3    3.518475323514798E-2    8.359177091300114E-3    9.641607926232626E-1   -5.847304633549773E-2
 2.792950423487763E7     9.638605520986067E-1   -6.106924783522877E-2    3.503207566534663E-2    9.271072589914352E-3    3.507927726451498E-2    8.812988577802203E-3    9.641638413330291E-1   -5.899999813710150E-2
 2.814260251597910E7     9.638596093645198E-1   -6.165060069587017E-2    3.502366276395520E-2    9.429273114541311E-3    3.507421766660339E-2    8.970455544483676E-3    9.641488441111863E-1   -5.954347932027496E-2
 2.835732670769557E7     9.638641314494930E-1   -6.218233435476376E-2    3.501981283965863E-2    9.589103017472450E-3    3.506951687536398E-2    9.128485548388602E-3    9.641395727340775E-1   -6.010194080264885E-2
 2.857368921550186E7     9.638835414875532E-1   -6.249998559057746E-2    3.509484581376884E-2    9.682839792915588E-3    3.510020557012895E-2    9.562395513018225E-3    9.640932028846906E-1   -6.074181062976514E-2
 2.879170253952448E7     9.638843385753741E-1   -6.309153224355876E-2    3.509052372156347E-2    9.846452039974370E-3    3.509453676803313E-2    9.723238330184800E-3    9.640493930562818E-1   -6.130404548156627E-2
 2.901137927526460E7     9.638611827197825E-1   -6.363915469593937E-2    3.508444088639107E-2    1.000558318667243E-2    3.508894753861540E-2    9.886757223314712E-3    9.640603587735246E-1   -6.182432773350453E-2
 2.923273211432508E7     9.638365823685539E-1   -6.423581350461098E-2    3.507813090165203E-2    1.016963084967140E-2    3.508473675981864E-2    1.004717903642182E-2    9.640318828462332E-1   -6.239437022908644E-2
 2.945577384514398E7     9.638128373893206E-1   -6.480772111532808E-2    3.507412146220132E-2    1.033353317497693E-2    3.507895420331695E-2    1.021301072996429E-2    9.640211421496824E-1   -6.295918315810997E-2
 2.968051735373363E7     9.637979650030993E-1   -6.541561525625823E-2    3.506859093532184E-2    1.049858956896348E-2    3.507562662846354E-2    1.037578417672048E-2    9.639986442953201E-1   -6.353055319132810E-2
 2.990697562442441E7     9.637222803082082E-1   -6.612815543118063E-2    3.502133526564949E-2    1.070504649962965E-2    3.503651549835324E-2    1.043245881637292E-2    9.640160817137013E-1   -6.402198530494263E-2
 3.013516174061584E7     9.637205304331452E-1   -6.663075587732872E-2    3.503443179256283E-2    1.086160587971855E-2    3.504233887061298E-2    1.065076289674854E-2    9.640015525119813E-1   -6.462891141778801E-2
 3.036508888553168E7     9.636615334317442E-1   -6.730542822356179E-2    3.501411975875768E-2    1.103994287973997E-2    3.503047335416202E-2    1.076660976865874E-2    9.639788189931187E-1   -6.517747943365683E-2
 3.059677034298190E7     9.636649151775114E-1   -6.789353478262868E-2    3.501328403835444E-2    1.120614942977570E-2    3.502819997313848E-2    1.093338086234870E-2    9.639543765177171E-1   -6.578991783269701E-2
 3.083021949813037E7     9.637354239624631E-1   -6.897432803146500E-2    3.490526364849125E-2    1.139205751870711E-2    3.532338677281775E-2    1.044918540851559E-2    9.639410895286313E-1   -6.630400542629254E-2
 3.106544983826748E7     9.637176356060014E-1   -6.958392641008800E-2    3.490543077884921E-2    1.156201429045344E-2    3.532567346754784E-2    1.061680587994931E-2    9.639078482010155E-1   -6.688919559184624E-2
 3.130247495359022E7     9.636491161168548E-1   -6.960843685300615E-2    3.505291226984514E-2    1.168085855043016E-2    3.505741676017383E-2    1.155786051509429E-2    9.638423088945339E-1   -6.761196251585745E-2
 3.154130853798668E7     9.636031445200317E-1   -7.022727442636692E-2    3.505171397937643E-2    1.185083377676812E-2    3.505855614171926E-2    1.172818785918789E-2    9.638232958168410E-1   -6.821177535751505E-2
 3.178196438982744E7     9.635792415199883E-1   -7.085578805312139E-2    3.505177384346920E-2    1.202707259483969E-2    3.505790441537247E-2    1.190272263847351E-2    9.637842331141625E-1   -6.883562819530353E-2
 3.202445641276293E7     9.635080012348677E-1   -7.154094216237318E-2    3.502370448346648E-2    1.222645482727093E-2    3.503664645527834E-2    1.201265506781989E-2    9.638013755553978E-1   -6.939578847907571E-2
 3.226879861652631E7     9.635333123949987E-1   -7.208612807168376E-2    3.505222337706285E-2    1.237607476780837E-2    3.505973396570092E-2    1.225087432782331E-2    9.637239949110104E-1   -7.007736355524341E-2
 3.251500511774320E7     9.634227073104411E-1   -7.318780266158359E-2    3.492623702481071E-2    1.260632854556382E-2    3.517481801671727E-2    1.183453738504409E-2    9.637699030373175E-1   -7.054189203570810E-2
 3.276309014074709E7     9.633752982233190E-1   -7.385237335507711E-2    3.492615185581635E-2    1.278201901574402E-2    3.517820153567364E-2    1.201071893205965E-2    9.637259408096381E-1   -7.116029477357093E-2
 3.301306801840112E7     9.633445369458489E-1   -7.452417906740462E-2    3.492950136827086E-2    1.295701926575778E-2    3.518414881078444E-2    1.218518881416855E-2    9.637133422627416E-1   -7.177258276458061E-2
 3.326495319292643E7     9.633321367620407E-1   -7.515408811257827E-2    3.493102433162835E-2    1.313550049004851E-2    3.518891438965539E-2    1.236057092628902E-2    9.636799974274104E-1   -7.244070079431877E-2
 3.351876021673609E7     9.633726222719123E-1   -7.538016422915458E-2    3.505911327450604E-2    1.326444699500427E-2    3.506473040203959E-2    1.313520847126353E-2    9.635606457032163E-1   -7.318486632070186E-2
 3.377450375327612E7     9.633362006644850E-1   -7.601690619963894E-2    3.506296321905187E-2    1.344290882416341E-2    3.506583427278999E-2    1.331593664113050E-2    9.635309867469561E-1   -7.384763045372736E-2
 3.403219857787284E7     9.632106748267786E-1   -7.678619538926550E-2    3.501485491515392E-2    1.366117005348699E-2    3.504044520825190E-2    1.337771908287901E-2    9.635422723971291E-1   -7.439855267146031E-2
 3.429185957858586E7     9.631848541098902E-1   -7.746688420916326E-2    3.501795563171524E-2    1.383835726931295E-2    3.504175128221208E-2    1.355967460270412E-2    9.635111344446736E-1   -7.507182250029050E-2
 3.455350175706909E7     9.631321122751270E-1   -7.815688968200796E-2    3.501661484419021E-2    1.402117264414887E-2    3.504106512422168E-2    1.374003282079846E-2    9.634656164886518E-1   -7.571165823839000E-2
 3.481714022943672E7     9.630662504751989E-1   -7.917099737862676E-2    3.493692720499382E-2    1.421675967943976E-2    3.520909146494822E-2    1.344061529769015E-2    9.634379295649227E-1   -7.634012886706883E-2
 3.508279022713681E7     9.630095868425341E-1   -7.987853923966270E-2    3.493055833287744E-2    1.440023687102544E-2    3.520525639756208E-2    1.362631874523585E-2    9.633900248028840E-1   -7.697429603456560E-2
 3.535046709783159E7     9.629456995738136E-1   -8.053177866702355E-2    3.492322542730897E-2    1.459008885672086E-2    3.519808941523530E-2    1.381728289550496E-2    9.633405492279191E-1   -7.765162295586463E-2
 3.562018630628331E7     9.628688841131802E-1   -8.125542511248827E-2    3.490963844694114E-2    1.478921268630890E-2    3.518858361517678E-2    1.401768680052957E-2    9.632730629043461E-1   -7.832352310089812E-2
 3.589196343524875E7     9.627982071322803E-1   -8.191927542713971E-2    3.490078126076471E-2    1.500705516141794E-2    3.518413122500218E-2    1.423834283891469E-2    9.632183037197131E-1   -7.895517224468622E-2
 3.616581418637872E7     9.627444514812029E-1   -8.255430529400982E-2    3.491354244159107E-2    1.523955398296892E-2    3.520598516352200E-2    1.446871113466448E-2    9.631843854607119E-1   -7.961305390474770E-2
 3.644175438112541E7     9.627384980579681E-1   -8.325397195486539E-2    3.495023688589474E-2    1.545687622564195E-2    3.524665569897872E-2    1.468349054735259E-2    9.631684665265942E-1   -8.028688585056233E-2
 3.671979996165685E7     9.627053211111132E-1   -8.371683876302928E-2    3.502252180474123E-2    1.566037691725844E-2    3.512371351305423E-2    1.518426452852277E-2    9.631319740634880E-1   -8.099653234811810E-2
 3.699996699177712E7     9.626593677514236E-1   -8.443383655952874E-2    3.505121386537464E-2    1.585046667706486E-2    3.515284045690941E-2    1.537512497961611E-2    9.631003252523409E-1   -8.168601553964884E-2
 3.728227165785540E7     9.626324359582759E-1   -8.517258472430654E-2    3.507373068372962E-2    1.604198796318187E-2    3.517843363359897E-2    1.556650358473119E-2    9.630560826179542E-1   -8.239036976602433E-2
 3.756673026976037E7     9.625833547639864E-1   -8.590218930515937E-2    3.509381641525458E-2    1.623443799195394E-2    3.519818644351948E-2    1.575680103154099E-2    9.630277966173290E-1   -8.307736653397721E-2
 3.785335926180276E7     9.626465031403112E-1   -8.637724249495425E-2    3.519677241891742E-2    1.638706061299727E-2    3.520630903742587E-2    1.626276494921232E-2    9.628898037692794E-1   -8.392683651758545E-2
 3.814217519368506E7     9.626258591167819E-1   -8.712949861584271E-2    3.521479558028043E-2    1.658608571477229E-2    3.522467415865316E-2    1.645861061378211E-2    9.628491200799321E-1   -8.465826488389963E-2
 3.843319475145779E7     9.625667841407226E-1   -8.787043705375447E-2    3.523202790085642E-2    1.678561307018449E-2    3.524192372855084E-2    1.665924064456041E-2    9.627895415559540E-1   -8.535827697389591E-2
 3.872643474848381E7     9.625025735048834E-1   -8.861743860177360E-2    3.524892849120555E-2    1.698817423294328E-2    3.526073090546243E-2    1.685914822584421E-2    9.627314088107085E-1   -8.609576398801594E-2
 3.902191212640966E7     9.624414705836521E-1   -8.938515412540768E-2    3.526571647966815E-2    1.719226442137909E-2    3.527859699952222E-2    1.706110887558347E-2    9.626872617543528E-1   -8.681178028146895E-2
 3.931964395614420E7     9.624007377705159E-1   -9.014409433310050E-2    3.528565324270091E-2    1.739401337629935E-2    3.529794035947371E-2    1.726695170806299E-2    9.626505975454746E-1   -8.753804126337553E-2
 3.961964743884522E7     9.622910669428621E-1   -9.096345652241736E-2    3.527271545687023E-2    1.762108305935987E-2    3.530435282452832E-2    1.739969296412143E-2    9.626341844673486E-1   -8.824655593666801E-2
 3.992193990691278E7     9.622321921133052E-1   -9.174545099621839E-2    3.529153092499861E-2    1.782671657429627E-2    3.532426127001912E-2    1.760565721956667E-2    9.625714099360397E-1   -8.899304765119381E-2
 4.022653882499073E7     9.620715722021176E-1   -9.271223254722154E-2    3.525643896735442E-2    1.804900092040391E-2    3.538026369413579E-2    1.756518889389381E-2    9.625523043308756E-1   -8.968729459685483E-2
 4.053346179097611E7     9.620126659896668E-1   -9.350305093896565E-2    3.527765693403519E-2    1.825799797659737E-2    3.540575708196632E-2    1.777233261091790E-2    9.624902217868442E-1   -9.047353786331017E-2
 4.084272653703488E7     9.619558564922850E-1   -9.429397600225282E-2    3.529727361448346E-2    1.846781152097682E-2    3.542796557235319E-2    1.797918086753106E-2    9.624238130092521E-1   -9.122962064557436E-2
 4.115435093062763E7     9.618565483190303E-1   -9.524115458270378E-2    3.530100866650419E-2    1.867509803151069E-2    3.553742283918064E-2    1.801601074898562E-2    9.623714198590880E-1   -9.198811291634076E-2
 4.146835297554084E7     9.617903917825602E-1   -9.606234595307243E-2    3.532184315176559E-2    1.888710832327694E-2    3.556258421980357E-2    1.822680081984848E-2    9.623096928663921E-1   -9.276048974760928E-2
 4.178475081292742E7     9.617677583673664E-1   -9.715917780083613E-2    3.533280612659213E-2    1.909069728124557E-2    3.592361830731750E-2    1.812913203072714E-2    9.622442598426435E-1   -9.351252453325903E-2
 4.210356272235513E7     9.617053128803243E-1   -9.797722180682926E-2    3.535593690586453E-2    1.930437444803879E-2    3.595107233240759E-2    1.834376859698095E-2    9.621602528728650E-1   -9.428243342219114E-2
 4.242480712286174E7     9.616323311014104E-1   -9.878013878898535E-2    3.538230906287194E-2    1.952439849556108E-2    3.598199732962410E-2    1.855720252133285E-2    9.620986676798068E-1   -9.509223111656388E-2
 4.274850257402029E7     9.615634785497484E-1   -9.961580217103418E-2    3.540881470725124E-2    1.974294956848937E-2    3.601445717773338E-2    1.877575843879756E-2    9.620223962159192E-1   -9.590142449267434E-2
 4.307466777701053E7     9.616050567382550E-1   -9.970102590550516E-2    3.555177809490289E-2    1.994958191026714E-2    3.557442857650208E-2    1.981067154551693E-2    9.618580268598221E-1   -9.684491764459704E-2
 4.340332157569963E7     9.613936743233762E-1   -1.012871968188975E-1    3.546207870229168E-2    2.018280009517954E-2    3.607752827243208E-2    1.921839073579276E-2    9.618753040849651E-1   -9.749815374493073E-2
 4.373448295773120E7     9.613149800443898E-1   -1.021050549095970E-1    3.548886421016541E-2    2.040729441395796E-2    3.611316967067373E-2    1.943860855980699E-2    9.618060121127515E-1   -9.829783608613427E-2
 4.406817105562137E7     9.611704715740562E-1   -1.026369076187557E-1    3.552468097348292E-2    2.064397390947623E-2    3.579448787231482E-2    1.996869201558442E-2    9.617244806888785E-1   -9.913926464051602E-2
 4.440440514786536E7     9.610925438356512E-1   -1.034827780154683E-1    3.555580492985520E-2    2.086865862869295E-2    3.582574547130692E-2    2.019474068996772E-2    9.616459171123863E-1   -9.997913553930859E-2
 4.474320466005030E7     9.609958869705092E-1   -1.043569414996534E-1    3.558523619941375E-2    2.109786674322613E-2    3.586007416024323E-2    2.042121105038745E-2    9.615652469352816E-1   -1.007971075363870E-1
 4.508458916597787E7     9.609723676595310E-1   -1.049431141072050E-1    3.565053036712544E-2    2.132988743546139E-2    3.575683796150258E-2    2.093698594046682E-2    9.614827330869596E-1   -1.016806408484368E-1
 4.542857838879555E7     9.608856606074982E-1   -1.058521913011719E-1    3.568445934419643E-2    2.155969195499313E-2    3.578834575999632E-2    2.116621614682430E-2    9.613759571187764E-1   -1.025106183702013E-1
 4.577519220213508E7     9.608080414709408E-1   -1.067417840630083E-1    3.571542736467968E-2    2.179075768277362E-2    3.582330650756119E-2    2.139716892917111E-2    9.612984739791444E-1   -1.033643842446449E-1
 4.612445063126191E7     9.607113241434809E-1   -1.076175300625344E-1    3.574679880401741E-2    2.202499701175746E-2    3.585979483058372E-2    2.162825871573813E-2    9.611982053581409E-1   -1.042493236783666E-1
 4.647637385423118E7     9.606152841095434E-1   -1.084712801709931E-1    3.578042008433567E-2    2.225994947463806E-2    3.589347424542215E-2    2.186466242739549E-2    9.611235247261624E-1   -1.050950160844780E-1
 4.683098220305377E7     9.605104614107278E-1   -1.093847846636542E-1    3.581437389861677E-2    2.249684389685087E-2    3.592892399234676E-2    2.210058243299153E-2    9.610221298640585E-1   -1.059729517881371E-1
 4.718829616487134E7     9.604009023848102E-1   -1.102864436497223E-1    3.584960386758967E-2    2.273536775346959E-2    3.596677630864201E-2    2.233734619489468E-2    9.609440805082415E-1   -1.068620320904804E-1
 4.754833638313931E7     9.602340611712620E-1   -1.114442882250594E-1    3.584972854507968E-2    2.297382772124153E-2    3.615240115690079E-2    2.228458212244630E-2    9.608657672866362E-1   -1.076865461469228E-1
 4.791112365881994E7     9.601202944379066E-1   -1.123616983498583E-1    3.588348050561249E-2    2.321599158358637E-2    3.619346789689990E-2    2.252624677459074E-2    9.607510608674932E-1   -1.085624262539317E-1
 4.827667895158397E7     9.600212900820607E-1   -1.132787045704036E-1    3.592120853258838E-2    2.346181634001174E-2    3.623518518708614E-2    2.276907224574308E-2    9.606356598844178E-1   -1.094612522982781E-1
 4.864502338102144E7     9.599063716072384E-1   -1.142068474996105E-1    3.595790986037425E-2    2.370945250598555E-2    3.627804096323263E-2    2.301423911071401E-2    9.605376274468111E-1   -1.103752948376116E-1
 4.901617822786229E7     9.597915193589085E-1   -1.151439628472250E-1    3.600097697927552E-2    2.396038358914739E-2    3.632368016858743E-2    2.326395207403529E-2    9.604288340771173E-1   -1.112483011756976E-1
 4.939016493520518E7     9.596987399017316E-1   -1.160762899726518E-1    3.604435963044304E-2    2.421073837447493E-2    3.637157057603071E-2    2.351032398105216E-2    9.603221724275693E-1   -1.121739052873665E-1
 4.976700510975666E7     9.595818933006269E-1   -1.170344069274872E-1    3.608797800139234E-2    2.446295548176890E-2    3.641480577483370E-2    2.376284026574568E-2    9.602248702845603E-1   -1.130835203008743E-1
 5.014672052307993E7     9.594641718210190E-1   -1.179823449747081E-1    3.613073078004523E-2    2.471729921643467E-2    3.646675594120048E-2    2.401666766289237E-2    9.601034413641902E-1   -1.140108542842264E-1
 5.052933311285146E7     9.593487555034709E-1   -1.189460747334385E-1    3.617772604989835E-2    2.497242421739699E-2    3.651803412928968E-2    2.426842276452631E-2    9.600040919491973E-1   -1.149524055705644E-1
 5.091486498412994E7     9.592188711272481E-1   -1.198778173351493E-1    3.622612492314459E-2    2.523247857997189E-2    3.657167814073493E-2    2.452507588107265E-2    9.598698720985067E-1   -1.158651381383437E-1
 5.130333841063219E7     9.590929701822560E-1   -1.208557709944939E-1    3.627633085421193E-2    2.549030613130950E-2    3.663164619119887E-2    2.478099193421620E-2    9.597688487020106E-1   -1.168367132315354E-1
 5.169477583602042E7     9.589788833887435E-1   -1.218434914213237E-1    3.632994821391146E-2    2.574931254012021E-2    3.669111575023000E-2    2.503688800931483E-2    9.596529079858312E-1   -1.177895320420807E-1
 5.208919987519933E7     9.588757218525918E-1   -1.228382022317747E-1    3.638372323149942E-2    2.601056616107717E-2    3.674999220812962E-2    2.529308115656344E-2    9.595274325252459E-1   -1.187500708401575E-1
 5.248663331562151E7     9.587416855966623E-1   -1.238315959754582E-1    3.643728225718678E-2    2.627081616837594E-2    3.680728994782749E-2    2.555282643581192E-2    9.594076371283243E-1   -1.196964149380485E-1
 5.288709911860541E7     9.586219658567873E-1   -1.248626337700056E-1    3.649092418414553E-2    2.653557774851570E-2    3.686445019344543E-2    2.581433187912621E-2    9.592789765038651E-1   -1.206716588037293E-1
 5.329062042066076E7     9.584805701188835E-1   -1.258454709506732E-1    3.654539476932045E-2    2.679741259309064E-2    3.692625753656935E-2    2.607406440057893E-2    9.591600450403038E-1   -1.216443335368525E-1
 5.369722053482568E7     9.583374078502362E-1   -1.268838369940726E-1    3.660193302416279E-2    2.706319502222550E-2    3.699086729336504E-2    2.633744187063473E-2    9.590269290341180E-1   -1.226406758794560E-1
 5.410692295201402E7     9.582003893973732E-1   -1.278786452821667E-1    3.665901280790647E-2    2.733161829321128E-2    3.705013809442414E-2    2.660242481080697E-2    9.588996839527624E-1   -1.236418220957613E-1
 5.451975134237129E7     9.580508510889599E-1   -1.289339542081561E-1    3.671602273364865E-2    2.760043518100063E-2    3.711362842101508E-2    2.686972513778791E-2    9.587560483882170E-1   -1.246399600360018E-1
 5.493572955664375E7     9.579096068128655E-1   -1.299775284548549E-1    3.677456469448538E-2    2.787120299247543E-2    3.717605341989549E-2    2.713748318580828E-2    9.586206734509890E-1   -1.256426666473059E-1
 5.535488162755510E7     9.577745136912701E-1   -1.310184170731616E-1    3.683437182401819E-2    2.814519519501150E-2    3.724484359011963E-2    2.740885272723768E-2    9.584919797877398E-1   -1.266808610682950E-1
 5.577723177119546E7     9.576147971068605E-1   -1.320345052113998E-1    3.689384959809727E-2    2.842165222589638E-2    3.731238357892597E-2    2.768069024333989E-2    9.583335819382673E-1   -1.276894308994178E-1
 5.620280438842070E7     9.574494202105687E-1   -1.331006582952227E-1    3.695511547124940E-2    2.869909384141677E-2    3.737980639221831E-2    2.795522545300618E-2    9.581859746749960E-1   -1.287073849412659E-1
 5.663162406626155E7     9.572934451459597E-1   -1.341690086075277E-1    3.701759408692026E-2    2.897829708875654E-2    3.744897920338054E-2    2.823181799557093E-2    9.580436252081125E-1   -1.297854860570324E-1
 5.706371557934452E7     9.571319315883469E-1   -1.352455793260992E-1    3.708369234314714E-2    2.925864714368771E-2    3.752207005938311E-2    2.850967343660905E-2    9.578993253535614E-1   -1.308141163047648E-1
 5.749910389132310E7     9.569755804193903E-1   -1.363457825654567E-1    3.715027355950928E-2    2.954161590822974E-2    3.759401820573977E-2    2.878965160171432E-2    9.577411459990428E-1   -1.318835139212752E-1
 5.793781415631992E7     9.568185659392575E-1   -1.374353785586921E-1    3.721493308035156E-2    2.982822274072316E-2    3.766647696062192E-2    2.907303182770948E-2    9.575705074682260E-1   -1.329466345107895E-1
 5.837987172038046E7     9.569081639089149E-1   -1.379719345034038E-1    3.741359214612004E-2    3.007654928698661E-2    3.749003613064662E-2    2.992404385515130E-2    9.573190183250284E-1   -1.341403723792620E-1
 5.882530212293670E7     9.567470178818334E-1   -1.391166189604204E-1    3.748680785100290E-2    3.036083467948571E-2    3.756152461520913E-2    3.021454809797786E-2    9.571447045124079E-1   -1.352054318643468E-1
 5.927413109828297E7     9.565784714528450E-1   -1.402137825863744E-1    3.756109488352000E-2    3.065588715045334E-2    3.763739191025019E-2    3.050489436877568E-2    9.569804879935565E-1   -1.362886792008871E-1
 5.972638457706322E7     9.563886200307959E-1   -1.413221648878483E-1    3.763491854429639E-2    3.094810542300001E-2    3.771599399069021E-2    3.079794015165153E-2    9.568282612825857E-1   -1.373920425530159E-1
 6.018208868776779E7     9.562423693017810E-1   -1.424334429407933E-1    3.771006868092572E-2    3.124163648067007E-2    3.779357213367032E-2    3.109465936047020E-2    9.566464190381597E-1   -1.384669417899696E-1
 6.064126975824468E7     9.560463428556996E-1   -1.435619837852453E-1    3.778822980333599E-2    3.153892140224123E-2    3.787582855489745E-2    3.138962988451757E-2    9.564764035511962E-1   -1.395932895705172E-1
 6.110395431721926E7     9.558598410231597E-1   -1.446959128866246E-1    3.786910964607969E-2    3.183770801425302E-2    3.795685976400839E-2    3.168635539701908E-2    9.562878848727223E-1   -1.406903967532954E-1
 6.157016909582742E7     9.556567030769747E-1   -1.458476135827667E-1    3.795023701400810E-2    3.213665819565594E-2    3.804055903462629E-2    3.198682117203044E-2    9.561054165543121E-1   -1.418449017931169E-1
 6.203994102916045E7     9.554642934918206E-1   -1.469936293606015E-1    3.803173796362878E-2    3.243797758223844E-2    3.812530976358815E-2    3.228695662732541E-2    9.559153342870785E-1   -1.429680514928681E-1
 6.251329725781982E7     9.552525066757106E-1   -1.481537155581479E-1    3.811693761979969E-2    3.273961766286942E-2    3.821165296226210E-2    3.259130817654111E-2    9.557033511886801E-1   -1.441298071288127E-1
 6.299026512948693E7     9.550562394094732E-1   -1.493446802855872E-1    3.820185619022563E-2    3.304308223122441E-2    3.829855702464618E-2    3.289563591160156E-2    9.555417143132529E-1   -1.452386523522269E-1
 6.347087220050172E7     9.548545072852282E-1   -1.505151621834267E-1    3.828877179529798E-2    3.334738466086485E-2    3.838942035560193E-2    3.320077570475415E-2    9.553481884092111E-1   -1.464041684554272E-1
 6.395514623745525E7     9.546755282671151E-1   -1.517259848137476E-1    3.837448564625985E-2    3.365782347162692E-2    3.847750543439005E-2    3.350988931695517E-2    9.551422251756100E-1   -1.476026714944519E-1
 6.444311521879433E7     9.544631460720873E-1   -1.529285531255731E-1    3.846332156958954E-2    3.397222590327414E-2    3.856846596875243E-2    3.382226996567111E-2    9.549494331299723E-1   -1.487517279495048E-1
 6.493480733643661E7     9.542177781512570E-1   -1.541179238958297E-1    3.855262915755986E-2    3.428282794398669E-2    3.866025501891346E-2    3.413328870016550E-2    9.547225703391304E-1   -1.499425670657334E-1
 6.543025099740107E7     9.539941710323296E-1   -1.553371337801968E-1    3.864419571071058E-2    3.459551742562279E-2    3.875234547394635E-2    3.444586373015261E-2    9.545203872131036E-1   -1.511465933543861E-1
 6.592947482544785E7     9.536349691718783E-1   -1.576506084412981E-1    3.848831154265611E-2    3.501487035202890E-2    3.962685950190119E-2    3.388974639672378E-2    9.543887402822698E-1   -1.521593681690951E-1
 6.643250766273243E7     9.534481379519626E-1   -1.589188945900940E-1    3.858322395034745E-2    3.534028505872377E-2    3.974457838112947E-2    3.420289243755987E-2    9.541844817725746E-1   -1.533725011083615E-1
 6.693937857147253E7     9.532202405559137E-1   -1.601438315029718E-1    3.866995819306097E-2    3.566360480116614E-2    3.985096328415472E-2    3.452331642647752E-2    9.539759764206226E-1   -1.545846746963345E-1
 6.745011683562562E7     9.529803124507875E-1   -1.614549307328335E-1    3.875364389399569E-2    3.599850773705496E-2    3.995551812916247E-2    3.484834315213320E-2    9.537261295374621E-1   -1.558012381853812E-1
 6.796475196258274E7     9.527556112884566E-1   -1.626720488534343E-1    3.884626852501119E-2    3.634246126710748E-2    4.006391462282614E-2    3.519150541194405E-2    9.535111518009334E-1   -1.570352918668723E-1
 6.848331368487169E7     9.525165644121171E-1   -1.639104576835947E-1    3.894627544422567E-2    3.669257342678641E-2    4.018007902677342E-2    3.554097124229666E-2    9.532894455168038E-1   -1.582375202874783E-1
 6.900583196187538E7     9.521491969862966E-1   -1.646973054450068E-1    3.913181239432600E-2    3.701272979936689E-2    3.976267894042871E-2    3.617114845237054E-2    9.530610252231563E-1   -1.595103868090899E-1
 6.953233698156311E7     9.518865420992166E-1   -1.660032320541911E-1    3.924041159796893E-2    3.735642889152350E-2    3.989417891669328E-2    3.649731864206412E-2    9.528115463438909E-1   -1.608503890834658E-1
 7.006285916223384E7     9.516450371003358E-1   -1.672591870772852E-1    3.934882471842695E-2    3.769873288038265E-2    4.002376831832073E-2    3.681980074528926E-2    9.525586052314601E-1   -1.621800950014423E-1
 7.059742915427396E7     9.513599914455079E-1   -1.686556344475893E-1    3.945998029905554E-2    3.803866530264753E-2    4.014540182161222E-2    3.715625093889989E-2    9.523102157836066E-1   -1.633787176657494E-1
 7.113607784192866E7     9.510961756765076E-1   -1.699356838318710E-1    3.957551731214284E-2    3.838087079632654E-2    4.027059827116169E-2    3.749925536298949E-2    9.520678336811698E-1   -1.646815630228411E-1
 7.167883634508467E7     9.508569655318949E-1   -1.712423368586687E-1    3.969253099210086E-2    3.872504696558958E-2    4.039514023112913E-2    3.784284102834604E-2    9.518020795127340E-1   -1.659752026110194E-1
 7.222573602107021E7     9.506067008612723E-1   -1.726040503294914E-1    3.981073677759910E-2    3.907080949924283E-2    4.051390353189300E-2    3.819314401379925E-2    9.515505311749353E-1   -1.672577704736353E-1
 7.277680846646504E7     9.503215595819317E-1   -1.739160549267315E-1    3.992048694484539E-2    3.942696249772936E-2    4.063479036361144E-2    3.855019598614553E-2    9.512727019039563E-1   -1.685626623402148E-1
 7.333208551892644E7     9.500671012515037E-1   -1.752602813135797E-1    4.003683549072343E-2    3.979605701492978E-2    4.076989221227972E-2    3.890238879659915E-2    9.509770599644840E-1   -1.699991269000776E-1
 7.389159925902925E7     9.497692927132491E-1   -1.766751974418250E-1    4.015692846235623E-2    4.016295282303215E-2    4.091635401579164E-2    3.925219250322317E-2    9.506971117730288E-1   -1.713751155417519E-1
 7.445538201211768E7     9.494745588428987E-1   -1.781116876357328E-1    4.029079685213460E-2    4.052476489746943E-2    4.105702358028129E-2    3.960470198245709E-2    9.504217286087626E-1   -1.726646669883310E-1
 7.502346635017487E7     9.491940551252069E-1   -1.794752118997536E-1    4.042931718234200E-2    4.087946689126411E-2    4.119794021171203E-2    3.996907619051066E-2    9.501533606840614E-1   -1.739924981535843E-1
 7.559588509370317E7     9.489031336630267E-1   -1.808603524865484E-1    4.056246492911846E-2    4.124390460008479E-2    4.134059869556288E-2    4.033179211124154E-2    9.498486394289830E-1   -1.753427193453500E-1
 7.617267131362079E7     9.486169441566347E-1   -1.822353761112921E-1    4.069703099359707E-2    4.160544756378336E-2    4.147782254023497E-2    4.069471969401872E-2    9.495677833364116E-1   -1.767069899799825E-1
 7.675385833317320E7     9.483013183734789E-1   -1.836440950562259E-1    4.082280672413610E-2    4.197692837814260E-2    4.161493393766631E-2    4.106501663910572E-2    9.492520412809088E-1   -1.781078711782184E-1
 7.733947972985649E7     9.479859158301961E-1   -1.850679979298300E-1    4.095102087090592E-2    4.235664695816357E-2    4.176814834366999E-2    4.142900822013647E-2    9.489546702530380E-1   -1.796017711870331E-1
 7.792956933735959E7     9.476604488240118E-1   -1.865385840820958E-1    4.108550241496403E-2    4.273865678735982E-2    4.192787773473654E-2    4.179552083502109E-2    9.486429158569081E-1   -1.810329512299081E-1
 7.852416124751715E7     9.473357157449527E-1   -1.880412767469310E-1    4.122714724284727E-2    4.311871017509299E-2    4.208253633503821E-2    4.217092334547452E-2    9.483223990828835E-1   -1.824230173181697E-1
 7.912328981227988E7     9.470374282744974E-1   -1.894468369566165E-1    4.137162092567514E-2    4.350348474080236E-2    4.223273397389123E-2    4.255676221275234E-2    9.479933441818961E-1   -1.838328437939422E-1
 7.972698964569975E7     9.467057083521588E-1   -1.908784063770526E-1    4.151577478157143E-2    4.389150145962266E-2    4.238322229423507E-2    4.294579558950698E-2    9.476625410616659E-1   -1.852808077886636E-1
 8.033529562592810E7     9.463810876081364E-1   -1.923316262676182E-1    4.166086456471550E-2    4.428770083650186E-2    4.254985693682165E-2    4.334022870181743E-2    9.473193280019098E-1   -1.867162029977404E-1
 8.094824289723292E7     9.460387680624350E-1   -1.938410584139185E-1    4.181830275286545E-2    4.468691755310709E-2    4.272353031627535E-2    4.373688210508690E-2    9.469873005729316E-1   -1.881746831360872E-1
 8.156586687202743E7     9.456769294891936E-1   -1.953309950286378E-1    4.198000959109584E-2    4.509023177256277E-2    4.289924948923789E-2    4.413419343202549E-2    9.466603686184183E-1   -1.896302149922066E-1
 8.218820323291673E7     9.453149749662616E-1   -1.968750690235219E-1    4.214765219100070E-2    4.548952747916207E-2    4.308002904631678E-2    4.453299188385824E-2    9.463506288148513E-1   -1.911381998973370E-1
 8.281528793475981E7     9.449747308172111E-1   -1.983552878406668E-1    4.231805918336448E-2    4.589497864707439E-2    4.325912218493234E-2    4.493131695974217E-2    9.460162595335561E-1   -1.926269455320475E-1
 8.344715720674579E7     9.446470377238260E-1   -1.998940608086678E-1    4.249124352416994E-2    4.630164955552890E-2    4.344619946182489E-2    4.533096115006120E-2    9.456478100659911E-1   -1.941542601009300E-1
 8.408384755448765E7     9.442963812198947E-1   -2.014172159738929E-1    4.266552351502608E-2    4.670611890768430E-2    4.362949301501592E-2    4.573160146140311E-2    9.453189779654116E-1   -1.956886566642773E-1
 8.472539576213124E7     9.439154626688354E-1   -2.029808048492660E-1    4.283570565229194E-2    4.711600567745111E-2    4.381028104885753E-2    4.613695985774486E-2    9.449301132229252E-1   -1.972102985245162E-1
 8.537183889448020E7     9.435178315086119E-1   -2.045234518682475E-1    4.300618282368155E-2    4.753973970521289E-2    4.399245748393034E-2    4.655681470368855E-2    9.445737439212410E-1   -1.987482529276706E-1
 8.602321429913802E7     9.431337034597150E-1   -2.060812154698620E-1    4.319526135309019E-2    4.797115784769126E-2    4.419381202571566E-2    4.698398948877991E-2    9.442032775895951E-1   -2.003018672374021E-1
 8.667955960866481E7     9.427585014143067E-1   -2.076575449115584E-1    4.338969212227079E-2    4.839483911576988E-2    4.439974428992922E-2    4.740178840584961E-2    9.438357957663736E-1   -2.018612102360948E-1
 8.734091274275188E7     9.423744666944985E-1   -2.092614897238545E-1    4.357647739134683E-2    4.881902577736929E-2    4.459816831115965E-2    4.782459981418646E-2    9.434557271246198E-1   -2.034306768158616E-1
 8.800731191041334E7     9.419602254551372E-1   -2.108486548132696E-1    4.376955471628189E-2    4.925768030371807E-2    4.480131670930686E-2    4.825949888412546E-2    9.430426845863253E-1   -2.050037316786430E-1
 8.867879561219153E7     9.415609595404167E-1   -2.124516245034342E-1    4.397304018333702E-2    4.970245177187739E-2    4.501483716552036E-2    4.870329688720319E-2    9.426488418874464E-1   -2.065865668545750E-1
 8.935540264238395E7     9.411618734498548E-1   -2.140720580568647E-1    4.419632663804016E-2    5.014970290041167E-2    4.524712734283657E-2    4.914589855106613E-2    9.422687051598158E-1   -2.081803807807786E-1
 9.003717209128250E7     9.407696442240630E-1   -2.156972126015596E-1    4.440803814827902E-2    5.058071361950904E-2    4.546161380318615E-2    4.957738744535048E-2    9.418788964893761E-1   -2.097836493093294E-1
 9.072414334743266E7     9.403521265256610E-1   -2.173430093087344E-1    4.463816580342788E-2    5.101784506637157E-2    4.570784426085564E-2    5.001012216645627E-2    9.415071134817552E-1   -2.114352697097475E-1
 9.141635609990983E7     9.399302384859862E-1   -2.190293315828889E-1    4.486522924959731E-2    5.145450247648615E-2    4.594674850453084E-2    5.044589610758158E-2    9.410945083856388E-1   -2.130825538183290E-1
 9.211385034061028E7     9.395187162057819E-1   -2.206981485331108E-1    4.510009027052874E-2    5.189877088029209E-2    4.619331272861801E-2    5.088453676262420E-2    9.406626814489562E-1   -2.147420005992979E-1
 9.281666636656430E7     9.390763985792698E-1   -2.223883361026666E-1    4.534406150540458E-2    5.234317019573196E-2    4.644823071128221E-2    5.132634802236190E-2    9.402639299634860E-1   -2.164534905731697E-1
 9.352484478226222E7     9.386336515605223E-1   -2.241092984910161E-1    4.559063921239905E-2    5.277934586657473E-2    4.670105443526693E-2    5.175870694907170E-2    9.398227618739721E-1   -2.181345843679567E-1
 9.423842650200106E7     9.381910770191615E-1   -2.258408092693077E-1    4.583658071391336E-2    5.321431732784682E-2    4.695457533355576E-2    5.219039448578163E-2    9.393587922025153E-1   -2.198349749219313E-1
 9.495745275224906E7     9.377188119803327E-1   -2.275778765138400E-1    4.607923281948395E-2    5.364979662616134E-2    4.721078082372358E-2    5.262566550750403E-2    9.389398963183577E-1   -2.215718123297892E-1
 9.568196507402541E7     9.372174974348400E-1   -2.293391465627082E-1    4.632630021084243E-2    5.409513401362070E-2    4.746462856464304E-2    5.306437022775264E-2    9.384455513335104E-1   -2.232872975862031E-1
 9.641200532530291E7     9.367270027741693E-1   -2.311141554603363E-1    4.657467512149140E-2    5.454427120128265E-2    4.771733321788908E-2    5.350573510032827E-2    9.379526824476991E-1   -2.250386786143027E-1
 9.714761568342420E7     9.362258329791228E-1   -2.328757450764268E-1    4.682124181994654E-2    5.499851587292728E-2    4.797118986363504E-2    5.395800105845728E-2    9.374557006379555E-1   -2.267913142888226E-1
 9.788883864753923E7     9.356953452219948E-1   -2.346672845482733E-1    4.707858552126314E-2    5.545868354478469E-2    4.823586019989123E-2    5.441704731119849E-2    9.369443614374117E-1   -2.285478113412246E-1
 9.863571704106140E7     9.351696587688177E-1   -2.364853766490673E-1    4.734016043838224E-2    5.592211744134513E-2    4.850370478411711E-2    5.487513777311195E-2    9.364509137036214E-1   -2.303187746523832E-1
 9.938829401413949E7     9.346047703017022E-1   -2.382840981370038E-1    4.759809410994925E-2    5.638794398853597E-2    4.876874003071635E-2    5.533880240458809E-2    9.359261209363441E-1   -2.321070032746557E-1
 1.001466130461536E8     9.340745425757018E-1   -2.401268675179617E-1    4.786619726157328E-2    5.687029943298738E-2    4.904086313391384E-2    5.581784714226316E-2    9.353776911109694E-1   -2.338849090713767E-1
 1.009107179482240E8     9.334936622631125E-1   -2.419519388520531E-1    4.814202034488328E-2    5.735711198442252E-2    4.932752072158661E-2    5.630539404372189E-2    9.348489535868479E-1   -2.356893150402086E-1
 1.016806528657447E8     9.328929002800453E-1   -2.437949362125685E-1    4.843756238518535E-2    5.784785745044758E-2    4.962837319887155E-2    5.679178920181572E-2    9.343434214919976E-1   -2.374896789422749E-1
 1.024564622809335E8     9.322668725865402E-1   -2.456609031454967E-1    4.873821964397691E-2    5.833983404105737E-2    4.993498760240369E-2    5.727751991718270E-2    9.338034067954670E-1   -2.393378821713464E-1
 1.032381910153997E8     9.316795065114607E-1   -2.475305828702809E-1    4.905045378876580E-2    5.883146280814713E-2    5.025594309848917E-2    5.776353297176776E-2    9.332466940667058E-1   -2.411667218022306E-1
 1.040258842327368E8     9.310596217933665E-1   -2.494297545433036E-1    4.937831057126370E-2    5.931116326779994E-2    5.058382774177776E-2    5.823852828533024E-2    9.326613916156182E-1   -2.430233937119945E-1
 1.048195874411304E8     9.304194754546704E-1   -2.513406483035264E-1    4.970091779328821E-2    5.978455600029785E-2    5.090877261728065E-2    5.870909904916648E-2    9.320821779832960E-1   -2.448767658799807E-1
 1.056193464959857E8     9.297485924538361E-1   -2.532341473230001E-1    5.002082788041502E-2    6.025967508598232E-2    5.123110582579381E-2    5.918167171533848E-2    9.314999566201111E-1   -2.467647515666631E-1
 1.064252076025801E8     9.290959897104669E-1   -2.551665335642861E-1    5.033589481885054E-2    6.073988235414680E-2    5.155043332575918E-2    5.965504495026156E-2    9.309443853829615E-1   -2.486571372919251E-1
 1.072372173187304E8     9.284350182023081E-1   -2.570724294234014E-1    5.065237147382898E-2    6.123339727960394E-2    5.186888479750031E-2    6.015066836649824E-2    9.303294368466812E-1   -2.505979799048301E-1
 1.080554225574824E8     9.277176380881027E-1   -2.590462674677261E-1    5.098460412285215E-2    6.173144003239564E-2    5.220133571064923E-2    6.064630910127355E-2    9.297247114587074E-1   -2.525379266288420E-1
 1.088798705898232E8     9.270063551692020E-1   -2.609650827009242E-1    5.131892203464938E-2    6.223841024965469E-2    5.254149837388451E-2    6.114781972129760E-2    9.291050893791954E-1   -2.544903475342618E-1
 1.097106090474096E8     9.263036217887740E-1   -2.629082743561104E-1    5.167636530012134E-2    6.274984852528953E-2    5.289293289637176E-2    6.165971960134880E-2    9.284594213708479E-1   -2.564835332722860E-1
 1.105476859253232E8     9.255861408848663E-1   -2.648483800857407E-1    5.204779487149511E-2    6.325011134539447E-2    5.326642435901283E-2    6.215733457321163E-2    9.278347865211006E-1   -2.584502893873825E-1
 1.113911495848395E8     9.249100179389508E-1   -2.668355335436144E-1    5.241395349659164E-2    6.374034836525498E-2    5.363476506236423E-2    6.264653088233983E-2    9.271670017987075E-1   -2.604793057549685E-1
 1.122410487562254E8     9.242331765680010E-1   -2.688498492858779E-1    5.277419069353040E-2    6.424294385839641E-2    5.400008720522265E-2    6.314000880100810E-2    9.265213314115857E-1   -2.624934735455950E-1
 1.130974325415529E8     9.235274243203117E-1   -2.708932181865732E-1    5.314026654615879E-2    6.475344287908361E-2    5.436291511166249E-2    6.364620122630610E-2    9.258200476505714E-1   -2.645340230147786E-1
 1.139603504175348E8     9.228004965487252E-1   -2.729646511997378E-1    5.351963529643766E-2    6.526747889007035E-2    5.474614790005097E-2    6.415663159068780E-2    9.251339087480862E-1   -2.665766649299414E-1
 1.148298522383858E8     9.220394124412351E-1   -2.750302113764992E-1    5.390021441560178E-2    6.577821931553940E-2    5.512611942681643E-2    6.466302750180636E-2    9.244142430719451E-1   -2.686460265608631E-1
 1.157059882387014E8     9.212966798556805E-1   -2.771236004709989E-1    5.428156904863092E-2    6.629884722473958E-2    5.551042067410074E-2    6.518004815489768E-2    9.236826988208268E-1   -2.707221547814024E-1
 1.165888090363587E8     9.205112906938635E-1   -2.792618103989162E-1    5.467637391431383E-2    6.681843317688425E-2    5.589731218130639E-2    6.569746600186051E-2    9.229291979706080E-1   -2.728275332788752E-1
 1.174783656354443E8     9.197228108015282E-1   -2.814073402945193E-1    5.507673472054102E-2    6.734005119957517E-2    5.629503103275474E-2    6.621348369551502E-2    9.221596929645322E-1   -2.749417770055651E-1
 1.183747094291968E8     9.189112074038051E-1   -2.835480238547408E-1    5.547882070733074E-2    6.786179261603334E-2    5.669213579883320E-2    6.673718840639836E-2    9.214007677974804E-1   -2.770812639524864E-1
 1.192778922029803E8     9.181340050897048E-1   -2.857107136141250E-1    5.588174147658093E-2    6.839986045149760E-2    5.709787921175741E-2    6.727253370443108E-2    9.206295617319417E-1   -2.792211106425005E-1
 1.201879661372721E8     9.173082316670486E-1   -2.879363819215108E-1    5.630706127192553E-2    6.893875381190254E-2    5.752299801282087E-2    6.781099346786000E-2    9.198451276966927E-1   -2.813874939379896E-1
 1.211049838106809E8     9.164690298261032E-1   -2.901457062979971E-1    5.674711902994366E-2    6.946484345901893E-2    5.796523475903015E-2    6.833048161617999E-2    9.190222024387971E-1   -2.835415867459323E-1
 1.220289982029829E8     9.156662006251497E-1   -2.923559366851233E-1    5.716896276431902E-2    6.997830533734541E-2    5.838774797636893E-2    6.883753499659268E-2    9.182168764516432E-1   -2.857065954057453E-1
 1.229600626981811E8     9.148628774496222E-1   -2.946307745228740E-1    5.757193853529377E-2    7.050453762362664E-2    5.879470074670406E-2    6.935856682648599E-2    9.174156839113332E-1   -2.878993064935297E-1
 1.238982310875929E8     9.140288385361625E-1   -2.969431110993874E-1    5.797593505178737E-2    7.106657462988304E-2    5.919886590239816E-2    6.991527695424007E-2    9.166002432662922E-1   -2.901309969363509E-1
 1.248435575729559E8     9.131644134687056E-1   -2.993100950263110E-1    5.841296905227269E-2    7.164177202154226E-2    5.963371281210676E-2    7.048990843389198E-2    9.157404403492962E-1   -2.923708466268182E-1
 1.257960967695579E8     9.122549403853010E-1   -3.016674976898446E-1    5.885431637172947E-2    7.219913468795187E-2    6.006487092889755E-2    7.104139062456750E-2    9.148668830626858E-1   -2.946121731213515E-1
 1.267559037093956E8     9.113398479777800E-1   -3.040473187145815E-1    5.929073880602744E-2    7.275696912598346E-2    6.050639274484090E-2    7.159210464962226E-2    9.140301422495699E-1   -2.968553810223419E-1
 1.277230338443520E8     9.104122102666149E-1   -3.064706508919970E-1    5.972177617323270E-2    7.335140037588191E-2    6.093836700647032E-2    7.218280460884886E-2    9.132031591851981E-1   -2.991681872559229E-1
 1.286975430493991E8     9.094573517977084E-1   -3.089111640719029E-1    6.018009394862326E-2    7.397128084398667E-2    6.140246958349094E-2    7.279585004725492E-2    9.123220360636392E-1   -3.015256925905255E-1
 1.296794876258291E8     9.084644341198815E-1   -3.113587074659855E-1    6.067572172488354E-2    7.458484345736628E-2    6.189476294973108E-2    7.340355415801969E-2    9.113914838751287E-1   -3.038882430701045E-1
 1.306689243045034E8     9.074566096450519E-1   -3.137921744572763E-1    6.117819454715622E-2    7.519192125253384E-2    6.240207375927750E-2    7.400156949055038E-2    9.104522030211825E-1   -3.062342453575191E-1
 1.316659102491341E8     9.064517587273347E-1   -3.162470408664863E-1    6.168517662020680E-2    7.580092374757408E-2    6.291227499146791E-2    7.460048335999084E-2    9.095091044592488E-1   -3.086151136445166E-1
 1.326705030595824E8     9.054530514310052E-1   -3.187054057643836E-1    6.220375538527675E-2    7.641973827102343E-2    6.343264030041730E-2    7.521064539673006E-2    9.085331949315161E-1   -3.110062209037983E-1
 1.336827607751903E8     9.044448849969677E-1   -3.212046406139648E-1    6.274109511884719E-2    7.703508010344411E-2    6.397746538916557E-2    7.581836898933110E-2    9.075516766439388E-1   -3.134041430619560E-1
 1.347027418781318E8     9.034188380290792E-1   -3.237456053560240E-1    6.328503093840931E-2    7.764313926455033E-2    6.452548083783688E-2    7.641909182240560E-2    9.065626455438094E-1   -3.158274865314393E-1
 1.357305052967905E8     9.023564313289681E-1   -3.262837143751939E-1    6.383060820338764E-2    7.824834298745993E-2    6.507134845044567E-2    7.701052444914128E-2    9.055476965489044E-1   -3.182590102995874E-1
 1.367661104091667E8     9.012987338266545E-1   -3.288522818542762E-1    6.437130223198348E-2    7.886090007574267E-2    6.561815650147956E-2    7.761418443923535E-2    9.044987882647624E-1   -3.206953193107605E-1
 1.378096170463071E8     9.002101995073588E-1   -3.314622877523847E-1    6.492145937781214E-2    7.947962235418139E-2    6.617345876304946E-2    7.822374659455006E-2    9.034575779340914E-1   -3.231371909025491E-1
 1.388610854957592E8     8.990844102171855E-1   -3.340802844316664E-1    6.547909071062760E-2    8.010713775027932E-2    6.673538214667923E-2    7.884032978044139E-2    9.024351729186496E-1   -3.255872368788163E-1
 1.399205765050585E8     8.979334217996358E-1   -3.366839074169414E-1    6.603974574726655E-2    8.073248008304523E-2    6.730123826970649E-2    7.945804679194719E-2    9.014081731028868E-1   -3.280670708704923E-1
 1.409881512852336E8     8.967921139534746E-1   -3.393129966516956E-1    6.660134852901765E-2    8.137610517969648E-2    6.787330761659958E-2    8.008615517255190E-2    9.003295165156173E-1   -3.306149197780641E-1
 1.420638715143470E8     8.956325433826795E-1   -3.419568057232911E-1    6.716993209655511E-2    8.203618164023298E-2    6.845090404197841E-2    8.073606466251347E-2    8.992521861739575E-1   -3.331493048159581E-1
 1.431477993410541E8     8.944739209323881E-1   -3.446068162630602E-1    6.775205459887731E-2    8.270755532641610E-2    6.903741521226396E-2    8.139733112689490E-2    8.981704443705266E-1   -3.356913963979666E-1
 1.442399973881980E8     8.933049151276372E-1   -3.472925208710953E-1    6.834346827882493E-2    8.339278387036586E-2    6.964100529449273E-2    8.207538207401234E-2    8.970477743859862E-1   -3.383243899736153E-1
 1.453405287564251E8     8.920807388703234E-1   -3.500304736700165E-1    6.896716128966728E-2    8.410366596393497E-2    7.027187792840721E-2    8.277236203423158E-2    8.958674639807234E-1   -3.409410919405985E-1
 1.464494570278296E8     8.908473578210677E-1   -3.527510615106176E-1    6.962021068232702E-2    8.480608620724477E-2    7.093441923815806E-2    8.346518499217809E-2    8.946778550482470E-1   -3.435629567924179E-1
 1.475668462696298E8     8.895750523658228E-1   -3.555203686637739E-1    7.029273397441158E-2    8.549995664346664E-2    7.161086398767127E-2    8.415069056572501E-2    8.934511602322979E-1   -3.461944769740197E-1
 1.486927610378684E8     8.882577866531818E-1   -3.582875147316482E-1    7.098221837723584E-2    8.618844636321940E-2    7.230434761158913E-2    8.483062047158237E-2    8.922080897995616E-1   -3.488401907825959E-1
 1.498272663811400E8     8.869426246836559E-1   -3.610666711408446E-1    7.167632072791190E-2    8.687121191145095E-2    7.300484598184516E-2    8.550853277846622E-2    8.909333814945313E-1   -3.515263743921822E-1
 1.509704278443526E8     8.856081216060120E-1   -3.638598999498211E-1    7.236764410244813E-2    8.755437101207542E-2    7.370452095852004E-2    8.618537109397888E-2    8.896181735334033E-1   -3.542250481594051E-1
 1.521223114725131E8     8.842546213322918E-1   -3.666548028031950E-1    7.305596669992949E-2    8.825920049023868E-2    7.440485267735444E-2    8.688182523270024E-2    8.882904928187889E-1   -3.568970860625568E-1
 1.532829838145407E8     8.828699332653023E-1   -3.694976530522219E-1    7.376950446529457E-2    8.897505106393447E-2    7.512839029659400E-2    8.759361250472121E-2    8.869999271306681E-1   -3.595837564934671E-1
 1.544525119271165E8     8.814701775511147E-1   -3.723701386489107E-1    7.450608958493694E-2    8.971570592774578E-2    7.588182205322826E-2    8.831052718418919E-2    8.856957349726421E-1   -3.623119249686484E-1
 1.556309633785520E8     8.800317991549897E-1   -3.752711714255372E-1    7.525990471182120E-2    9.043890525369234E-2    7.666507154719346E-2    8.901849661917967E-2    8.843770962948450E-1   -3.651038510641380E-1
 1.568184062526983E8     8.785856972734792E-1   -3.781637052676280E-1    7.600436505191796E-2    9.117846359006571E-2    7.745365518826772E-2    8.971966629194718E-2    8.830241619845631E-1   -3.678876243526892E-1
 1.580149091528745E8     8.771069332093300E-1   -3.811002621741724E-1    7.675668008554068E-2    9.195483992879076E-2    7.826150766961729E-2    9.044707043253954E-2    8.816554011024089E-1   -3.706540403818696E-1
 1.592205412058353E8     8.755947520328757E-1   -3.840271322848414E-1    7.754937079804534E-2    9.272996682683401E-2    7.911470340131661E-2    9.117854917778598E-2    8.802599670421208E-1   -3.734518153497347E-1
 1.604353720657634E8     8.740588440050455E-1   -3.868982443311872E-1    7.836221516526361E-2    9.349939261900676E-2    7.999743684981600E-2    9.189987500448289E-2    8.788273479325330E-1   -3.763023151569521E-1
 1.616594719182909E8     8.725252579718353E-1   -3.898221884928413E-1    7.919954152247190E-2    9.426045973202328E-2    8.089068166254246E-2    9.260990641303993E-2    8.773468831991654E-1   -3.791862288179991E-1
 1.628929114845590E8     8.709657641481495E-1   -3.927006089688868E-1    8.004251374861805E-2    9.501112382613482E-2    8.179639457640075E-2    9.331150451931763E-2    8.758183262812175E-1   -3.820709512684110E-1
 1.641357620253014E8     8.694706877995384E-1   -3.954215971415102E-1    8.088423533850302E-2    9.575328440338485E-2    8.268606505876987E-2    9.402257349564516E-2    8.742597237150614E-1   -3.849900635798984E-1
 1.653880953449593E8     8.678792338099638E-1   -3.983885228257071E-1    8.175527594407270E-2    9.648255437661843E-2    8.357629611045790E-2    9.473877880676057E-2    8.726723860740914E-1   -3.879015572613930E-1
 1.666499837958347E8     8.662346394228850E-1   -4.013962257557069E-1    8.265030187832391E-2    9.721475052163905E-2    8.448828712959076E-2    9.545984982568792E-2    8.710596184655648E-1   -3.908672569666265E-1
 1.679215002822650E8     8.645585591930746E-1   -4.044692009888121E-1    8.356566405579495E-2    9.795549451887592E-2    8.541024681003748E-2    9.619471082716238E-2    8.694073086341059E-1   -3.938386219549617E-1
 1.692027182648404E8     8.628342758873774E-1   -4.075595231502812E-1    8.450659874619512E-2    9.870169762534714E-2    8.635772603983349E-2    9.693723698132638E-2    8.677124347542547E-1   -3.968280111911176E-1
 1.704937117646426E8     8.610425116238625E-1   -4.106844660463644E-1    8.546377893140303E-2    9.945689464144389E-2    8.733365149528428E-2    9.767849571267043E-2    8.660131751455645E-1   -3.998410249313522E-1
 1.717945553675260E8     8.592536606024843E-1   -4.137993550940024E-1    8.643751706486820E-2    1.001945394788811E-1    8.833490907433880E-2    9.840270358337919E-2    8.642793097708829E-1   -4.028706443236397E-1
 1.731053242284249E8     8.574195883416813E-1   -4.169167714827747E-1    8.740224697875557E-2    1.009334502105113E-1    8.932456667119519E-2    9.912432464705238E-2    8.624966830178011E-1   -4.059180193090485E-1
 1.744260940756933E8     8.555527659414460E-1   -4.200728554221861E-1    8.839044950347218E-2    1.016844755104455E-1    9.033699085591099E-2    9.985604626768597E-2    8.606781755997591E-1   -4.089943394799869E-1
 1.757569412154842E8     8.536864995854350E-1   -4.232858089528657E-1    8.935750733178295E-2    1.024227867802563E-1    9.131950444586742E-2    1.005770943630088E-1    8.587810963318259E-1   -4.120341857324737E-1
 1.770979425361561E8     8.517063053823758E-1   -4.264910727211545E-1    9.031850563685112E-2    1.032144246919874E-1    9.230024362958013E-2    1.013508939032429E-1    8.569191400400975E-1   -4.150627323497053E-1
 1.784491755127131E8     8.496239148551773E-1   -4.296728075845148E-1    9.132044249266233E-2    1.040535897037146E-1    9.332282965552817E-2    1.021701134411128E-1    8.550251617484440E-1   -4.181624724816882E-1
 1.798107182112848E8     8.475180323500452E-1   -4.328246117305581E-1    9.237901972450087E-2    1.049042158483011E-1    9.440009836022797E-2    1.030025552998274E-1    8.530899830328144E-1   -4.212922987875088E-1
 1.811826492936349E8     8.453470022574553E-1   -4.359747854747952E-1    9.346962903485199E-2    1.057483741077203E-1    9.549564640031379E-2    1.038359952546154E-1    8.510875264241540E-1   -4.243989220091263E-1
 1.825650480217040E8     8.431769498830451E-1   -4.390982108622827E-1    9.461348160090595E-2    1.065857969444830E-1    9.666441621452503E-2    1.046513861609658E-1    8.490679832366583E-1   -4.275792956712098E-1
 1.839579942621904E8     8.409746758442183E-1   -4.422281161737870E-1    9.578848659998027E-2    1.074039367921509E-1    9.785109094687580E-2    1.054473030490616E-1    8.469680719253031E-1   -4.307568301750100E-1
 1.853615684911660E8     8.387813179014061E-1   -4.453300889153767E-1    9.696967742835363E-2    1.082119733989901E-1    9.904888241267053E-2    1.062311085577934E-1    8.448673572978067E-1   -4.339359053160812E-1
 1.867758517987237E8     8.365842098979911E-1   -4.484951360701357E-1    9.814306505239807E-2    1.090034163008156E-1    1.002272080902790E-1    1.070038612447980E-1    8.427032202438302E-1   -4.372027110500499E-1
 1.882009258936609E8     8.343419674182831E-1   -4.516878096099326E-1    9.932879723218320E-2    1.098451991300330E-1    1.014228108519598E-1    1.078215842788220E-1    8.404703077219182E-1   -4.403995744972562E-1
 1.896368731082037E8     8.319877410694667E-1   -4.549271019391576E-1    1.005390067361312E-1    1.106786164991578E-1    1.026327915042522E-1    1.086399493634230E-1    8.381544548388591E-1   -4.436788207104373E-1
 1.910837764027621E8     8.295690948065044E-1   -4.581879171940847E-1    1.017667117397954E-1    1.115374574644412E-1    1.038629049316695E-1    1.094784813871204E-1    8.358473993362667E-1   -4.468888856325535E-1
 1.925417193707203E8     8.270578356238935E-1   -4.614765887490007E-1    1.030100098906331E-1    1.124019290055340E-1    1.051141238786141E-1    1.103271354399810E-1    8.334684126492018E-1   -4.501613753418635E-1
 1.940107862432706E8     8.244140954412665E-1   -4.647579349682144E-1    1.042409512166737E-1    1.132769510886029E-1    1.063478604574180E-1    1.111917362708319E-1    8.310207180163383E-1   -4.534635512996701E-1
 1.954910618942780E8     8.216497586024256E-1   -4.679847231668259E-1    1.054568674211613E-1    1.142509921007120E-1    1.075625640518216E-1    1.121560665835123E-1    8.284964723732584E-1   -4.567040132325940E-1
 1.969826318451810E8     8.188734335041097E-1   -4.711677095163282E-1    1.068110468752049E-1    1.153154209602264E-1    1.089129769942634E-1    1.132093796797402E-1    8.260254534010394E-1   -4.598947602703429E-1
 1.984855822699381E8     8.159901266816172E-1   -4.742355961125390E-1    1.082020400688343E-1    1.163574983943956E-1    1.103038846947295E-1    1.142481777586866E-1    8.235342792372714E-1   -4.632026359495062E-1
 2.000000000000000E8     8.131275748916260E-1   -4.772116072898592E-1    1.096436871913800E-1    1.174755513115105E-1    1.117451760106679E-1    1.153602311948356E-1    8.209204880969995E-1   -4.665029025786257E-1
