#  HZ   S   RI   R     50.00 
! Rohde & Schwarz Vector Network Analyzer 
! Rohde-Schwarz,ZNLE6-2Port,1323001256200024,1.71.1.10-23.02.1.238
! Created: UTC 4/11/2025, 6:45:10 AM
! freq[Hz]                re:S11                  im:S11                  re:S21                  im:S21                  re:S12                  im:S12                  re:S22                  im:S22
 1.000000000000000E5     8.833905965705050E-1    8.432689369956516E-2    1.179810151281983E-1   -8.488780985596529E-2    1.181303711163307E-1   -8.498571775426707E-2    8.830840775056695E-1    8.417046970263690E-2
 1.007629862646662E5     8.836301429223916E-1    8.399066863132160E-2    1.177317873329866E-1   -8.457631640766555E-2    1.178856467430135E-1   -8.467473648572740E-2    8.833274412960465E-1    8.383923825446157E-2
 1.015317940097331E5     8.838745292219748E-1    8.369910877908412E-2    1.174872625517454E-1   -8.426720333716949E-2    1.176402909130110E-1   -8.436459676914056E-2    8.835283287104921E-1    8.355017411551503E-2
 1.023064676522963E5     8.840963927366967E-1    8.339866531378679E-2    1.172464583384209E-1   -8.396227391504464E-2    1.173909051765694E-1   -8.405492839331828E-2    8.837866906760072E-1    8.324765741589658E-2
 1.030870519483485E5     8.842724202704140E-1    8.307040779770848E-2    1.169994599266213E-1   -8.365777769480426E-2    1.171465400135000E-1   -8.375412868982972E-2    8.840096185618752E-1    8.294411465144814E-2
 1.038735919953636E5     8.845037804281253E-1    8.276254917886477E-2    1.167528481693512E-1   -8.335610518568402E-2    1.169055485673236E-1   -8.345605552976861E-2    8.842658943540385E-1    8.264459192531601E-2
 1.046661332349037E5     8.847092795514250E-1    8.244667559636595E-2    1.165012561083213E-1   -8.305378947522564E-2    1.166639696845328E-1   -8.315438077466583E-2    8.845417698553332E-1    8.236087389454878E-2
 1.054647214552430E5     8.849850845187088E-1    8.215448545886581E-2    1.162660802748001E-1   -8.275767542755744E-2    1.164214567170083E-1   -8.286070500053656E-2    8.847602180408253E-1    8.206063952012353E-2
 1.062694027940149E5     8.852146802607957E-1    8.186040192407797E-2    1.160226980211156E-1   -8.246835341155653E-2    1.161826152284791E-1   -8.256417557305115E-2    8.849823499749435E-1    8.175670762405883E-2
 1.070802237408760E5     8.854321405425245E-1    8.156588459708410E-2    1.157821633770546E-1   -8.217216477425218E-2    1.159372131992913E-1   -8.227559977716853E-2    8.852321983227766E-1    8.148398804596127E-2
 1.078972311401927E5     8.856773062367513E-1    8.127637034660998E-2    1.155367250109516E-1   -8.188018844756323E-2    1.156957101385462E-1   -8.198381569454592E-2    8.854629077751743E-1    8.121202045351640E-2
 1.087204721937475E5     8.859340169946806E-1    8.098369287702738E-2    1.153006907772905E-1   -8.160132513181755E-2    1.154544987157285E-1   -8.169828973737162E-2    8.857213262922374E-1    8.091584046508396E-2
 1.095499944634658E5     8.861926662892765E-1    8.070738185310296E-2    1.150611225568329E-1   -8.131376344206952E-2    1.152136518678426E-1   -8.141243488730622E-2    8.859686041359601E-1    8.064117639632855E-2
 1.103858458741646E5     8.864285696370647E-1    8.041375191274747E-2    1.148125560368663E-1   -8.102827067019761E-2    1.149702102309025E-1   -8.113020828867974E-2    8.862094057190024E-1    8.033669370133729E-2
 1.112280747163201E5     8.866454888044929E-1    8.013078165540058E-2    1.145693855954663E-1   -8.074337671055876E-2    1.147267595105072E-1   -8.084701968711844E-2    8.864253704067934E-1    8.007297196799538E-2
 1.120767296488583E5     8.868784670060003E-1    7.984874685718661E-2    1.143243810126749E-1   -8.046339036322861E-2    1.144833445023235E-1   -8.056898629970141E-2    8.866445089802416E-1    7.978937232766081E-2
 1.129318597019661E5     8.870851396997773E-1    7.955478293967312E-2    1.140815459541491E-1   -8.018213905741724E-2    1.142381418014024E-1   -8.028673204890990E-2    8.869123243612003E-1    7.950307844555428E-2
 1.137935142799240E5     8.873383465742373E-1    7.930540722367567E-2    1.138417508566408E-1   -7.990945212501246E-2    1.139892596177735E-1   -8.000999691108632E-2    8.871477248901363E-1    7.922740306798359E-2
 1.146617431639607E5     8.875563955738203E-1    7.901853755971013E-2    1.135983811646353E-1   -7.964102873046455E-2    1.137471583898950E-1   -7.973436108762058E-2    8.873830313599606E-1    7.895820099962247E-2
 1.155365965151286E5     8.878082848157464E-1    7.874294382052995E-2    1.133585234618208E-1   -7.936706044898444E-2    1.135041348568146E-1   -7.946385173733399E-2    8.876314284428060E-1    7.868685853483211E-2
 1.164181248772018E5     8.880450305552817E-1    7.847797915635979E-2    1.131196892926052E-1   -7.909567741030772E-2    1.132599885905428E-1   -7.919588028061560E-2    8.878550614019076E-1    7.842893625425805E-2
 1.173063791795965E5     8.883133920692691E-1    7.823685517821426E-2    1.128727931342889E-1   -7.882763743631102E-2    1.130123350542390E-1   -7.892446137006513E-2    8.881050545910331E-1    7.814897562063640E-2
 1.182014107403141E5     8.885464019125550E-1    7.795478140351222E-2    1.126305667646358E-1   -7.856634059685161E-2    1.127717497537792E-1   -7.865264679547762E-2    8.883207851370276E-1    7.789791740736542E-2
 1.191032712689044E5     8.887648132724829E-1    7.768317764698263E-2    1.123798865374692E-1   -7.829654833830799E-2    1.125251338731264E-1   -7.839078601748477E-2    8.885545198752949E-1    7.760513038051037E-2
 1.200120128694542E5     8.890261982635016E-1    7.741434146705954E-2    1.121351609804892E-1   -7.803236909002767E-2    1.122808519559850E-1   -7.812131663231973E-2    8.887789170090911E-1    7.735905582135866E-2
 1.209276880435975E5     8.892487969296795E-1    7.716931585984034E-2    1.118935623251905E-1   -7.776768917857739E-2    1.120387948838369E-1   -7.786432213254398E-2    8.890349461328036E-1    7.710954809236743E-2
 1.218503496935483E5     8.894535006606613E-1    7.690345498522901E-2    1.116494570617824E-1   -7.750818547330313E-2    1.117918510541436E-1   -7.760408008534848E-2    8.893015352894229E-1    7.684903978735488E-2
 1.227800511251578E5     8.897252982807056E-1    7.664089193212693E-2    1.114092987180116E-1   -7.725510716412050E-2    1.115517851094105E-1   -7.734479361266880E-2    8.895426558187607E-1    7.659271778690183E-2
 1.237168460509929E5     8.899357723352771E-1    7.638256354467450E-2    1.111632935847836E-1   -7.699593065719675E-2    1.113060251468086E-1   -7.708318937468009E-2    8.897565453893650E-1    7.632813405137139E-2
 1.246607885934402E5     8.902002500841647E-1    7.612759754795635E-2    1.109183409696697E-1   -7.674210835947687E-2    1.110589476949911E-1   -7.683369301042078E-2    8.900177129926492E-1    7.607160788663667E-2
 1.256119332878327E5     8.904380579813383E-1    7.587653105602182E-2    1.106720730942119E-1   -7.648792697650290E-2    1.108190476516558E-1   -7.658079195258824E-2    8.902732081612749E-1    7.582236237258097E-2
 1.265703350856002E5     8.906542474936394E-1    7.562471119923869E-2    1.104255068298917E-1   -7.623715085406267E-2    1.105780980345721E-1   -7.632956769188071E-2    8.905156567352313E-1    7.556084529805678E-2
 1.275360493574453E5     8.909098341869306E-1    7.536727997642294E-2    1.101891263977240E-1   -7.599003503300997E-2    1.103314489713663E-1   -7.607737526391031E-2    8.907853274437776E-1    7.531075264743350E-2
 1.285091318965405E5     8.911396553548102E-1    7.512099774239017E-2    1.099443423321916E-1   -7.573941433752536E-2    1.100895172802472E-1   -7.583276551412857E-2    8.910390308526553E-1    7.506677374232210E-2
 1.294896389217529E5     8.913777860602666E-1    7.486605666590392E-2    1.096936883767740E-1   -7.549041583025802E-2    1.098385484489348E-1   -7.558312119312030E-2    8.912555581361357E-1    7.483631697444468E-2
 1.304776270808914E5     8.916109667363243E-1    7.464099298159704E-2    1.094515593538392E-1   -7.525105055115722E-2    1.095947639090849E-1   -7.533853097257469E-2    8.915308099221689E-1    7.459391548076921E-2
 1.314731534539810E5     8.918741908161965E-1    7.441292739303364E-2    1.092085189387336E-1   -7.500425182727551E-2    1.093489014424320E-1   -7.509296958868125E-2    8.917444200644618E-1    7.434459184157009E-2
 1.324762755565583E5     8.920992630042041E-1    7.415987904984499E-2    1.089597129209444E-1   -7.476181394911995E-2    1.091013625972693E-1   -7.484839779272252E-2    8.919826819757949E-1    7.409563740085504E-2
 1.334870513429962E5     8.923482046871312E-1    7.389986967073368E-2    1.087147442296182E-1   -7.452587523459696E-2    1.088620640289409E-1   -7.460946039681313E-2    8.922455983997691E-1    7.387097711588403E-2
 1.345055392098512E5     8.925600656338457E-1    7.367086938901751E-2    1.084683268396720E-1   -7.428301288617981E-2    1.086130924052090E-1   -7.436540293975034E-2    8.924578170517298E-1    7.361658098258765E-2
 1.355317979992373E5     8.928412802679293E-1    7.343387608069521E-2    1.082258824369157E-1   -7.404728224375520E-2    1.083665293533918E-1   -7.413196124431430E-2    8.927454046570370E-1    7.338834324944833E-2
 1.365658870022265E5     8.930748303025164E-1    7.319784563613717E-2    1.079793499095633E-1   -7.380651556985947E-2    1.081203457221779E-1   -7.389316147448056E-2    8.929987368964403E-1    7.315321156051491E-2
 1.376078659622731E5     8.933227549818474E-1    7.295233179909071E-2    1.077342318179592E-1   -7.357046549497261E-2    1.078696033589310E-1   -7.365389361805381E-2    8.932101757429554E-1    7.290136102950945E-2
 1.386577950786655E5     8.935616901978511E-1    7.271131184947742E-2    1.074913749186001E-1   -7.334160053537180E-2    1.076249943499491E-1   -7.342108494251184E-2    8.934376521965482E-1    7.266151219018553E-2
 1.397157350100044E5     8.938124883850849E-1    7.246909251893312E-2    1.072416684275749E-1   -7.310547530289190E-2    1.073724083797211E-1   -7.318834464389723E-2    8.936375740697453E-1    7.241922439148658E-2
 1.407817468777081E5     8.940523286712121E-1    7.223815452156304E-2    1.069958178366655E-1   -7.287272487447199E-2    1.071282396257270E-1   -7.295542411790415E-2    8.938871808216071E-1    7.219153619154756E-2
 1.418558922695422E5     8.943143595524210E-1    7.201584564984660E-2    1.067505620515031E-1   -7.264772754581617E-2    1.068807358122105E-1   -7.272402071487569E-2    8.941590715551597E-1    7.197373828483697E-2
 1.429382332431784E5     8.945486150964145E-1    7.178909934691041E-2    1.065043388468611E-1   -7.241069556486407E-2    1.066346783677884E-1   -7.249573825149240E-2    8.943989140887819E-1    7.174358877760262E-2
 1.440288323297804E5     8.948070674198410E-1    7.156518471790985E-2    1.062565795052242E-1   -7.218370470090993E-2    1.063888067012273E-1   -7.226068807818503E-2    8.946539323215703E-1    7.153374874250590E-2
 1.451277525376154E5     8.950469846594521E-1    7.133231594326442E-2    1.060146875112204E-1   -7.195936172982353E-2    1.061421000191102E-1   -7.203686667555488E-2    8.948860869166982E-1    7.130456605552839E-2
 1.462350573556962E5     8.952842978005324E-1    7.112343203644196E-2    1.057634500797062E-1   -7.173241448613368E-2    1.059028304821355E-1   -7.181580822443213E-2    8.951167659421687E-1    7.107502791410318E-2
 1.473508107574468E5     8.955004187959668E-1    7.088826020878880E-2    1.055167563554434E-1   -7.150633126210647E-2    1.056470579259208E-1   -7.158931408144138E-2    8.953563375523818E-1    7.083513451745274E-2
 1.484750772044004E5     8.957440445012982E-1    7.065292159022081E-2    1.052668418055956E-1   -7.128122605688793E-2    1.054037923515140E-1   -7.136344171015495E-2    8.955781799061244E-1    7.062916107695000E-2
 1.496079216499225E5     8.960196438242539E-1    7.042796740923012E-2    1.050244390054937E-1   -7.106279174204842E-2    1.051580564832022E-1   -7.113903085709063E-2    8.958545433306605E-1    7.039676392629086E-2
 1.507494095429637E5     8.962282852040586E-1    7.021015522707920E-2    1.047774834925547E-1   -7.084096089466339E-2    1.049060074345339E-1   -7.092088492489199E-2    8.960988609106623E-1    7.018454151858643E-2
 1.518996068318418E5     8.964789238111019E-1    6.997988739984848E-2    1.045289655994575E-1   -7.061945980503923E-2    1.046558126040234E-1   -7.069698695965146E-2    8.963476189185874E-1    6.995501474966090E-2
 1.530585799680507E5     8.966929120356173E-1    6.977394815111651E-2    1.042826174048302E-1   -7.039364321384815E-2    1.044142348477483E-1   -7.047652081437661E-2    8.965826027321940E-1    6.972746174024691E-2
 1.542263959101001E5     8.969607619105390E-1    6.954742120302489E-2    1.040361530134401E-1   -7.018404092710119E-2    1.041634578412890E-1   -7.026027397859284E-2    8.967939782069766E-1    6.951645514040605E-2
 1.554031221273835E5     8.971990702839664E-1    6.932372528601650E-2    1.037894149966587E-1   -6.996596823223875E-2    1.039163474091809E-1   -7.004275952395966E-2    8.970722874799256E-1    6.929270125925394E-2
 1.565888266040779E5     8.974649823264791E-1    6.911510440006523E-2    1.035464562022235E-1   -6.975186833954254E-2    1.036694732778115E-1   -6.982215166931439E-2    8.972933522119415E-1    6.908206562288460E-2
 1.577835778430689E5     8.977148664807708E-1    6.889442773737273E-2    1.032972171076434E-1   -6.953440489488169E-2    1.034249845483781E-1   -6.960739945849206E-2    8.975371600079948E-1    6.886086123527609E-2
 1.589874448699104E5     8.979159854914145E-1    6.866808422653246E-2    1.030481027097472E-1   -6.932041882884168E-2    1.031769984760592E-1   -6.939536669407087E-2    8.978092744049486E-1    6.865261965383281E-2
 1.602004972368116E5     8.981660646942730E-1    6.846730498587229E-2    1.028001338706389E-1   -6.910325919948353E-2    1.029381332454833E-1   -6.918415382057129E-2    8.980540814350221E-1    6.843590079172866E-2
 1.614228050266550E5     8.984291119937343E-1    6.825920814080189E-2    1.025519914836375E-1   -6.889273383597107E-2    1.026888077942465E-1   -6.896864469216796E-2    8.982926043162237E-1    6.823189413163759E-2
 1.626544388570473E5     8.986527894050823E-1    6.802964106852837E-2    1.023016583396398E-1   -6.867917080085995E-2    1.024396768327882E-1   -6.876098291519814E-2    8.985458460719246E-1    6.799719472457917E-2
 1.638954698843964E5     8.988898830409441E-1    6.781765965985816E-2    1.020532529051752E-1   -6.846750685101893E-2    1.021930487887220E-1   -6.855245271308248E-2    8.987952529350288E-1    6.780342136482648E-2
 1.651459698080244E5     8.991577552162066E-1    6.760529866402655E-2    1.018064277055941E-1   -6.825861375402019E-2    1.019416813201195E-1   -6.834018145977958E-2    8.990577340217518E-1    6.759015898912456E-2
 1.664060108743095E5     8.994265133441010E-1    6.740959421303731E-2    1.015629137889550E-1   -6.805117859286611E-2    1.016922520750277E-1   -6.812546512567885E-2    8.992498225388459E-1    6.737865340651240E-2
 1.676756658808590E5     8.996253204697567E-1    6.719027094547940E-2    1.013138231971505E-1   -6.784205740938982E-2    1.014440196557671E-1   -6.791621171323715E-2    8.995184354391310E-1    6.717266428838001E-2
 1.689550081807175E5     8.998950096576378E-1    6.698617046445698E-2    1.010664270071227E-1   -6.763457958217051E-2    1.011997973928714E-1   -6.771209068976436E-2    8.997503917493493E-1    6.697123296203625E-2
 1.702441116866020E5     9.001416453763824E-1    6.677616857104716E-2    1.008163012793637E-1   -6.742938083850711E-2    1.009528769216403E-1   -6.750249901324837E-2    9.000078925146611E-1    6.675863677836930E-2
 1.715430508751738E5     9.003891120578128E-1    6.658162143524998E-2    1.005730778113529E-1   -6.722174555525955E-2    1.007050029858283E-1   -6.730019253414203E-2    9.002569463746577E-1    6.655513812101074E-2
 1.728519007913403E5     9.006606644526769E-1    6.637509258682799E-2    1.003265791484115E-1   -6.702032628561372E-2    1.004602888082922E-1   -6.709534130702645E-2    9.005041322002253E-1    6.634846893696750E-2
 1.741707370525927E5     9.009058816882805E-1    6.615339940849316E-2    1.000836674894401E-1   -6.681280654119594E-2    1.002099804727957E-1   -6.689140518519236E-2    9.007272245337287E-1    6.615552030416011E-2
 1.754996358533718E5     9.011446943772584E-1    6.596552037171093E-2    9.983867914488130E-2   -6.660835013169064E-2    9.995903809250307E-2   -6.668894311378391E-2    9.009638080478997E-1    6.593006094593384E-2
 1.768386739694722E5     9.013780226140634E-1    6.575976825079857E-2    9.958902242027053E-2   -6.640926240978109E-2    9.971284245125986E-2   -6.648355209964323E-2    9.012324197067881E-1    6.572893527809841E-2
 1.781879287624771E5     9.016282567422064E-1    6.554423129159964E-2    9.933552176159091E-2   -6.620404399126781E-2    9.946849710136270E-2   -6.627942177127699E-2    9.014740934993178E-1    6.552871780514553E-2
 1.795474781842276E5     9.018730938145518E-1    6.535166084763604E-2    9.909175807178096E-2   -6.600355953713288E-2    9.921870785951697E-2   -6.607666029114873E-2    9.017142108217385E-1    6.533329358710313E-2
 1.809174007813277E5     9.021265839637334E-1    6.514573711184762E-2    9.884987141952914E-2   -6.580044299435153E-2    9.897495096128603E-2   -6.587811919213044E-2    9.019546476577333E-1    6.512961622416127E-2
 1.822977756996804E5     9.023679378474212E-1    6.493930144631448E-2    9.860319461395212E-2   -6.560192292329138E-2    9.872772579470504E-2   -6.567520797885544E-2    9.021875346558050E-1    6.494042664150773E-2
 1.836886826890609E5     9.026017992563026E-1    6.475412828473330E-2    9.834997450308861E-2   -6.540214777128991E-2    9.848377922300394E-2   -6.547544976511058E-2    9.024488459532563E-1    6.472630401958891E-2
 1.850902021077247E5     9.028544290922397E-1    6.455365075947557E-2    9.810395739066423E-2   -6.520231737086218E-2    9.823070322055732E-2   -6.527732588035616E-2    9.026790371874617E-1    6.453157946712434E-2
 1.865024149270491E5     9.030865348217229E-1    6.434490032720563E-2    9.785922350648660E-2   -6.500566932291092E-2    9.798627036208103E-2   -6.508016636634677E-2    9.029548197036646E-1    6.432862331266416E-2
 1.879254027362132E5     9.033422347089309E-1    6.414775519293747E-2    9.761523337401065E-2   -6.480709818285499E-2    9.774293529618025E-2   -6.487979750364904E-2    9.032168523576710E-1    6.413523399126464E-2
 1.893592477469092E5     9.035556458447359E-1    6.395037892946817E-2    9.736228564306926E-2   -6.459199665504944E-2    9.751527209506651E-2   -6.467333521661954E-2    9.034359565134099E-1    6.394630397372461E-2
 1.908040327980933E5     9.038203222838083E-1    6.375208137797206E-2    9.711974821353465E-2   -6.441274798802267E-2    9.724777041259847E-2   -6.448475202456913E-2    9.036708306185601E-1    6.374498050580457E-2
 1.922598413607715E5     9.040564762248974E-1    6.355128225493975E-2    9.687315031724322E-2   -6.421458977676131E-2    9.700175252766276E-2   -6.429407098411366E-2    9.039130838421062E-1    6.353508409907010E-2
 1.937267575428232E5     9.042796169021706E-1    6.335004050847616E-2    9.662786695221211E-2   -6.401965450988353E-2    9.675495135182828E-2   -6.409529371218835E-2    9.042038388335872E-1    6.334695499093522E-2
 1.952048660938581E5     9.045668135341878E-1    6.315665102369543E-2    9.638727858740548E-2   -6.383011276077617E-2    9.651213278724266E-2   -6.390202055146003E-2    9.044461726440092E-1    6.315280942968166E-2
 1.966942524101142E5     9.048311334565535E-1    6.295752573719475E-2    9.614369909588712E-2   -6.363409458418737E-2    9.626339916575705E-2   -6.370623016232242E-2    9.046993380993128E-1    6.295163181338145E-2
 1.981950025393913E5     9.050627073902888E-1    6.277167550324840E-2    9.589702406354102E-2   -6.344336560986186E-2    9.601594671986227E-2   -6.350992823539318E-2    9.049079722091891E-1    6.275366306780739E-2
 1.997072031860212E5     9.053045607554930E-1    6.258468077679334E-2    9.565278324821870E-2   -6.324378737532410E-2    9.577306549399228E-2   -6.331770788491684E-2    9.051895128234199E-1    6.255617083573575E-2
 2.012309417158795E5     9.055464350390185E-1    6.237719688214759E-2    9.540103685490016E-2   -6.305491078684974E-2    9.552549782532659E-2   -6.312382398243489E-2    9.054436660973452E-1    6.236979538437265E-2
 2.027663061614301E5     9.057741558297672E-1    6.218453478135522E-2    9.515728774825563E-2   -6.285970630799097E-2    9.528403473538295E-2   -6.293071981579530E-2    9.056309208161253E-1    6.218130683447877E-2
 2.043133852268128E5     9.060130745771262E-1    6.199559197197328E-2    9.491562238283417E-2   -6.266550703851068E-2    9.503311925335875E-2   -6.273952776720898E-2    9.058516336247319E-1    6.196884026906418E-2
 2.058722682929675E5     9.062441019809120E-1    6.181740305920377E-2    9.467119631542167E-2   -6.247551051129048E-2    9.478676661326699E-2   -6.254825901868592E-2    9.061051233046946E-1    6.177867702188010E-2
 2.074430454227995E5     9.064887090706608E-1    6.161397202052171E-2    9.443235045696449E-2   -6.229031580394286E-2    9.454217075269733E-2   -6.235427105304551E-2    9.063413478093850E-1    6.157805663450880E-2
 2.090258073663807E5     9.067637060262922E-1    6.142673790469317E-2    9.418283009207593E-2   -6.209382415968306E-2    9.430145707320957E-2   -6.216510169282639E-2    9.065914417651124E-1    6.138523343987435E-2
 2.106206455661938E5     9.069695028862440E-1    6.122165889066939E-2    9.393809582183399E-2   -6.190641707523284E-2    9.405217719214432E-2   -6.197185419825804E-2    9.068215775260006E-1    6.120333365776299E-2
 2.122276521624151E5     9.072032358807570E-1    6.103761310189942E-2    9.369228320060473E-2   -6.171103830954318E-2    9.380976545305286E-2   -6.177954657764037E-2    9.070586415379855E-1    6.100971487486779E-2
 2.138469199982374E5     9.074606046287498E-1    6.083654067575776E-2    9.345068156502556E-2   -6.152602689169043E-2    9.356640001838039E-2   -6.159232711247094E-2    9.072762139982365E-1    6.081071305235086E-2
 2.154785426252357E5     9.077305365286471E-1    6.065505712962659E-2    9.320905044686796E-2   -6.133611919578758E-2    9.331963329666408E-2   -6.139710858103226E-2    9.075145868979241E-1    6.061668052463074E-2
 2.171226143087691E5     9.079155471459365E-1    6.046059287690553E-2    9.296282647215744E-2   -6.114006250904625E-2    9.307784566460879E-2   -6.120941321630512E-2    9.077676774210741E-1    6.042434095996979E-2
 2.187792300334291E5     9.082020218917798E-1    6.027594854126962E-2    9.271938366991603E-2   -6.095988575875015E-2    9.283319263874677E-2   -6.102283240140163E-2    9.079874379344002E-1    6.022553100596040E-2
 2.204484855085266E5     9.084187383449058E-1    6.006787986559643E-2    9.247797761272998E-2   -6.077063094326208E-2    9.258931333432681E-2   -6.083810220968421E-2    9.082553566311624E-1    6.003327737208664E-2
 2.221304771736209E5     9.086744966079888E-1    5.988353170413180E-2    9.223621228486428E-2   -6.058088495853283E-2    9.235666254326601E-2   -6.064341308297530E-2    9.084634114590079E-1    5.984174330586547E-2
 2.238253022040931E5     9.089188053896722E-1    5.970428198695996E-2    9.199116603164738E-2   -6.039132980719703E-2    9.211527680450113E-2   -6.045891071929991E-2    9.087542011158211E-1    5.966245391335525E-2
 2.255330585167579E5     9.091349863794942E-1    5.950715988165799E-2    9.175330714454145E-2   -6.020790105674451E-2    9.187430211522127E-2   -6.027189702734014E-2    9.089635481692494E-1    5.946616924473564E-2
 2.272538447755223E5     9.093745314616173E-1    5.933214131544807E-2    9.150687737199380E-2   -6.001381559025880E-2    9.163022186214563E-2   -6.008190043650961E-2    9.091993711021180E-1    5.927639344508615E-2
 2.289877603970853E5     9.096164458771695E-1    5.912945758721717E-2    9.126417472412965E-2   -5.982848644741351E-2    9.138404330460966E-2   -5.989395314728087E-2    9.094198943389271E-1    5.909677246381296E-2
 2.307349055566813E5     9.098585285426947E-1    5.894585436269584E-2    9.102614125465025E-2   -5.964111617594797E-2    9.114582978614484E-2   -5.970415693869455E-2    9.096772055884743E-1    5.888870613153248E-2
 2.324953811938693E5     9.100853618140849E-1    5.875489399846153E-2    9.078677228565905E-2   -5.945551981098950E-2    9.090717740919323E-2   -5.952008643786456E-2    9.099114384737923E-1    5.871153851314426E-2
 2.342692890183618E5     9.103253521727372E-1    5.855397563864993E-2    9.053862928649177E-2   -5.926805605337399E-2    9.066594049085420E-2   -5.933257297783013E-2    9.101391180833078E-1    5.852486352026032E-2
 2.360567315159030E5     9.105647866612805E-1    5.835520075964309E-2    9.030205793023109E-2   -5.908204847886671E-2    9.042870548087202E-2   -5.914443697759462E-2    9.103827215641440E-1    5.834363246093657E-2
 2.378578119541888E5     9.107986701326337E-1    5.817570420923747E-2    9.006255568614087E-2   -5.889411335795474E-2    9.018584102280464E-2   -5.895941587927400E-2    9.106094148926993E-1    5.815764710339665E-2
 2.396726343888348E5     9.110303935268578E-1    5.798386667643211E-2    8.982446044511984E-2   -5.870494275938279E-2    8.994887843584785E-2   -5.877141891711281E-2    9.108384692067009E-1    5.797322881619147E-2
 2.415013036693852E5     9.112510962369447E-1    5.779711836958129E-2    8.958050658533577E-2   -5.852088666391805E-2    8.971578326971770E-2   -5.858951914100562E-2    9.110650740914181E-1    5.778634196298327E-2
 2.433439254453724E5     9.115054791769879E-1    5.760692288634522E-2    8.935002883634025E-2   -5.833757090095545E-2    8.947275754357890E-2   -5.839976292690104E-2    9.112931846703111E-1    5.759320593508937E-2
 2.452006061724201E5     9.117262099438909E-1    5.740898223304305E-2    8.911568833061646E-2   -5.814972319305895E-2    8.924139187675773E-2   -5.821798713730857E-2    9.116028469037347E-1    5.741789084542941E-2
 2.470714531183934E5     9.119671198252443E-1    5.722510585912934E-2    8.887829130007423E-2   -5.796464958674534E-2    8.900143447676145E-2   -5.803029493611168E-2    9.118341124068298E-1    5.722949359773050E-2
 2.489565743695979E5     9.122237122498160E-1    5.705071135029796E-2    8.864359566270820E-2   -5.777827361156607E-2    8.875851807468411E-2   -5.784923072250379E-2    9.120425533267116E-1    5.703428235677600E-2
 2.508560788370214E5     9.124495667815402E-1    5.684757758156038E-2    8.840527037032817E-2   -5.759755679788509E-2    8.852828626694371E-2   -5.766049595415291E-2    9.123263040189336E-1    5.687273585413710E-2
 2.527700762626280E5     9.126539804925602E-1    5.667480507956425E-2    8.816935335902694E-2   -5.740832067459492E-2    8.829308547567577E-2   -5.747792953150154E-2    9.125579186039258E-1    5.669130418830513E-2
 2.546986772256976E5     9.129135447569936E-1    5.648627992820725E-2    8.793670013097196E-2   -5.722293224101514E-2    8.805810170403562E-2   -5.729144772507526E-2    9.127964420720833E-1    5.649828927286425E-2
 2.566419931492161E5     9.131376361378301E-1    5.628914665976466E-2    8.770007575809624E-2   -5.703938950742449E-2    8.782296400124928E-2   -5.711262248599303E-2    9.130019894803166E-1    5.630192271548701E-2
 2.586001363063102E5     9.133471018994768E-1    5.609133922205415E-2    8.746399590785230E-2   -5.685408894005308E-2    8.758980859722980E-2   -5.692785897181517E-2    9.132197908948912E-1    5.612242209902140E-2
 2.605732198267354E5     9.135294226624707E-1    5.590373885941691E-2    8.723618413657788E-2   -5.667082788690812E-2    8.735835584176599E-2   -5.674041477992792E-2    9.134711856496947E-1    5.594899952647826E-2
 2.625613577034118E5     9.137859924774201E-1    5.572788336424876E-2    8.700270494374285E-2   -5.648354653498917E-2    8.712701068550957E-2   -5.655976128787991E-2    9.136662862460301E-1    5.574834241509354E-2
 2.645646647990093E5     9.139946046831713E-1    5.554421081650616E-2    8.677385595014762E-2   -5.630309799178091E-2    8.689515621906692E-2   -5.637854224058663E-2    9.139070645976052E-1    5.556920286041826E-2
 2.665832568525859E5     9.142175758422701E-1    5.537247322592818E-2    8.654352587864354E-2   -5.611722469482141E-2    8.666274816292870E-2   -5.619082009373464E-2    9.141205260607619E-1    5.538061664801328E-2
 2.686172504862709E5     9.144718618128628E-1    5.519191639095098E-2    8.631933951119147E-2   -5.593537709297055E-2    8.642970017315539E-2   -5.600738272460219E-2    9.143617208392514E-1    5.519664599533269E-2
 2.706667632120051E5     9.146751590063354E-1    5.499761789110363E-2    8.608590157992439E-2   -5.574789827207507E-2    8.619861628992616E-2   -5.582659203496129E-2    9.146057496162583E-1    5.501915667111413E-2
 2.727319134383292E5     9.149056022029420E-1    5.481204943599437E-2    8.585652613312167E-2   -5.556747415526280E-2    8.597421740232557E-2   -5.564854474814301E-2    9.148493083758741E-1    5.483283528549369E-2
 2.748128204772244E5     9.151009957301036E-1    5.462114639092151E-2    8.563146486335102E-2   -5.538127542842083E-2    8.574507663617500E-2   -5.546162097841310E-2    9.150446971809293E-1    5.464570618442628E-2
 2.769096045510074E5     9.153392860854908E-1    5.445482303816189E-2    8.540751488273418E-2   -5.520358662369945E-2    8.551388416609040E-2   -5.527249923951729E-2    9.152472285453680E-1    5.445909316920105E-2
 2.790223867992730E5     9.155927965985887E-1    5.428057598230530E-2    8.518251101209658E-2   -5.502243444351027E-2    8.529120061510873E-2   -5.509694109824262E-2    9.154945699368124E-1    5.429197469341233E-2
 2.811512892858952E5     9.158243402919495E-1    5.409370678535713E-2    8.495713158226308E-2   -5.483800043868644E-2    8.506124823180851E-2   -5.491039576072041E-2    9.157137035388926E-1    5.410830293201906E-2
 2.832964350060779E5     9.160635330647977E-1    5.392299836865092E-2    8.473405226972648E-2   -5.465665564671186E-2    8.483803323255508E-2   -5.472703533604201E-2    9.159110673950542E-1    5.391022777424695E-2
 2.854579478934632E5     9.162460619344703E-1    5.372621114223738E-2    8.450959570789104E-2   -5.447551793940236E-2    8.461120190647384E-2   -5.454913201925891E-2    9.161374391426655E-1    5.372824764272432E-2
 2.876359528272883E5     9.164648869889868E-1    5.353859402679906E-2    8.428839793781590E-2   -5.429378651113844E-2    8.438924919568137E-2   -5.436710649304368E-2    9.163653838025975E-1    5.355206415591980E-2
 2.898305756396023E5     9.166881345345709E-1    5.336216343712692E-2    8.407117749051025E-2   -5.411765021309602E-2    8.417270446132319E-2   -5.419035275466503E-2    9.166261624973844E-1    5.336310134045794E-2
 2.920419431225354E5     9.169131941817535E-1    5.318223937484075E-2    8.385027222969370E-2   -5.393821785145818E-2    8.395016265656155E-2   -5.401072721272127E-2    9.168478101695022E-1    5.319653579162330E-2
 2.942701830356239E5     9.171361588592961E-1    5.300502925078930E-2    8.362871492733513E-2   -5.375803996541913E-2    8.373201598758381E-2   -5.383117584833506E-2    9.170831907496485E-1    5.300727999030931E-2
 2.965154241131938E5     9.173496770234794E-1    5.281972283175850E-2    8.341206449825141E-2   -5.357924313400934E-2    8.350868726276016E-2   -5.364908003375444E-2    9.173083715281638E-1    5.283018596625558E-2
 2.987777960717941E5     9.175771768039223E-1    5.265334738302099E-2    8.319638470889130E-2   -5.340100117757968E-2    8.329243285907441E-2   -5.347119187087719E-2    9.175052694623002E-1    5.262949747596844E-2
 3.010574296176943E5     9.178152021654318E-1    5.246093536046257E-2    8.297953656787299E-2   -5.322080017794127E-2    8.307610081769085E-2   -5.329320604484534E-2    9.177191566745330E-1    5.246521780643472E-2
 3.033544564544337E5     9.180262637705510E-1    5.229730929794898E-2    8.277039190041915E-2   -5.304014509953786E-2    8.286362038069944E-2   -5.311220579071927E-2    9.179274252559111E-1    5.227854582311953E-2
 3.056690092904338E5     9.182351180222315E-1    5.210242377854760E-2    8.255057274032697E-2   -5.286915594122041E-2    8.264947470045826E-2   -5.293892999546642E-2    9.181699292278439E-1    5.210121968179957E-2
 3.080012218466610E5     9.184679127491684E-1    5.192827610518658E-2    8.234301117372238E-2   -5.269019919807670E-2    8.243445040167109E-2   -5.275937068239598E-2    9.183454333437331E-1    5.192171935189435E-2
 3.103512288643551E5     9.186859144773724E-1    5.175364445164551E-2    8.213121231142459E-2   -5.251420381138543E-2    8.221602919389873E-2   -5.257955913188800E-2    9.185806648954626E-1    5.174107306406555E-2
 3.127191661128128E5     9.189024404167607E-1    5.156394116983101E-2    8.191254777211571E-2   -5.233271465460820E-2    8.200503990006043E-2   -5.240557498283825E-2    9.188159133431023E-1    5.156201793860338E-2
 3.151051703972316E5     9.190767127950580E-1    5.139419222654164E-2    8.170344132972521E-2   -5.216153494899051E-2    8.179103746224717E-2   -5.222719485581791E-2    9.189818372590118E-1    5.138557996417206E-2
 3.175093795666154E5     9.192746365473979E-1    5.119671798119018E-2    8.149282901230868E-2   -5.198568299889192E-2    8.157910151591075E-2   -5.205135574028069E-2    9.192177486577822E-1    5.120638413664191E-2
 3.199319325217355E5     9.194583470777143E-1    5.102031485173810E-2    8.128663112216536E-2   -5.181193832790824E-2    8.136740447235294E-2   -5.187565435385544E-2    9.194179526815974E-1    5.103728670894559E-2
 3.223729692231574E5     9.196756136251223E-1    5.083863495217524E-2    8.107196937122071E-2   -5.163756354880249E-2    8.115571645882839E-2   -5.169855034353597E-2    9.196250014932821E-1    5.083960554956184E-2
 3.248326306993267E5     9.198768670716968E-1    5.065841414540646E-2    8.086217082944264E-2   -5.146399614233479E-2    8.094897997520473E-2   -5.152430763519648E-2    9.198583544724038E-1    5.068583442874464E-2
 3.273110590547157E5     9.200880518449880E-1    5.048573732224902E-2    8.065848437536081E-2   -5.128928085432995E-2    8.074494025189194E-2   -5.135502509564256E-2    9.200515803786609E-1    5.049845822047729E-2
 3.298083974780366E5     9.203312792743010E-1    5.031763052265593E-2    8.045056280595984E-2   -5.111278883423482E-2    8.053612194521903E-2   -5.117755741722253E-2    9.202382040255644E-1    5.031664583393033E-2
 3.323247902505097E5     9.205357731332089E-1    5.014118811846194E-2    8.024176733447337E-2   -5.094361618726467E-2    8.033778273461367E-2   -5.101204089009578E-2    9.204630441167063E-1    5.014832357702493E-2
 3.348603827542018E5     9.207169622337374E-1    4.998086213172594E-2    8.004215777052535E-2   -5.077343516723806E-2    8.012987921794262E-2   -5.083834330132218E-2    9.206695617439373E-1    4.996548054728767E-2
 3.374153214804250E5     9.209301313886948E-1    4.979673220537766E-2    7.983946388228307E-2   -5.060191690382428E-2    7.992231893381778E-2   -5.066588265027185E-2    9.208692144510771E-1    4.978962048972380E-2
 3.399897540381991E5     9.211322687438894E-1    4.961847655212166E-2    7.963528060113038E-2   -5.043316059976846E-2    7.971560017791340E-2   -5.049505248016677E-2    9.210759149353916E-1    4.961002758033019E-2
 3.425838291627830E5     9.213473162001673E-1    4.944845952756581E-2    7.942819343472395E-2   -5.026051978055809E-2    7.951599496545513E-2   -5.032563521153967E-2    9.212772225672126E-1    4.943552981709310E-2
 3.451976967242625E5     9.215474801720630E-1    4.927174417170164E-2    7.922883796207793E-2   -5.009265151692929E-2    7.931485874436811E-2   -5.015521269425820E-2    9.214468583647034E-1    4.926472379966276E-2
 3.478315077362126E5     9.217396701980151E-1    4.909412524586909E-2    7.902402466663656E-2   -4.992677028986574E-2    7.911778196911168E-2   -4.998798669269326E-2    9.216706745369344E-1    4.910093651137056E-2
 3.504854143644205E5     9.219300409713459E-1    4.891569443838965E-2    7.882433901297564E-2   -4.975939220017396E-2    7.890908390115657E-2   -4.981628625178045E-2    9.218651594646459E-1    4.891853694753412E-2
 3.531595699356794E5     9.221906570171292E-1    4.875690855959860E-2    7.863335974069321E-2   -4.959254861191786E-2    7.870564528313269E-2   -4.964706372228188E-2    9.220650330765340E-1    4.876017012726352E-2
 3.558541289466428E5     9.223581639861979E-1    4.858097939683299E-2    7.842923097316173E-2   -4.942650418644255E-2    7.850732060007438E-2   -4.947840110277925E-2    9.222468992978842E-1    4.858256346227150E-2
 3.585692470727532E5     9.225527167059692E-1    4.840849778470663E-2    7.823406539353940E-2   -4.926003860047731E-2    7.830920226600827E-2   -4.931273429652747E-2    9.224538273801814E-1    4.840697291011348E-2
 3.613050811772345E5     9.227518010214755E-1    4.824112455321428E-2    7.803470228535749E-2   -4.909713223897136E-2    7.810417498026080E-2   -4.914491931306083E-2    9.226294939894724E-1    4.823128908323627E-2
 3.640617893201578E5     9.229414312910863E-1    4.806995471877011E-2    7.783752066989423E-2   -4.893109984592688E-2    7.791256753473783E-2   -4.897801497236420E-2    9.227989346349662E-1    4.807229720698085E-2
 3.668395307675686E5     9.231606058615385E-1    4.790460391111956E-2    7.763716030755057E-2   -4.876729537832190E-2    7.771502519749433E-2   -4.881518583331509E-2    9.229719980304302E-1    4.790016556613540E-2
 3.696384660006910E5     9.233253522151483E-1    4.773271773957063E-2    7.744519926703926E-2   -4.860396955965448E-2    7.752105857401760E-2   -4.864949501578705E-2    9.231835094529797E-1    4.772932499281049E-2
 3.724587567251991E5     9.235298397182411E-1    4.756235205881377E-2    7.724755749430581E-2   -4.844109773599938E-2    7.732856758005173E-2   -4.849135442247814E-2    9.233916341684858E-1    4.756594096927049E-2
 3.753005658805580E5     9.237882327414187E-1    4.740303108335129E-2    7.705748295308500E-2   -4.828137756887790E-2    7.713198647822553E-2   -4.832388453061583E-2    9.235921140116038E-1    4.740905692444424E-2
 3.781640576494411E5     9.239551337580758E-1    4.723481203057491E-2    7.686981807892425E-2   -4.812160993423602E-2    7.693523735496929E-2   -4.816405284036646E-2    9.238019896212080E-1    4.723499705281953E-2
 3.810493974672107E5     9.241782957844763E-1    4.707156205796676E-2    7.667566396071318E-2   -4.796133081837792E-2    7.674765507638755E-2   -4.800463814445190E-2    9.240002967499520E-1    4.707435854961003E-2
 3.839567520314787E5     9.243201285715410E-1    4.690209202379331E-2    7.647646352916199E-2   -4.779806574351643E-2    7.655449189074870E-2   -4.784212707198178E-2    9.242147852866076E-1    4.689786502954146E-2
 3.868862893117373E5     9.244934331758461E-1    4.672974145572157E-2    7.628541287769559E-2   -4.764214648699915E-2    7.636007643839007E-2   -4.768310854402682E-2    9.244024616287432E-1    4.672454789617603E-2
 3.898381785590618E5     9.247041794019134E-1    4.656036971143642E-2    7.609497928258273E-2   -4.748713163778352E-2    7.617258403140759E-2   -4.752328461116598E-2    9.245728919563021E-1    4.656997397094295E-2
 3.928125903158922E5     9.249315929008266E-1    4.639708883404643E-2    7.590768667939594E-2   -4.732738125972234E-2    7.597991164300230E-2   -4.736487977233987E-2    9.247413109462763E-1    4.639645603076457E-2
 3.958096964258819E5     9.251068698468761E-1    4.623567030032442E-2    7.571160014063837E-2   -4.717213524354111E-2    7.578978174445515E-2   -4.720758100414923E-2    9.249295848876591E-1    4.622914934224935E-2
 3.988296700438284E5     9.253105832283802E-1    4.606819231150441E-2    7.551869204713064E-2   -4.701479647088758E-2    7.560526355348617E-2   -4.705242096110733E-2    9.251362066295215E-1    4.606695959445811E-2
 4.018726856456762E5     9.255253292849872E-1    4.591535819429197E-2    7.533114982327266E-2   -4.685767817512494E-2    7.541137928172686E-2   -4.689327330078528E-2    9.253156161299736E-1    4.591325034699405E-2
 4.049389190385970E5     9.256556015804928E-1    4.576349984966935E-2    7.514392019971720E-2   -4.670233408550781E-2    7.522450287274833E-2   -4.673740575198702E-2    9.255010224959801E-1    4.575406588865195E-2
 4.080285473711492E5     9.258304544017552E-1    4.558999685122766E-2    7.495158125293180E-2   -4.654519956218398E-2    7.503532993294917E-2   -4.658261331744180E-2    9.256944446684058E-1    4.557821958608949E-2
 4.111417491435081E5     9.260542252360547E-1    4.542723797294419E-2    7.475970681154614E-2   -4.638963441738352E-2    7.484147100357896E-2   -4.642165241298967E-2    9.258743379374332E-1    4.542483663355492E-2
 4.142787042177814E5     9.262175668551942E-1    4.527172796299613E-2    7.457786656878372E-2   -4.623942470968293E-2    7.465682103366889E-2   -4.627106288254702E-2    9.260675140867208E-1    4.526181106658813E-2
 4.174395938283992E5     9.263961083587995E-1    4.510024387536465E-2    7.439112377881554E-2   -4.608653483850349E-2    7.446956483294626E-2   -4.611789147275672E-2    9.262774115496178E-1    4.511109161486181E-2
 4.206246005925882E5     9.265507144911704E-1    4.493455817906136E-2    7.420059448584419E-2   -4.593135806113523E-2    7.428703242120602E-2   -4.596462519767208E-2    9.264386958109602E-1    4.495173749729705E-2
 4.238339085209167E5     9.267798297693395E-1    4.477868619340336E-2    7.401269679256582E-2   -4.577910461702909E-2    7.410182251575709E-2   -4.581137533028598E-2    9.266355846458221E-1    4.478659052836116E-2
 4.270677030279291E5     9.269699607593614E-1    4.462474438980241E-2    7.382548642861121E-2   -4.562352494886420E-2    7.391338974073858E-2   -4.565911790231682E-2    9.268455177538727E-1    4.463529136763682E-2
 4.303261709428567E5     9.271793973669219E-1    4.445711621394059E-2    7.364102257753863E-2   -4.547860652011457E-2    7.373173432817516E-2   -4.550599561921279E-2    9.269837519056165E-1    4.446144623086219E-2
 4.336095005204146E5     9.273546834895332E-1    4.430035431209609E-2    7.345772085107338E-2   -4.532368286779908E-2    7.354685869464947E-2   -4.535760757966895E-2    9.272319595753201E-1    4.431612460007013E-2
 4.369178814516730E5     9.275032339458102E-1    4.413900579734374E-2    7.326757825629311E-2   -4.517129367370163E-2    7.336219164900347E-2   -4.520550530893717E-2    9.273928049099966E-1    4.415855959803720E-2
 4.402515048750198E5     9.276932677375372E-1    4.398703936903458E-2    7.308300057516420E-2   -4.502015058803305E-2    7.317781621729667E-2   -4.505132695574136E-2    9.275879490853522E-1    4.399027778243819E-2
 4.436105633872023E5     9.278885335999207E-1    4.382651301168385E-2    7.290140564429054E-2   -4.486969096628348E-2    7.299425649379875E-2   -4.490467480871648E-2    9.278051163316731E-1    4.383034641799451E-2
 4.469952510544541E5     9.280408299600934E-1    4.366029220980361E-2    7.271425751746304E-2   -4.471892046332182E-2    7.281102307031041E-2   -4.475568338528284E-2    9.279503550251077E-1    4.367724351829643E-2
 4.504057634237097E5     9.282484078994138E-1    4.351560571286304E-2    7.253225936183259E-2   -4.456806350143959E-2    7.262308103658939E-2   -4.459980494154163E-2    9.281127247314048E-1    4.352171544174217E-2
 4.538422975338975E5     9.284006929814552E-1    4.334691797384655E-2    7.234557974732962E-2   -4.441514126777619E-2    7.244480522795056E-2   -4.445262159473293E-2    9.282947743057008E-1    4.336896990550048E-2
 4.573050519273265E5     9.285903807441395E-1    4.319372971384740E-2    7.216367880144951E-2   -4.426637160678908E-2    7.225895671562814E-2   -4.430383526276238E-2    9.284957697343650E-1    4.321724634135869E-2
 4.607942266611566E5     9.287969574761991E-1    4.303576984484132E-2    7.198638172320897E-2   -4.411598614470933E-2    7.207933791895485E-2   -4.415501319062345E-2    9.286683780108441E-1    4.305736640752324E-2
 4.643100233189550E5     9.290082570755277E-1    4.288577405171833E-2    7.180811664644372E-2   -4.397103730705100E-2    7.189492539938046E-2   -4.400185309365698E-2    9.288460108403185E-1    4.289310626767515E-2
 4.678526450223470E5     9.291663517235496E-1    4.272166658762898E-2    7.162300458199969E-2   -4.382228972064034E-2    7.171668224734488E-2   -4.385957959180715E-2    9.290475195582041E-1    4.273794438028082E-2
 4.714222964427450E5     9.293268679136424E-1    4.255951323667068E-2    7.144103533376972E-2   -4.366915252828108E-2    7.153988594336295E-2   -4.371088587175499E-2    9.292266803516723E-1    4.257676941348883E-2
 4.750191838131770E5     9.294956013455620E-1    4.240712762721760E-2    7.125817016494532E-2   -4.352484198182478E-2    7.135583519187537E-2   -4.356217612853198E-2    9.294017970819028E-1    4.242497413887718E-2
 4.786435149402010E5     9.296466749948989E-1    4.225332395472038E-2    7.107824351366435E-2   -4.337284159050862E-2    7.117791577182386E-2   -4.341336582917638E-2    9.296043874180731E-1    4.226551076158621E-2
 4.822954992159092E5     9.298478199004157E-1    4.208858609158835E-2    7.090047065538919E-2   -4.322382460275057E-2    7.100052848027344E-2   -4.326815053115511E-2    9.297620353170498E-1    4.211190572849146E-2
 4.859753476300298E5     9.300326852213379E-1    4.192036945417515E-2    7.071907794756040E-2   -4.307247414062045E-2    7.082224164862418E-2   -4.312110327951249E-2    9.299360737146763E-1    4.195241761101623E-2
 4.896832727821107E5     9.302144643501198E-1    4.178027768603523E-2    7.054250987769256E-2   -4.292696579225717E-2    7.064377699131388E-2   -4.297221712119619E-2    9.300719472274913E-1    4.180445408675475E-2
 4.934194888938060E5     9.303855736643798E-1    4.162442065592361E-2    7.036372583937529E-2   -4.277797710099274E-2    7.047096309621825E-2   -4.282797769742292E-2    9.303119543677456E-1    4.163609335203011E-2
 4.971842118212518E5     9.305128297803748E-1    4.146982537802543E-2    7.019199423680447E-2   -4.262960768867102E-2    7.029401983642319E-2   -4.268233189314911E-2    9.304646452071623E-1    4.150129191485322E-2
 5.009776590675358E5     9.307028880942628E-1    4.129812774085431E-2    7.001428217851496E-2   -4.248702411196810E-2    7.011274133082838E-2   -4.253017115069452E-2    9.305845492162167E-1    4.134324769667456E-2
 5.048000497952673E5     9.308960298934588E-1    4.114447223518239E-2    6.984368937211616E-2   -4.233608831569012E-2    6.993859026090068E-2   -4.238636839957824E-2    9.307835584482198E-1    4.118701733299460E-2
 5.086516048392332E5     9.311402910083310E-1    4.099814618781972E-2    6.967235494766887E-2   -4.219367981905800E-2    6.976338684680868E-2   -4.224096190525257E-2    9.309762512084413E-1    4.102908504528816E-2
 5.125325467191607E5     9.312731568828797E-1    4.084254007491303E-2    6.950012570318587E-2   -4.204983643583552E-2    6.959270251078635E-2   -4.209215755525700E-2    9.310997960865728E-1    4.087708349342688E-2
 5.164430996525706E5     9.313953338067797E-1    4.069011539956686E-2    6.932657675180172E-2   -4.189580880293867E-2    6.942060617625036E-2   -4.195082386673233E-2    9.312887734965918E-1    4.072857344414364E-2
 5.203834895677360E5     9.316136817831128E-1    4.052605949303181E-2    6.915565321477403E-2   -4.175743335219914E-2    6.924590805217672E-2   -4.180380462887853E-2    9.314331440674438E-1    4.057744866283628E-2
 5.243539441167285E5     9.317259944209201E-1    4.036967613291251E-2    6.898475457799566E-2   -4.160863345343419E-2    6.907314926708236E-2   -4.165761920819858E-2    9.316334570200956E-1    4.040664272714470E-2
 5.283546926885745E5     9.319176854640454E-1    4.021688819723685E-2    6.881255926866858E-2   -4.146265509361996E-2    6.890086385775038E-2   -4.151200815267201E-2    9.317951381572551E-1    4.025491155973079E-2
 5.323859664225065E5     9.321153902114128E-1    4.005397142094540E-2    6.864054319253089E-2   -4.131925562573623E-2    6.872761975293494E-2   -4.136481272292440E-2    9.319498655672583E-1    4.010465201305950E-2
 5.364479982213206E5     9.322685944938645E-1    3.991184889889045E-2    6.847343548211673E-2   -4.116828529534275E-2    6.856035929993920E-2   -4.122101902267152E-2    9.320990336559116E-1    3.994655640960060E-2
 5.405410227648258E5     9.324830845037726E-1    3.975595730611391E-2    6.830859908222650E-2   -4.102665205532565E-2    6.839876630488873E-2   -4.108019490713762E-2    9.323186735750104E-1    3.979769548861324E-2
 5.446652765234077E5     9.326050296691955E-1    3.959877373103561E-2    6.813963048345502E-2   -4.088056678385649E-2    6.823153817877518E-2   -4.093776116714481E-2    9.324912328003965E-1    3.964135564331195E-2
 5.488209977716873E5     9.327905713163308E-1    3.944953789003056E-2    6.796938255725421E-2   -4.073970994098171E-2    6.806154117580071E-2   -4.079033521062484E-2    9.326594178470424E-1    3.949112679330496E-2
 5.530084266022880E5     9.329015657805784E-1    3.928927730372847E-2    6.780671133494975E-2   -4.059431926364331E-2    6.790095570096026E-2   -4.064691547570945E-2    9.328116653084385E-1    3.935404317866593E-2
 5.572278049397101E5     9.330731137573340E-1    3.914466780019996E-2    6.764316250486065E-2   -4.045508494119558E-2    6.773038515456123E-2   -4.050910435220025E-2    9.329621155188735E-1    3.918401294884116E-2
 5.614793765543010E5     9.332358292924319E-1    3.899440690187767E-2    6.748098282038718E-2   -4.031277345033375E-2    6.757333796908155E-2   -4.036680691706859E-2    9.331019240125743E-1    3.904165454043943E-2
 5.657633870763436E5     9.333996747112518E-1    3.884071714776706E-2    6.731932336269947E-2   -4.017291031550388E-2    6.740468506261020E-2   -4.022793461549869E-2    9.332935201094633E-1    3.886888402943523E-2
 5.700800840102463E5     9.336159607543406E-1    3.869392504512992E-2    6.715724963649534E-2   -4.002762027262684E-2    6.724270239498584E-2   -4.008477405067554E-2    9.334468097638877E-1    3.872428871177909E-2
 5.744297167488408E5     9.337402204834989E-1    3.853411892002354E-2    6.699085195623826E-2   -3.988723328934659E-2    6.707975653626712E-2   -3.993909670430087E-2    9.335869816675086E-1    3.858992858788460E-2
 5.788125365877954E5     9.338857834695461E-1    3.839239611139337E-2    6.683156510385134E-2   -3.974428229407670E-2    6.692199226902319E-2   -3.980279167368781E-2    9.337427674024092E-1    3.844505381320266E-2
 5.832287967401261E5     9.339977098654573E-1    3.824589634412094E-2    6.666935198447306E-2   -3.960201885331076E-2    6.676262252381893E-2   -3.966466484897242E-2    9.338918846512961E-1    3.830349633164702E-2
 5.876787523508312E5     9.341790620293863E-1    3.809275098112539E-2    6.650872458040108E-2   -3.946176017435438E-2    6.659882798807751E-2   -3.952579974045516E-2    9.340229702387217E-1    3.815659741589516E-2
 5.921626605116295E5     9.343544567590852E-1    3.793099708913825E-2    6.636042867023041E-2   -3.932780671091819E-2    6.644093412858275E-2   -3.938701022249833E-2    9.341882978830558E-1    3.799346214461114E-2
 5.966807802758140E5     9.345043396289170E-1    3.780218572204763E-2    6.620006235283446E-2   -3.919218404730958E-2    6.628457559690040E-2   -3.924676586694727E-2    9.343739377802681E-1    3.785292552982472E-2
 6.012333726732214E5     9.346790295036673E-1    3.764380566713822E-2    6.604605126577913E-2   -3.905529157760141E-2    6.612705455357699E-2   -3.911641765542759E-2    9.345005829527675E-1    3.770779717184795E-2
 6.058207007253073E5     9.348079334022553E-1    3.750076935514607E-2    6.588455203481001E-2   -3.891808882121877E-2    6.597275905841581E-2   -3.897688169802784E-2    9.346480615444203E-1    3.754959657043510E-2
 6.104430294603459E5     9.349784814767660E-1    3.734503978777750E-2    6.572805372204259E-2   -3.877772991224115E-2    6.581987688370408E-2   -3.884065538852761E-2    9.348034642816805E-1    3.740669902551171E-2
 6.151006259287392E5     9.351368669844117E-1    3.722135028402358E-2    6.558185311385020E-2   -3.864596320100672E-2    6.566119995569854E-2   -3.870643307420355E-2    9.350090604309496E-1    3.726379086553055E-2
 6.197937592184512E5     9.352988944023938E-1    3.706324511093632E-2    6.542625771685837E-2   -3.851372270401527E-2    6.550865448715662E-2   -3.857358324463327E-2    9.351275313030174E-1    3.712453886158532E-2
 6.245227004705463E5     9.354264074841258E-1    3.692303142864636E-2    6.527479220459796E-2   -3.837860660500452E-2    6.535414413202435E-2   -3.843678654982108E-2    9.352744334103509E-1    3.700434950604656E-2
 6.292877228948588E5     9.355488307751890E-1    3.678898666785705E-2    6.512107911739108E-2   -3.824804754699066E-2    6.519838220095624E-2   -3.830350035689974E-2    9.354098357698841E-1    3.685716122939080E-2
 6.340891017857760E5     9.357465140270128E-1    3.663364078061076E-2    6.497338548539809E-2   -3.811955797408345E-2    6.504833586934425E-2   -3.817172902319172E-2    9.355549955706807E-1    3.670965907529793E-2
 6.389271145381465E5     9.358513358941742E-1    3.650152613739489E-2    6.481836543877861E-2   -3.798665430692980E-2    6.489488677221315E-2   -3.804012142575138E-2    9.357065305735419E-1    3.656593836843007E-2
 6.438020406633007E5     9.360132817791394E-1    3.635519263957394E-2    6.467064548796891E-2   -3.785474502122964E-2    6.474303515918065E-2   -3.791171359006460E-2    9.358687340542190E-1    3.641573072452007E-2
 6.487141618052023E5     9.361757937224264E-1    3.622026645720070E-2    6.452018493907513E-2   -3.772526395911259E-2    6.458904101220946E-2   -3.778034102399460E-2    9.360137946516655E-1    3.628421777134511E-2
 6.536637617567203E5     9.363003175431699E-1    3.608353888383248E-2    6.436530350021526E-2   -3.759894579590215E-2    6.444325217679338E-2   -3.764840607512614E-2    9.361858982100979E-1    3.613647405872895E-2
 6.586511264760230E5     9.364173232354229E-1    3.596388074097749E-2    6.421449919552194E-2   -3.746345549120007E-2    6.429060292879762E-2   -3.751816171190366E-2    9.363393659972989E-1    3.600538531780348E-2
 6.636765441031042E5     9.365712616885303E-1    3.581116486274703E-2    6.406685067306402E-2   -3.733367886968152E-2    6.414070459611958E-2   -3.739243980603259E-2    9.364794345970050E-1    3.586139747965036E-2
 6.687403049764220E5     9.367279762454175E-1    3.566971948372896E-2    6.391696237840970E-2   -3.721297327760805E-2    6.398922079992679E-2   -3.726784108425470E-2    9.365996683543295E-1    3.572646195090996E-2
 6.738427016496789E5     9.368945145640928E-1    3.554351582163712E-2    6.376836050699058E-2   -3.708064303797590E-2    6.384112486845422E-2   -3.714016010998078E-2    9.367128336352382E-1    3.560242682775720E-2
 6.789840289087215E5     9.370172672761452E-1    3.539560645074157E-2    6.361883142162435E-2   -3.695568683385458E-2    6.369272386602509E-2   -3.701500830117338E-2    9.368644170696072E-1    3.546719253745399E-2
 6.841645837885707E5     9.372001749901262E-1    3.525981518615795E-2    6.347206006305618E-2   -3.683317686715148E-2    6.354382679526602E-2   -3.688685434419882E-2    9.370368111452700E-1    3.533474092224378E-2
 6.893846655905881E5     9.373658777841779E-1    3.510800662695619E-2    6.331947216125453E-2   -3.670601521906496E-2    6.339405852866650E-2   -3.676462226042643E-2    9.371768866780120E-1    3.519325207900804E-2
 6.946445758997592E5     9.375049174282840E-1    3.496067643827204E-2    6.317413388739909E-2   -3.658212902237318E-2    6.324630940318854E-2   -3.664145091752558E-2    9.373537822315969E-1    3.502491796226093E-2
 6.999446186021230E5     9.376330892432615E-1    3.483232020176184E-2    6.302540516858493E-2   -3.645886606032253E-2    6.309888909800428E-2   -3.651770406662137E-2    9.375135720068833E-1    3.489449166993116E-2
 7.052850999023273E5     9.377742844327094E-1    3.469669961131642E-2    6.287829444842162E-2   -3.634066832195714E-2    6.295011557911366E-2   -3.639506754186552E-2    9.376452856897241E-1    3.477410965363529E-2
 7.106663283413178E5     9.378954936565752E-1    3.458496248233722E-2    6.273371024663786E-2   -3.621405160680401E-2    6.280583670343068E-2   -3.627266818478888E-2    9.377952331377740E-1    3.465738598552888E-2
 7.160886148141696E5     9.380739765900600E-1    3.443389802624369E-2    6.258266313604265E-2   -3.609561639954485E-2    6.265721796421013E-2   -3.615311569245475E-2    9.379198289353954E-1    3.449571076753335E-2
 7.215522725880400E5     9.381962172350030E-1    3.431842637130732E-2    6.243460782688991E-2   -3.596979102310795E-2    6.250951281339852E-2   -3.603067816545184E-2    9.380478792909029E-1    3.436975727785830E-2
 7.270576173202734E5     9.383795995442762E-1    3.417450505738019E-2    6.228944242102343E-2   -3.584641399556707E-2    6.236043605688847E-2   -3.591015970168280E-2    9.381989127026071E-1    3.423811967526290E-2
 7.326049670766364E5     9.384899729202592E-1    3.403984317541734E-2    6.214325893465432E-2   -3.572763270467427E-2    6.221867223371538E-2   -3.578665296199206E-2    9.383797157493297E-1    3.410431447611613E-2
 7.381946423496918E5     9.386196971508677E-1    3.391346050696300E-2    6.199532719770391E-2   -3.560902907848996E-2    6.206530802893916E-2   -3.566642278053856E-2    9.384810696778894E-1    3.399123042955277E-2
 7.438269660773217E5     9.387496692306821E-1    3.379040075621711E-2    6.185085463805815E-2   -3.548745463816752E-2    6.191816291230157E-2   -3.554466470383220E-2    9.386312771186686E-1    3.384710243637298E-2
 7.495022636613748E5     9.389262673449692E-1    3.364290021220590E-2    6.170329651701804E-2   -3.537049617262431E-2    6.176714236566355E-2   -3.542283318347307E-2    9.387414419917274E-1    3.371303896702080E-2
 7.552208629864733E5     9.390438541529141E-1    3.350280422843514E-2    6.155748917454915E-2   -3.524996258561196E-2    6.162308941925501E-2   -3.530081029260286E-2    9.388980700716159E-1    3.359138936868544E-2
 7.609830944389519E5     9.392101705642084E-1    3.334914460177163E-2    6.141311616022695E-2   -3.513006579260323E-2    6.147805702528605E-2   -3.518569365310908E-2    9.390720177294639E-1    3.347727922744233E-2
 7.667892909259528E5     9.393905908601492E-1    3.320690406902617E-2    6.126487412839833E-2   -3.501534867957336E-2    6.133443386903265E-2   -3.506461647276227E-2    9.392123591832559E-1    3.333836867550753E-2
 7.726397878946491E5     9.394898856551253E-1    3.308977118845686E-2    6.111997478708502E-2   -3.489145590736498E-2    6.118499670692506E-2   -3.494725965800091E-2    9.393313809014553E-1    3.320087569423572E-2
 7.785349233516312E5     9.396519900355015E-1    3.297412441854362E-2    6.097066136064560E-2   -3.476759553114595E-2    6.103536509247538E-2   -3.482779805045501E-2    9.394770521952751E-1    3.307049749074648E-2
 7.844750378824320E5     9.397326155213325E-1    3.288731895898829E-2    6.082697048406076E-2   -3.464855040110229E-2    6.089107977006803E-2   -3.470296967502222E-2    9.396008215047166E-1    3.296794228725475E-2
 7.904604746712097E5     9.398893508731864E-1    3.274576705308117E-2    6.068684013925472E-2   -3.452940020525663E-2    6.074767364344789E-2   -3.458779056537235E-2    9.397392969056552E-1    3.284113432700227E-2
 7.964915795205662E5     9.400559378015496E-1    3.258418525350797E-2    6.054127648121530E-2   -3.441351894215643E-2    6.060705930062225E-2   -3.446913790018236E-2    9.399427479345978E-1    3.268991332224005E-2
 8.025687008715309E5     9.402008812265112E-1    3.244756979213236E-2    6.039450407409267E-2   -3.428933766997894E-2    6.045981840644729E-2   -3.435053513091614E-2    9.400823922942878E-1    3.255193268124193E-2
 8.086921898236905E5     9.403531413285796E-1    3.231559032807624E-2    6.025236621845840E-2   -3.417164450043444E-2    6.031436791597389E-2   -3.422647888441739E-2    9.401991876710918E-1    3.242462334286594E-2
 8.148624001554718E5     9.404691219922946E-1    3.219324569827193E-2    6.010735253640780E-2   -3.404932348671826E-2    6.017031573874872E-2   -3.410660434015004E-2    9.403509596482968E-1    3.228266683543269E-2
 8.210796883445872E5     9.406217190000246E-1    3.204496858898032E-2    5.996364850403826E-2   -3.393528530364776E-2    6.002678055015866E-2   -3.399392758886877E-2    9.404881859832623E-1    3.214850212775736E-2
 8.273444135886204E5     9.407499179887504E-1    3.191432905513133E-2    5.982208686787538E-2   -3.381644270852308E-2    5.988528272518366E-2   -3.387657548159603E-2    9.406471258089596E-1    3.197678925910039E-2
 8.336569378257846E5     9.408998113725461E-1    3.179848302538029E-2    5.968326323010748E-2   -3.369939433346580E-2    5.974431018267309E-2   -3.375629100915400E-2    9.407796825650708E-1    3.188219803899267E-2
 8.400176257558319E5     9.410412218742166E-1    3.164661386304270E-2    5.954439233227778E-2   -3.357471004866184E-2    5.960159376219630E-2   -3.363874541639828E-2    9.409161687776008E-1    3.173073452086452E-2
 8.464268448611222E5     9.411787778632987E-1    3.153746549127614E-2    5.940294563280585E-2   -3.345804747543624E-2    5.946478317275692E-2   -3.351744492671037E-2    9.409948157830952E-1    3.162582024345908E-2
 8.528849654278599E5     9.413293968227501E-1    3.139714303662509E-2    5.926093906150517E-2   -3.333585184829602E-2    5.932465234702986E-2   -3.340326674695197E-2    9.411691264949490E-1    3.149313789316447E-2
 8.593923605674774E5     9.414660964042050E-1    3.123595716872484E-2    5.912144049884998E-2   -3.321498838652864E-2    5.918129935672403E-2   -3.328166557321567E-2    9.412636516502320E-1    3.138760255311771E-2
 8.659494062381978E5     9.416213403824610E-1    3.107317491665626E-2    5.898427810228232E-2   -3.309911261613922E-2    5.904317966154008E-2   -3.316055340524193E-2    9.414472628818865E-1    3.124205678536294E-2
 8.725564812667536E5     9.417101301817805E-1    3.094609948779293E-2    5.884671335185615E-2   -3.298283470642718E-2    5.890390992266732E-2   -3.303948454130882E-2    9.415540596034794E-1    3.114179006720047E-2
 8.792139673702718E5     9.418779112501998E-1    3.080471077086186E-2    5.870982389722547E-2   -3.286809266888806E-2    5.876724675321182E-2   -3.292463703529275E-2    9.416837555639747E-1    3.101777186394786E-2
 8.859222491783336E5     9.419914731648610E-1    3.071519195256008E-2    5.857753056222472E-2   -3.274450973088641E-2    5.863290379321415E-2   -3.280766014028803E-2    9.418379826134862E-1    3.085985801577152E-2
 8.926817142551860E5     9.421337169878662E-1    3.059194424150803E-2    5.844007776485424E-2   -3.262887880438082E-2    5.849288109442160E-2   -3.268862577711219E-2    9.419333126583250E-1    3.074264212955066E-2
 8.994927531221397E5     9.422270937926017E-1    3.043346139350044E-2    5.830310907828267E-2   -3.250846077320208E-2    5.836008282773664E-2   -3.257547469388335E-2    9.420808790557242E-1    3.060827147611897E-2
 9.063557592801275E5     9.423708207765685E-1    3.029465137784235E-2    5.816809444384909E-2   -3.238922352792912E-2    5.822421867363815E-2   -3.245805721858088E-2    9.422242571040790E-1    3.047033830738490E-2
 9.132711292324457E5     9.424938480165947E-1    3.017206363749340E-2    5.803632418177469E-2   -3.227659343226726E-2    5.809269564242974E-2   -3.234234920213840E-2    9.423722923515494E-1    3.033134128498559E-2
 9.202392625076511E5     9.426209399766560E-1    3.004342842769748E-2    5.790209645807029E-2   -3.215931870809362E-2    5.795833519110000E-2   -3.222265261238900E-2    9.424900551304110E-1    3.023057418434519E-2
 9.272605616826499E5     9.427518932450584E-1    2.989722020022924E-2    5.777479128260204E-2   -3.204642365461093E-2    5.782846922897341E-2   -3.210959827850920E-2    9.426054247273390E-1    3.006459046809543E-2
 9.343354324059531E5     9.428925953720333E-1    2.977730569026488E-2    5.763960108833072E-2   -3.193056321288239E-2    5.769766034123407E-2   -3.199313375112953E-2    9.427362637563309E-1    2.991974475072642E-2
 9.414642834211199E5     9.430071679803040E-1    2.966203843264505E-2    5.751431629383738E-2   -3.181125009031104E-2    5.756515331917660E-2   -3.187509501798491E-2    9.428815085803487E-1    2.978071250752246E-2
 9.486475265903610E5     9.431248366481284E-1    2.951289364557953E-2    5.738111591816354E-2   -3.169936239728305E-2    5.743481134476946E-2   -3.176021610609742E-2    9.430289337203905E-1    2.965035571736027E-2
 9.558855769183410E5     9.432751976337476E-1    2.938747024563036E-2    5.725187540180188E-2   -3.158422617875867E-2    5.730315477074743E-2   -3.164329930868998E-2    9.431361960602757E-1    2.954638605530255E-2
 9.631788525761530E5     9.434065608305213E-1    2.923381039307892E-2    5.712195703523291E-2   -3.147033851329618E-2    5.717540718391115E-2   -3.153760612538679E-2    9.432784691326499E-1    2.941522748017075E-2
 9.705277749254764E5     9.435125058548439E-1    2.914837745794884E-2    5.699409993739184E-2   -3.135508391136051E-2    5.704376608953018E-2   -3.141723212229670E-2    9.433725698525647E-1    2.929051720515332E-2
 9.779327685429282E5     9.436265690734048E-1    2.900644820061746E-2    5.687186475271321E-2   -3.124756107402546E-2    5.691809875196985E-2   -3.130522892615777E-2    9.435082203992785E-1    2.918588839990119E-2
 9.853942612445805E5     9.437584211850174E-1    2.889263254511134E-2    5.674631741367494E-2   -3.113298405146398E-2    5.678826474938597E-2   -3.119407357673667E-2    9.436137478056094E-1    2.905557676825045E-2
 9.929126841106854E5     9.438734054143650E-1    2.875673334340925E-2    5.661713332053386E-2   -3.102504422009741E-2    5.666474151090414E-2   -3.108142883692901E-2    9.437841829715895E-1    2.893616523353990E-2
 1.000488471510578E6     9.440011992461252E-1    2.865509531190428E-2    5.649447019125083E-2   -3.091024857071709E-2    5.653862684547747E-2   -3.097005692208152E-2    9.439028075933926E-1    2.879616275662961E-2
 1.008122061127771E6     9.441466418440656E-1    2.850171762258855E-2    5.636838731323885E-2   -3.080549513996848E-2    5.641465821727649E-2   -3.086056029825503E-2    9.440296982799141E-1    2.867007086775698E-2
 1.015813893985245E6     9.442656413428734E-1    2.838927342345100E-2    5.624332669765330E-2   -3.069224371370669E-2    5.628516117713622E-2   -3.075460732760898E-2    9.441398176210219E-1    2.854691751641277E-2
 1.023564414470923E6     9.443898741942039E-1    2.824600161804117E-2    5.611819512532902E-2   -3.058458408160660E-2    5.615777057201601E-2   -3.064688099976558E-2    9.442520111557323E-1    2.841669642008414E-2
 1.031374070363347E6     9.444901653878386E-1    2.810232376842646E-2    5.598998657386111E-2   -3.047986807605997E-2    5.603614575802957E-2   -3.053546102046028E-2    9.443299124766070E-1    2.829821217160155E-2
 1.039243312857548E6     9.446204165618056E-1    2.798140957890672E-2    5.586969133487002E-2   -3.037838427405059E-2    5.591091884464010E-2   -3.042885416874771E-2    9.444582915833900E-1    2.817738009200773E-2
 1.047172596591111E6     9.446937663227928E-1    2.785942315117489E-2    5.574193608004069E-2   -3.026430405856057E-2    5.578736211023835E-2   -3.031892791206226E-2    9.446032952117088E-1    2.802810469661083E-2
 1.055162379670449E6     9.448265892395843E-1    2.776060119672280E-2    5.562336643033193E-2   -3.015839403799389E-2    5.566409983924664E-2   -3.021541100586594E-2    9.447206534276971E-1    2.792468743556891E-2
 1.063213123697260E6     9.449619969039845E-1    2.763620257891911E-2    5.549478557525347E-2   -3.005406660503218E-2    5.553716103917245E-2   -3.011796722306003E-2    9.448445835215011E-1    2.778706688278786E-2
 1.071325293795198E6     9.450653825723331E-1    2.753565076955464E-2    5.537416591109000E-2   -2.994536431583706E-2    5.541701258598509E-2   -3.000475255823169E-2    9.449864644028247E-1    2.766683105694935E-2
 1.079499358636750E6     9.451781805723223E-1    2.739528799479893E-2    5.525209244481748E-2   -2.984166250796631E-2    5.529032523133133E-2   -2.990920679014572E-2    9.451151304182539E-1    2.751823055294094E-2
 1.087735790470306E6     9.452919570957088E-1    2.728657653757377E-2    5.512738620092601E-2   -2.973659976988289E-2    5.516361672509795E-2   -2.979903260246455E-2    9.452221855235203E-1    2.740115725990620E-2
 1.096035065147453E6     9.453870787384679E-1    2.716710015477426E-2    5.500339688156963E-2   -2.962982375889169E-2    5.503938215207226E-2   -2.969308136122927E-2    9.453559758587399E-1    2.728523526539391E-2
 1.104397662150453E6     9.454911176754320E-1    2.706065579235124E-2    5.487918388150219E-2   -2.952699469057508E-2    5.491609489346559E-2   -2.958780234517395E-2    9.454562062452218E-1    2.717089023014993E-2
 1.112824064619953E6     9.456390372021954E-1    2.694364418441221E-2    5.475745329259053E-2   -2.942297863936974E-2    5.478886628265187E-2   -2.948616712860247E-2    9.455771126135656E-1    2.703590380556348E-2
 1.121314759382903E6     9.457671834333135E-1    2.682062575930586E-2    5.463405218218555E-2   -2.932189506495867E-2    5.467082048145771E-2   -2.938283646226332E-2    9.456993240162106E-1    2.689348511431762E-2
 1.129870236980669E6     9.458638243054822E-1    2.671306505317531E-2    5.451127506454322E-2   -2.922095596128544E-2    5.454081315702052E-2   -2.927689322800349E-2    9.457923906014480E-1    2.680250414107645E-2
 1.138490991697383E6     9.459591487284046E-1    2.659880707594437E-2    5.438973437438757E-2   -2.911768096102530E-2    5.442030467336222E-2   -2.917519594306323E-2    9.459262896526348E-1    2.669614788078569E-2
 1.147177521588496E6     9.460947577280134E-1    2.649478327691789E-2    5.426572399304625E-2   -2.901219807918192E-2    5.429691050456184E-2   -2.907032255323855E-2    9.460327774795911E-1    2.657222049831929E-2
 1.155930328509552E6     9.462297912716860E-1    2.639131472011034E-2    5.414712820163720E-2   -2.890771430388849E-2    5.417607913956658E-2   -2.896667432726377E-2    9.461522776707672E-1    2.647673126364276E-2
 1.164749918145190E6     9.463450586958678E-1    2.623099290675785E-2    5.401937848376510E-2   -2.880882273830331E-2    5.405260868199126E-2   -2.886068778214220E-2    9.462909121186422E-1    2.638753602200194E-2
 1.173636800038349E6     9.464328552089620E-1    2.611015138991522E-2    5.389469016558623E-2   -2.870678244140181E-2    5.392636892038196E-2   -2.876025551317121E-2    9.463967798155224E-1    2.623744015729810E-2
 1.182591487619709E6     9.465811609602535E-1    2.597140402085494E-2    5.376979331853135E-2   -2.860428152404451E-2    5.380440528382615E-2   -2.865671829139018E-2    9.465017574118894E-1    2.611405453477748E-2
 1.191614498237359E6     9.466812363549205E-1    2.587309987510794E-2    5.365050434374781E-2   -2.850101512344486E-2    5.368447883091835E-2   -2.855649837626743E-2    9.466417845951676E-1    2.597563901617421E-2
 1.200706353186678E6     9.467864128232999E-1    2.575373801403528E-2    5.352782718496132E-2   -2.839625249206485E-2    5.355876088327446E-2   -2.845275665183337E-2    9.467433152509543E-1    2.587113894160473E-2
 1.209867577740467E6     9.469120706363227E-1    2.561894228255033E-2    5.340485295757309E-2   -2.829444875738640E-2    5.343754707181526E-2   -2.834888547566604E-2    9.468513591147636E-1    2.576561603734150E-2
 1.219098701179276E6     9.470469202353906E-1    2.552778183471510E-2    5.328763637263326E-2   -2.819004281955281E-2    5.331134420953774E-2   -2.824425502650689E-2    9.470082397450511E-1    2.565746889297611E-2
 1.228400256821998E6     9.471497074460582E-1    2.540795938035495E-2    5.316438151471788E-2   -2.808710995799724E-2    5.319233844391521E-2   -2.813972355861731E-2    9.471078687067003E-1    2.551943417089904E-2
 1.237772782056674E6     9.472759725916025E-1    2.529225303830610E-2    5.304623754622118E-2   -2.798263946941264E-2    5.307189216070320E-2   -2.804097922236196E-2    9.472192658653619E-1    2.537992196533208E-2
 1.247216818371540E6     9.473776905370386E-1    2.514920173610336E-2    5.292227171660610E-2   -2.787818931502502E-2    5.295368555319771E-2   -2.793615699098231E-2    9.473545594258640E-1    2.526533389781936E-2
 1.256732911386322E6     9.474990171099839E-1    2.502643398722655E-2    5.280600417248997E-2   -2.777656228682539E-2    5.283506037424406E-2   -2.782959945719368E-2    9.475006172782534E-1    2.517180941875863E-2
 1.266321610883739E6     9.476174953863755E-1    2.492901318249429E-2    5.268762412874620E-2   -2.767531461134276E-2    5.271692698992717E-2   -2.772683215663186E-2    9.475781330975573E-1    2.506256752417129E-2
 1.275983470841281E6     9.477132387568749E-1    2.482332471700758E-2    5.256786422456598E-2   -2.756672221344754E-2    5.259398359361444E-2   -2.761893947507783E-2    9.477168164303080E-1    2.491998916127909E-2
 1.285719049463211E6     9.478649234262509E-1    2.470041143338475E-2    5.245439958168581E-2   -2.746865286968355E-2    5.247255067478047E-2   -2.751871284747865E-2    9.478051428532773E-1    2.478829391105522E-2
 1.295528909212810E6     9.479586439684826E-1    2.455169278057119E-2    5.233333453874140E-2   -2.736235735143618E-2    5.235811505449363E-2   -2.741636792732954E-2    9.478997491589887E-1    2.468725986192314E-2
 1.305413616844883E6     9.480943064501283E-1    2.444613791830505E-2    5.221646475613467E-2   -2.726031847629443E-2    5.224334323337278E-2   -2.730908673780093E-2    9.480031425904175E-1    2.456063957765789E-2
 1.315373743438491E6     9.481989220645479E-1    2.429006226811935E-2    5.210297073995987E-2   -2.716175212769036E-2    5.212577439525271E-2   -2.720348109693881E-2    9.481254903356715E-1    2.443404095125468E-2
 1.325409864429950E6     9.482937569987926E-1    2.422322704195037E-2    5.198421273150635E-2   -2.705645702204807E-2    5.200875396467569E-2   -2.709820057756149E-2    9.482256327032619E-1    2.430502228855013E-2
 1.335522559646084E6     9.484097155834054E-1    2.408740684601754E-2    5.187409039997383E-2   -2.695105221905701E-2    5.189952398168134E-2   -2.699924338495944E-2    9.483476172906755E-1    2.419938308412906E-2
 1.345712413337699E6     9.484981405004611E-1    2.396847971907590E-2    5.176536813844378E-2   -2.685136950116457E-2    5.178220048874992E-2   -2.689612559796983E-2    9.484321149826068E-1    2.404846636329644E-2
 1.355980014213373E6     9.486012848864600E-1    2.384711036296232E-2    5.164829650294838E-2   -2.674584308414028E-2    5.167162219898966E-2   -2.679118781244160E-2    9.485819838355999E-1    2.395033909233696E-2
 1.366325955473440E6     9.487382066549107E-1    2.372729871202207E-2    5.153867939164303E-2   -2.664225077833520E-2    5.155881417304025E-2   -2.669202074843555E-2    9.487026442133407E-1    2.385359603105483E-2
 1.376750834844268E6     9.488024497588703E-1    2.357859920149339E-2    5.142498456484333E-2   -2.654275981724085E-2    5.145129366035976E-2   -2.658992826657929E-2    9.488093319533500E-1    2.372067290121944E-2
 1.387255254612807E6     9.489211857030678E-1    2.346342031057280E-2    5.131561430038969E-2   -2.644231494888415E-2    5.134244415126091E-2   -2.648552548960112E-2    9.489371325657288E-1    2.360391449856406E-2
 1.397839821661363E6     9.490291697526172E-1    2.336750829806946E-2    5.120617319802835E-2   -2.634283712235984E-2    5.122601749475008E-2   -2.638612408965760E-2    9.490299185670718E-1    2.347724016458575E-2
 1.408505147502673E6     9.491414245451411E-1    2.324444057347590E-2    5.109633888746535E-2   -2.624172831203747E-2    5.111652929344027E-2   -2.628320029962297E-2    9.491266966939892E-1    2.335245034071136E-2
 1.419251848315235E6     9.492329781121202E-1    2.311793523457596E-2    5.098799451936702E-2   -2.613904343909914E-2    5.101018290491248E-2   -2.618307840494940E-2    9.492393495133962E-1    2.323890704505340E-2
 1.430080544978898E6     9.493419614270048E-1    2.301544333697393E-2    5.087721129888598E-2   -2.604194014094986E-2    5.090274684615376E-2   -2.608282442887130E-2    9.493371758866429E-1    2.311761339377889E-2
 1.440991863110751E6     9.494623937361857E-1    2.290745540064279E-2    5.077194886523358E-2   -2.594118835130832E-2    5.079529962317152E-2   -2.598679733718849E-2    9.494402518541869E-1    2.298315399984758E-2
 1.451986433101243E6     9.495221644989982E-1    2.275972070429206E-2    5.066324366059720E-2   -2.584712628862602E-2    5.068906803769614E-2   -2.588806850230134E-2    9.495257689275606E-1    2.286710688880255E-2
 1.463064890150622E6     9.496282583861529E-1    2.263842582546859E-2    5.055559237930623E-2   -2.574932460038454E-2    5.057951181982911E-2   -2.578968616780953E-2    9.496486704738574E-1    2.276786760245299E-2
 1.474227874305625E6     9.497415166127302E-1    2.252579880983378E-2    5.045026067410210E-2   -2.565461972615040E-2    5.047366656605442E-2   -2.569231918218364E-2    9.497629879414315E-1    2.266211375158480E-2
 1.485476030496454E6     9.498532919827747E-1    2.240436269849134E-2    5.034304770061638E-2   -2.555345707913619E-2    5.036549351879696E-2   -2.559699165517844E-2    9.498644702760471E-1    2.252339585908382E-2
 1.496810008574050E6     9.499625641407655E-1    2.230971774841467E-2    5.023853812255111E-2   -2.545929672666300E-2    5.025946989115018E-2   -2.550162049127351E-2    9.499649044650790E-1    2.239868553675464E-2
 1.508230463347619E6     9.500581131430735E-1    2.218642200076850E-2    5.012990907599960E-2   -2.536724857517755E-2    5.015308747467448E-2   -2.540448227036066E-2    9.500839623084626E-1    2.230461186246295E-2
 1.519738054622472E6     9.501856574854447E-1    2.208681057865676E-2    5.002745617405290E-2   -2.527051411890150E-2    5.004627616481486E-2   -2.531123367612758E-2    9.501389221296280E-1    2.218473647253755E-2
 1.531333447238147E6     9.502798144325800E-1    2.195219394971530E-2    4.991974408229425E-2   -2.517578131243629E-2    4.994176071875979E-2   -2.521348029877161E-2    9.502593947130726E-1    2.207353149170933E-2
 1.543017311106810E6     9.503845700794721E-1    2.183910020296472E-2    4.981722408243942E-2   -2.508102430690795E-2    4.983855603540818E-2   -2.511917698939580E-2    9.503697054437961E-1    2.196404009384735E-2
 1.554790321251977E6     9.504835971940108E-1    2.174734435672427E-2    4.970790317160993E-2   -2.498895170418709E-2    4.973491438237364E-2   -2.502489486553028E-2    9.504914633309467E-1    2.186131594092152E-2
 1.566653157847488E6     9.505949587907092E-1    2.162070956181746E-2    4.960528336226900E-2   -2.489704789976027E-2    4.962479532549924E-2   -2.493469358602715E-2    9.505709446437286E-1    2.172831293860653E-2
 1.578606506256824E6     9.507036084878878E-1    2.149326026480363E-2    4.949994792281395E-2   -2.480485590101163E-2    4.952211895914285E-2   -2.483851606168003E-2    9.506663033377383E-1    2.161846382844376E-2
 1.590651057072690E6     9.508323915685919E-1    2.138925007211957E-2    4.939457301795632E-2   -2.471031227419125E-2    4.941708590327804E-2   -2.474637939069781E-2    9.507773532373878E-1    2.149179633110301E-2
 1.602787506156919E6     9.509397272946578E-1    2.127770682919889E-2    4.928747728964501E-2   -2.461702537002432E-2    4.931065379782661E-2   -2.465270277775252E-2    9.508986366266831E-1    2.139330582273612E-2
 1.615016554680682E6     9.510207438738743E-1    2.116524457770291E-2    4.917727957263674E-2   -2.452306309465544E-2    4.920293469994634E-2   -2.456275629503702E-2    9.510017726949997E-1    2.127959730827550E-2
 1.627338909164981E6     9.511478196984928E-1    2.105042627469930E-2    4.907632993943174E-2   -2.443110532360513E-2    4.909666328878206E-2   -2.446689547730892E-2    9.511288150909835E-1    2.119459949628461E-2
 1.639755281521474E6     9.512395026745669E-1    2.094735067287894E-2    4.897296227150788E-2   -2.433711960762165E-2    4.899480105932063E-2   -2.437099453110558E-2    9.512055613526438E-1    2.106360582334036E-2
 1.652266389093622E6     9.513354812977050E-1    2.081872738922906E-2    4.886486344546834E-2   -2.424614593221047E-2    4.888662556991465E-2   -2.427848853169345E-2    9.513633203555547E-1    2.095847923432662E-2
 1.664872954698102E6     9.514261194581811E-1    2.071496210720451E-2    4.875976409429596E-2   -2.415387456937145E-2    4.878134279678090E-2   -2.418841028419531E-2    9.514354980342677E-1    2.082562688856116E-2
 1.677575706666590E6     9.515279950299460E-1    2.060146024711187E-2    4.865469545776241E-2   -2.405907560906754E-2    4.867106342702635E-2   -2.409190883611109E-2    9.515187632332475E-1    2.071461739444613E-2
 1.690375378887833E6     9.516548174267389E-1    2.049415889174097E-2    4.854768934239631E-2   -2.396687665397374E-2    4.856792984933812E-2   -2.400150339361267E-2    9.515977562601756E-1    2.058400702461750E-2
 1.703272710850043E6     9.517636492791470E-1    2.037190116785658E-2    4.844329807593213E-2   -2.387455814780478E-2    4.846189854788947E-2   -2.390820547075286E-2    9.517123493947249E-1    2.049387592648641E-2
 1.716268447683636E6     9.518501719739746E-1    2.025106016263623E-2    4.834257191870043E-2   -2.377862575961424E-2    4.835932689955114E-2   -2.381223091999730E-2    9.517984839418795E-1    2.035998653987826E-2
 1.729363340204262E6     9.519331962133437E-1    2.013513256679737E-2    4.823538929103759E-2   -2.368410200164054E-2    4.825652686401169E-2   -2.371904653367075E-2    9.519178109690714E-1    2.024114325949871E-2
 1.742558144956193E6     9.520576143655457E-1    2.003231151833388E-2    4.813116255480063E-2   -2.359817885777392E-2    4.815163382960103E-2   -2.362157759684470E-2    9.520267242005170E-1    2.011850016505680E-2
 1.755853624256030E6     9.521052164465883E-1    1.989323988695595E-2    4.803013634319647E-2   -2.349940370241535E-2    4.805321875718562E-2   -2.353242571082929E-2    9.521211422596808E-1    1.999728169153033E-2
 1.769250546236744E6     9.522402011461916E-1    1.977810607431503E-2    4.792467917474930E-2   -2.340478624666179E-2    4.795086050818723E-2   -2.343812333186629E-2    9.521993590343714E-1    1.987286183185138E-2
 1.782749684892061E6     9.523050281130253E-1    1.965033372371140E-2    4.782445941598711E-2   -2.331193987870320E-2    4.785072062937094E-2   -2.334371507993981E-2    9.523286200745011E-1    1.975667995184451E-2
 1.796351820121167E6     9.524129285632973E-1    1.954021799212886E-2    4.772005238867798E-2   -2.321869630024416E-2    4.774724659104602E-2   -2.324736196413420E-2    9.524017047627139E-1    1.964000058363621E-2
 1.810057737773773E6     9.525049318290207E-1    1.941753061379413E-2    4.762289609870072E-2   -2.312643980593050E-2    4.764518260165232E-2   -2.315544423563059E-2    9.524661711874882E-1    1.950925937931842E-2
 1.823868229695514E6     9.526491833128764E-1    1.932146192353996E-2    4.752457363334005E-2   -2.303518514204485E-2    4.754224471192793E-2   -2.306033156611291E-2    9.525599337903895E-1    1.939698298777946E-2
 1.837784093773698E6     9.527056740444075E-1    1.918278894860053E-2    4.742252954738954E-2   -2.293907931151615E-2    4.744575434843153E-2   -2.296845903088285E-2    9.526812864985095E-1    1.928687518825053E-2
 1.851806133983411E6     9.527962747632606E-1    1.908338449476832E-2    4.732350452566977E-2   -2.284477496054786E-2    4.734561576872665E-2   -2.287422531802564E-2    9.528033404193086E-1    1.917464535545933E-2
 1.865935160433950E6     9.528961684537735E-1    1.895864498138419E-2    4.722676188578883E-2   -2.275469118010433E-2    4.724592042012285E-2   -2.278067756026441E-2    9.528580970056155E-1    1.905779277885597E-2
 1.880171989415638E6     9.529878883330093E-1    1.884258433019776E-2    4.713306682336130E-2   -2.265941139731711E-2    4.715202594134426E-2   -2.268698276147480E-2    9.529735821038046E-1    1.894071152976233E-2
 1.894517443446981E6     9.530832977395954E-1    1.873849781603142E-2    4.703393671671292E-2   -2.256789284533422E-2    4.705183102813437E-2   -2.259393894618691E-2    9.530424872716925E-1    1.881409673655446E-2
 1.908972351322182E6     9.531922640496769E-1    1.861178455187444E-2    4.694342467973922E-2   -2.247651043944545E-2    4.695288643411440E-2   -2.250001785861951E-2    9.531448970684994E-1    1.869148750332201E-2
 1.923537548159045E6     9.532784143850627E-1    1.848888672119815E-2    4.684718719606291E-2   -2.238487581565111E-2    4.686078307018766E-2   -2.241007047645105E-2    9.531996312081189E-1    1.858971664421042E-2
 1.938213875447196E6     9.533797846189280E-1    1.837619625007949E-2    4.674586994211722E-2   -2.229522825987106E-2    4.676245586888153E-2   -2.231697792378824E-2    9.533000931468129E-1    1.846623813550190E-2
 1.953002181096708E6     9.534314729747052E-1    1.824618660681995E-2    4.665112500708962E-2   -2.220623025935754E-2    4.667305817041111E-2   -2.222812929122916E-2    9.534348230020568E-1    1.835755618017552E-2
 1.967903319487111E6     9.535538631630859E-1    1.814606208011867E-2    4.655906347836920E-2   -2.211135285302885E-2    4.657791272784895E-2   -2.213818695882513E-2    9.535116161727822E-1    1.823150082385819E-2
 1.982918151516703E6     9.536469582845932E-1    1.803234972416838E-2    4.646526207562580E-2   -2.202390338676230E-2    4.648277604731028E-2   -2.204515016275681E-2    9.535966440954428E-1    1.812675934074460E-2
 1.998047544652348E6     9.537541075431232E-1    1.791195924910481E-2    4.636846670531782E-2   -2.193203850907451E-2    4.638570078564146E-2   -2.195635469643685E-2    9.536496299520861E-1    1.800136273376373E-2
 2.013292372979546E6     9.537768451891425E-1    1.778592994772836E-2    4.627460262117910E-2   -2.184334028433469E-2    4.629496003882368E-2   -2.186545804326618E-2    9.537427311056608E-1    1.789091530886860E-2
 2.028653517252947E6     9.538512836097655E-1    1.766752073609322E-2    4.618179986437765E-2   -2.175750923773537E-2    4.620193326623893E-2   -2.177979943765908E-2    9.538536121067636E-1    1.777596735614893E-2
 2.044131864947255E6     9.539640120980647E-1    1.755837822566689E-2    4.608858483584168E-2   -2.166894263739132E-2    4.610611944110893E-2   -2.169080822082347E-2    9.539272093986136E-1    1.764044420628200E-2
 2.059728310308467E6     9.540253540327455E-1    1.745298889330584E-2    4.599504304753783E-2   -2.158043259236711E-2    4.601181559117463E-2   -2.160247133598959E-2    9.540326037101512E-1    1.754719604483738E-2
 2.075443754405562E6     9.541069126811840E-1    1.733489579847259E-2    4.590256571563346E-2   -2.149664284397799E-2    4.591848452054828E-2   -2.151537912022478E-2    9.541092044161699E-1    1.743011825543190E-2
 2.091279105182548E6     9.542122401114954E-1    1.722959209009156E-2    4.581113563971374E-2   -2.140701872897586E-2    4.582902621739094E-2   -2.142797138381907E-2    9.542126363128213E-1    1.733597985062155E-2
 2.107235277510921E6     9.542708086234285E-1    1.711610675294464E-2    4.571845570991075E-2   -2.132046003078112E-2    4.573278335233227E-2   -2.133712892992059E-2    9.542800325486716E-1    1.720905302099898E-2
 2.123313193242529E6     9.543758454943418E-1    1.699190079242023E-2    4.562762679042721E-2   -2.123502054109005E-2    4.563944263232311E-2   -2.125215171257996E-2    9.543713714545766E-1    1.709269570512305E-2
 2.139513781262815E6     9.544256247033561E-1    1.687541253016631E-2    4.553386312987896E-2   -2.115192608838798E-2    4.554604408726782E-2   -2.116532945831536E-2    9.545065009211511E-1    1.698105299049340E-2
 2.155837977544490E6     9.545860337202564E-1    1.677926683974251E-2    4.544006940028273E-2   -2.106276566372686E-2    4.545167925616742E-2   -2.107911638327699E-2    9.545815136289433E-1    1.688051367758076E-2
 2.172286725201612E6     9.547042907655164E-1    1.667594295822381E-2    4.534549410550520E-2   -2.097976497456084E-2    4.535968439589436E-2   -2.099058361026978E-2    9.546400438374376E-1    1.676346299492542E-2
 2.188860974544063E6     9.547728814012801E-1    1.655737709457102E-2    4.525306445606136E-2   -2.089422466174944E-2    4.526524175015897E-2   -2.090001297726351E-2    9.547486909810272E-1    1.663317542796001E-2
 2.205561683132472E6     9.548627667140080E-1    1.646088754426653E-2    4.516270577433691E-2   -2.080932423361643E-2    4.517794021878813E-2   -2.081658037211422E-2    9.548850216929757E-1    1.651055997507915E-2
 2.222389815833514E6     9.549343085989428E-1    1.632821110820280E-2    4.506696669496917E-2   -2.072467252968458E-2    4.508369793951189E-2   -2.072601370792585E-2    9.549643669570618E-1    1.640489679362540E-2
 2.239346344875663E6     9.550278611666695E-1    1.622700552152697E-2    4.497428339602447E-2   -2.063972894281603E-2    4.498821287562562E-2   -2.063967719798141E-2    9.550720613852268E-1    1.629169565471188E-2
 2.256432249905369E6     9.551088698330801E-1    1.612561637995131E-2    4.488108686563189E-2   -2.055054008775940E-2    4.489234437198166E-2   -2.055051759014300E-2    9.551621798277818E-1    1.615972030099089E-2
 2.273648518043640E6     9.552079517604634E-1    1.600858434963107E-2    4.478704700823021E-2   -2.046041612758813E-2    4.480029478814435E-2   -2.046177026652470E-2    9.552544686344393E-1    1.605242287647615E-2
 2.290996143943099E6     9.552938250001051E-1    1.588952885850708E-2    4.469819325715765E-2   -2.037803675685718E-2    4.470900183509408E-2   -2.037015866258875E-2    9.552973509436198E-1    1.593663986773860E-2
 2.308476129845417E6     9.554137319371117E-1    1.578358329731822E-2    4.460410497558491E-2   -2.029153603528574E-2    4.461916467537534E-2   -2.027964471280039E-2    9.554288194728041E-1    1.583283270510263E-2
 2.326089485639235E6     9.554733493965939E-1    1.566560594561931E-2    4.451338118425618E-2   -2.020455956983633E-2    4.452976598280966E-2   -2.018954048433105E-2    9.554985580184325E-1    1.572421018680132E-2
 2.343837228918507E6     9.555924209313879E-1    1.556234359053697E-2    4.442143226254917E-2   -2.011509027079608E-2    4.444031200774572E-2   -2.010150662074918E-2    9.555778802372366E-1    1.561692068464373E-2
 2.361720385041283E6     9.556567974677288E-1    1.544399693626809E-2    4.432983557092005E-2   -2.002988969443063E-2    4.435456886784764E-2   -2.001420606731721E-2    9.556528269298969E-1    1.549738135307993E-2
 2.379739987188969E6     9.557641150712470E-1    1.534404124102533E-2    4.424206761187426E-2   -1.994411203594303E-2    4.426871998852034E-2   -1.992285070749012E-2    9.557177801007144E-1    1.539511457692613E-2
 2.397897076425990E6     9.558466920884395E-1    1.520750733243615E-2    4.415053996894471E-2   -1.985365709344614E-2    4.417833821564692E-2   -1.983481355199735E-2    9.558201761952325E-1    1.526225585500851E-2
 2.416192701759947E6     9.559307072766093E-1    1.510138158444631E-2    4.406068620116782E-2   -1.976385264403362E-2    4.409567520547767E-2   -1.975090432666968E-2    9.559064305209524E-1    1.514424289238695E-2
 2.434627920202243E6     9.560218696928210E-1    1.498118933754101E-2    4.397018283448048E-2   -1.967958512253084E-2    4.400688034415777E-2   -1.966385663025279E-2    9.559812270949294E-1    1.503620927395792E-2
 2.453203796829114E6     9.561242462601645E-1    1.484942800273814E-2    4.388283908621611E-2   -1.958949019342689E-2    4.392196264203418E-2   -1.957704332404818E-2    9.560668017155870E-1    1.489642404495920E-2
 2.471921404843189E6     9.562319469853666E-1    1.473172862827273E-2    4.379735472196510E-2   -1.950265584340071E-2    4.384135330512132E-2   -1.948996510455329E-2    9.561635365202867E-1    1.478518506343942E-2
 2.490781825635486E6     9.563110315492441E-1    1.462357344736827E-2    4.371235103394759E-2   -1.941120119645959E-2    4.375167266511234E-2   -1.940599960580341E-2    9.562368817088063E-1    1.467704831350171E-2
 2.509786148847881E6     9.563914165184499E-1    1.332129412716716E-2    4.392195169163232E-2   -1.909274970626277E-2    4.361893111556930E-2   -1.974247623759986E-2    9.566421161607929E-1    1.474299572970439E-2
 2.528935472436085E6     9.564667836559653E-1    1.309140633398735E-2    4.383236323931055E-2   -1.898482221636961E-2    4.354335107068460E-2   -1.964823943867874E-2    9.567102684084656E-1    1.465372737327632E-2
 2.548230902733043E6     9.565829052007241E-1    1.315138321671350E-2    4.374826680042756E-2   -1.890244354457890E-2    4.345631351191747E-2   -1.955878408075114E-2    9.567726888221152E-1    1.456010195961451E-2
 2.567673554512876E6     9.566458261669657E-1    1.293911694903999E-2    4.366932006622771E-2   -1.880817466613832E-2    4.337625816659484E-2   -1.945661971145775E-2    9.568539550943186E-1    1.448334380919677E-2
 2.587264551055275E6     9.567002280502735E-1    1.270996474538223E-2    4.358995909665940E-2   -1.872440444388919E-2    4.329755861123925E-2   -1.937118334831527E-2    9.568933269070196E-1    1.423928495275983E-2
 2.607005024210399E6     9.567603880461923E-1    1.249240792813651E-2    4.350808060782646E-2   -1.864610642908944E-2    4.323055848604278E-2   -1.926712822447196E-2    9.569844135367168E-1    1.423357873911147E-2
 2.626896114464281E6     9.569330705858369E-1    1.247293394195326E-2    4.342435816247072E-2   -1.855836352904252E-2    4.315290361839732E-2   -1.917627792757239E-2    9.570478841351023E-1    1.412553699122220E-2
 2.646938971004693E6     9.569401051101213E-1    1.220121059975934E-2    4.334996465820234E-2   -1.846680559000627E-2    4.307668603724767E-2   -1.908558075719324E-2    9.570975917897898E-1    1.393774553280743E-2
 2.667134751787555E6     9.570616169651698E-1    1.235454367369537E-2    4.325355775370674E-2   -1.839383854804033E-2    4.300509837626588E-2   -1.898584256510658E-2    9.572392723869552E-1    1.397495370276217E-2
 2.687484623603833E6     9.571656540083346E-1    1.210439962690405E-2    4.317632959981046E-2   -1.829997195545689E-2    4.292548741409382E-2   -1.891124133504352E-2    9.573673101830201E-1    1.383441024091096E-2
 2.707989762146940E6     9.572830734358695E-1    1.220314627877995E-2    4.309531837160688E-2   -1.822486767522282E-2    4.285327664054137E-2   -1.881448463110475E-2    9.573811975490736E-1    1.356005075735833E-2
 2.728651352080688E6     9.572980329983829E-1    1.209096894705152E-2    4.301562600832314E-2   -1.813815229275087E-2    4.278215809030095E-2   -1.871986477845583E-2    9.574498353199190E-1    1.345770990021955E-2
 2.749470587107692E6     9.573970549626740E-1    1.195391648140184E-2    4.293833550261246E-2   -1.804741931213252E-2    4.270576293118005E-2   -1.862563490599121E-2    9.575265008974893E-1    1.326325049663201E-2
 2.770448670038360E6     9.574803569082501E-1    1.183036120976101E-2    4.284386303752484E-2   -1.798290395392684E-2    4.262241400924163E-2   -1.854429027658772E-2    9.575973002164704E-1    1.323574629686303E-2
 2.791586812860380E6     9.575694870701411E-1    1.155675002117902E-2    4.276176089868752E-2   -1.791038928774804E-2    4.255168817013383E-2   -1.845095889234339E-2    9.577008244474562E-1    1.305488767747507E-2
 2.812886236808732E6     9.576647390087718E-1    1.143159800189978E-2    4.268508396445156E-2   -1.781224874437982E-2    4.247103191752879E-2   -1.837290892667533E-2    9.577791843809698E-1    1.302834323126443E-2
 2.834348172436268E6     9.577126107491056E-1    1.127486930447608E-2    4.260119938706973E-2   -1.773684759200745E-2    4.239062055632768E-2   -1.828210686046462E-2    9.578929053830354E-1    1.294888967010946E-2
 2.855973859684773E6     9.577586607591358E-1    1.107442715793120E-2    4.251950737663462E-2   -1.765466516714018E-2    4.231423324527323E-2   -1.819544832792045E-2    9.579644700873512E-1    1.277445372273544E-2
 2.877764547956619E6     9.578728824876975E-1    1.111452388820931E-2    4.244896542596777E-2   -1.756310972602563E-2    4.223496445928790E-2   -1.810920171196942E-2    9.580306385226584E-1    1.265769381477647E-2
 2.899721496186967E6     9.579302299753923E-1    1.097257792444336E-2    4.236284002182496E-2   -1.748371052322167E-2    4.216375743314107E-2   -1.801451858466015E-2    9.580668133517702E-1    1.249188351949953E-2
 2.921845972916440E6     9.580230479027647E-1    1.090591699860348E-2    4.228197838656279E-2   -1.739542745916073E-2    4.208790154864454E-2   -1.793096147570196E-2    9.581533773331259E-1    1.233197046812799E-2
 2.944139256364495E6     9.580853729449540E-1    1.070931947800198E-2    4.219911345587611E-2   -1.732552767971928E-2    4.201565426888007E-2   -1.783896476765953E-2    9.583423043735085E-1    1.248251591197682E-2
 2.966602634503201E6     9.581317573913062E-1    1.052455405561109E-2    4.211459094333756E-2   -1.724837403247365E-2    4.193365371983482E-2   -1.775564299908993E-2    9.584218490021951E-1    1.232606022374086E-2
 2.989237405131679E6     9.582592766198383E-1    1.041251336133589E-2    4.203490559077608E-2   -1.717227443333052E-2    4.186232664372377E-2   -1.766241728790298E-2    9.585330496505936E-1    1.232159043146748E-2
 3.012044875951098E6     9.582212612648793E-1    1.047607207547899E-2    4.196572943560866E-2   -1.718462574004525E-2    4.185466640537890E-2   -1.739819902922244E-2    9.585892711098309E-1    1.199717104478465E-2
 3.035026364640187E6     9.583868693647655E-1    1.051485624163298E-2    4.188945560247984E-2   -1.710639578219155E-2    4.176525027348985E-2   -1.732827912723504E-2    9.586212481040854E-1    1.180674071266563E-2
 3.058183198931389E6     9.584561795204301E-1    1.043602734578683E-2    4.181415302489357E-2   -1.702200745900553E-2    4.169526528475249E-2   -1.724175874762297E-2    9.587000024467001E-1    1.170318512967957E-2
 3.081516716687564E6     9.584670739080607E-1    1.025556439042047E-2    4.173501435086738E-2   -1.693773480079307E-2    4.161808751792764E-2   -1.715378925527802E-2    9.588023254072338E-1    1.162877152824119E-2
 3.105028265979277E6     9.586269973683009E-1    1.034388172316979E-2    4.166336883878644E-2   -1.684176767037961E-2    4.155189992564049E-2   -1.706105203634924E-2    9.588521276363673E-1    1.137201443321693E-2
 3.128719205162701E6     9.586770742502940E-1    1.020844742384772E-2    4.158293433548032E-2   -1.676640663283195E-2    4.147030411435217E-2   -1.697748765140224E-2    9.589294457719161E-1    1.124055167171940E-2
 3.152590902958065E6     9.587301221897443E-1    9.835709804566009E-3    4.150535649743373E-2   -1.669029725798304E-2    4.139413296819900E-2   -1.690419785616214E-2    9.589976133275365E-1    1.109559812586548E-2
 3.176644738528751E6     9.587941065280766E-1    9.525318447445268E-3    4.143310521696695E-2   -1.660685962735320E-2    4.131386505172964E-2   -1.681586403546111E-2    9.590578269725265E-1    1.097489754581400E-2
 3.200882101560967E6     9.588017681703914E-1    9.377484482549932E-3    4.135526104266609E-2   -1.652384152915791E-2    4.124407152316584E-2   -1.673908789132570E-2    9.591357814291647E-1    1.083743932878407E-2
 3.225304392344028E6     9.589646336740560E-1    9.316575051135007E-3    4.127838620875347E-2   -1.644988816664261E-2    4.117159196124013E-2   -1.665123819952883E-2    9.591943163659784E-1    1.059297317294476E-2
 3.249913021851289E6     9.590474651990615E-1    9.211053799276871E-3    4.120529777932207E-2   -1.636066177342714E-2    4.109760836265165E-2   -1.657311722656075E-2    9.593538907570706E-1    1.071640004875634E-2
 3.274709411821612E6     9.590718486729615E-1    8.982213841404442E-3    4.112677796615393E-2   -1.628410715349690E-2    4.102966413504877E-2   -1.647267300254613E-2    9.594072631573695E-1    1.060729333871583E-2
 3.299694994841541E6     9.591891932077731E-1    9.051442883632951E-3    4.105305876307512E-2   -1.620047699378786E-2    4.095106944911267E-2   -1.640793482168204E-2    9.594191150047398E-1    1.023747824346201E-2
 3.324871214428060E6     9.592756181211551E-1    8.765211407399389E-3    4.098063383898345E-2   -1.609446531241161E-2    4.085858981443871E-2   -1.635636381050384E-2    9.595330745608281E-1    1.038965873346523E-2
 3.350239525111979E6     9.593449452385785E-1    8.556788014369685E-3    4.090673414434161E-2   -1.601138584741932E-2    4.078812516224787E-2   -1.627695637210846E-2    9.595684179559815E-1    1.012231490751880E-2
 3.375801392522001E6     9.594057219979188E-1    8.505535849106551E-3    4.082867239647414E-2   -1.594074005737378E-2    4.071272795289042E-2   -1.619060382350564E-2    9.596238381737142E-1    9.961472993692809E-3
 3.401558293469354E6     9.594980130936042E-1    8.408718972523037E-3    4.075956971817236E-2   -1.588690333679288E-2    4.065805559366475E-2   -1.607713231544337E-2    9.597483681531961E-1    9.977797825994382E-3
 3.427511716033138E6     9.595558234599590E-1    8.194255572381893E-3    4.068733516171914E-2   -1.580372559951651E-2    4.058356343827448E-2   -1.599907029939174E-2    9.597556100030916E-1    9.732274641530741E-3
 3.453663159646295E6     9.596288318336627E-1    8.181509054453669E-3    4.061682614660355E-2   -1.572522934747773E-2    4.051905137118814E-2   -1.591549727957342E-2    9.598428092285576E-1    9.601023301665863E-3
 3.480014135182226E6     9.597368207861992E-1    8.297668580522980E-3    4.054726419063462E-2   -1.563677608656747E-2    4.044153642574332E-2   -1.584205182080884E-2    9.598885577169406E-1    9.489897693546058E-3
 3.506566165042107E6     9.598284888538434E-1    8.377649434609351E-3    4.047289229221532E-2   -1.557717137110658E-2    4.039981192441059E-2   -1.573307930817251E-2    9.600198857281721E-1    9.415102855809720E-3
 3.533320783242811E6     9.599007315223602E-1    8.126405232131217E-3    4.040476837574929E-2   -1.549466604028055E-2    4.032511274217683E-2   -1.564756646092851E-2    9.601875951812131E-1    9.465413359418331E-3
 3.560279535505542E6     9.599159376044855E-1    7.964794632562317E-3    4.033044398880063E-2   -1.541162758742161E-2    4.025258942996598E-2   -1.557706593546275E-2    9.601786687727094E-1    9.215309732546879E-3
 3.587443979345170E6     9.600107078891466E-1    7.801709583592143E-3    4.025261289416369E-2   -1.534655527296151E-2    4.018192988657415E-2   -1.548772765992471E-2    9.602239344329297E-1    9.034144148471810E-3
 3.614815684160168E6     9.600875356984403E-1    7.572807040905913E-3    4.017429602358211E-2   -1.526289907569453E-2    4.011518137683279E-2   -1.540703826172286E-2    9.602959114870296E-1    8.831838390184261E-3
 3.642396231323309E6     9.601655551890194E-1    7.501018008299186E-3    4.011356582096675E-2   -1.517725389684911E-2    4.003204399808136E-2   -1.533496952476905E-2    9.603366862935477E-1    8.583739812796292E-3
 3.670187214273024E6     9.602947563136388E-1    7.217646112788564E-3    4.002559687364704E-2   -1.496786039740159E-2    3.987938904876129E-2   -1.543771468550331E-2    9.603655947085480E-1    8.618919413970081E-3
 3.698190238605455E6     9.603797504621553E-1    7.003830412210807E-3    3.994990014162692E-2   -1.489100501833086E-2    3.980190312373049E-2   -1.536322436193826E-2    9.604594423049405E-1    8.457740473247778E-3
 3.726406922167240E6     9.604814979693790E-1    6.915223482054062E-3    3.988580964942592E-2   -1.480558545687946E-2    3.974462923129581E-2   -1.528036598754979E-2    9.605651608890811E-1    8.357899204477597E-3
 3.754838895148946E6     9.605266773460562E-1    6.753645550585516E-3    3.981385656352850E-2   -1.472415208874792E-2    3.967326318385210E-2   -1.519019307628331E-2    9.605648326336214E-1    8.084580547019198E-3
 3.783487800179276E6     9.605634948714787E-1    6.709834312387542E-3    3.975433792655399E-2   -1.467535156515416E-2    3.960936551406771E-2   -1.505427834619280E-2    9.605616409343984E-1    7.845914086710601E-3
 3.812355292419964E6     9.606482421313283E-1    6.724132265047181E-3    3.969462907938119E-2   -1.459043135968255E-2    3.953800346835832E-2   -1.497784768391478E-2    9.606607509608704E-1    7.685874463896363E-3
 3.841443039661395E6     9.606760066240863E-1    6.551395451981882E-3    3.962242460297127E-2   -1.450377626848762E-2    3.947251732240303E-2   -1.489344579314984E-2    9.607738374054143E-1    7.744786626330238E-3
 3.870752722418987E6     9.607736692950308E-1    6.460017308283509E-3    3.955245153696493E-2   -1.442851538114313E-2    3.940533307625003E-2   -1.480592308345518E-2    9.608429799888711E-1    7.708580014290355E-3
 3.900286034030236E6     9.608155204628821E-1    6.442590910309936E-3    3.948480250776241E-2   -1.434043797231261E-2    3.933851721366365E-2   -1.473112515968764E-2    9.610508572688310E-1    7.702948065744794E-3
 3.930044680752580E6     9.608966935502170E-1    6.282168797150776E-3    3.941847890334672E-2   -1.425843733299483E-2    3.926596997087482E-2   -1.465278257770515E-2    9.609830483123430E-1    7.378632018469933E-3
 3.960030381861967E6     9.609597074716067E-1    6.081712699669260E-3    3.934953534942867E-2   -1.417898003083100E-2    3.920259182889269E-2   -1.456727089289874E-2    9.611040501215069E-1    7.199513706351570E-3
 3.990244869752173E6     9.610182879265564E-1    5.891441083612361E-3    3.927235133151672E-2   -1.410821287204583E-2    3.913149537179957E-2   -1.449569758596534E-2    9.611595117658494E-1    7.070734830480790E-3
 4.020689890034929E6     9.610789081558249E-1    5.915645527368837E-3    3.921403136355070E-2   -1.409961949468160E-2    3.911340018627076E-2   -1.430973705481303E-2    9.612255258847326E-1    6.938665055777547E-3
 4.051367201640718E6     9.612002203887754E-1    5.951942921348599E-3    3.914133975431746E-2   -1.402310788174995E-2    3.903843903029836E-2   -1.423587124739786E-2    9.612388428693397E-1    6.767153088726345E-3
 4.082278576920427E6     9.612218466487862E-1    5.732956114632986E-3    3.908589417362514E-2   -1.393609955462060E-2    3.897570891914923E-2   -1.415246042379065E-2    9.613459771102436E-1    6.725067378777639E-3
 4.113425801747740E6     9.613082534879326E-1    5.614446141896729E-3    3.900969872706162E-2   -1.385778856140564E-2    3.890047639892578E-2   -1.408547357809091E-2    9.614148980496066E-1    6.506972829386637E-3
 4.144810675622302E6     9.613417477453376E-1    5.526437475554838E-3    3.894494679968648E-2   -1.377814753250508E-2    3.883614525206908E-2   -1.400131949550788E-2    9.615470565167002E-1    6.415613733333739E-3
 4.176435011773718E6     9.614353970936770E-1    5.426744811436032E-3    3.887903044276405E-2   -1.370233929011236E-2    3.877667689066871E-2   -1.391350860615232E-2    9.615093604803295E-1    6.186012098303345E-3
 4.208300637266261E6     9.615052492086745E-1    5.216991679521324E-3    3.880537189057748E-2   -1.362216313942129E-2    3.870698913941997E-2   -1.383948200173390E-2    9.615606305744323E-1    6.006745961997439E-3
 4.240409393104453E6     9.615444239598840E-1    5.127877099929677E-3    3.874541437951930E-2   -1.353848274139114E-2    3.864954315821031E-2   -1.375274462786007E-2    9.617417418458191E-1    6.181364890213745E-3
 4.272763134339464E6     9.616141987964161E-1    4.987535759994811E-3    3.868050810140443E-2   -1.346722678714318E-2    3.858159538037147E-2   -1.367828065606164E-2    9.617522914507126E-1    5.830631010385339E-3
 4.305363730176185E6     9.616955877403085E-1    4.864035139242019E-3    3.861587118797992E-2   -1.339147116045402E-2    3.851562236094682E-2   -1.359328115006492E-2    9.619178649533402E-1    5.973779497946667E-3
 4.338213064081349E6     9.617541947002568E-1    4.682577418275585E-3    3.854322034017499E-2   -1.328387149522899E-2    3.843148416107104E-2   -1.354792376382131E-2    9.619271707983318E-1    5.689469042209551E-3
 4.371313033892244E6     9.617976892937317E-1    4.445647815446093E-3    3.848431922830269E-2   -1.320494937018819E-2    3.835903458423725E-2   -1.347458136197292E-2    9.620188736007402E-1    5.688352027935922E-3
 4.404665551926396E6     9.618900331250384E-1    4.454993555114663E-3    3.841919991155056E-2   -1.312122175910078E-2    3.829726501107557E-2   -1.339497812133338E-2    9.620736694530072E-1    5.461472909463976E-3
 4.438272545092077E6     9.619698988990530E-1    4.271291347291931E-3    3.835305219591721E-2   -1.304282148056142E-2    3.822175198809692E-2   -1.332563420427993E-2    9.621823560548713E-1    5.339630808767982E-3
 4.472135954999580E6     9.620318995688352E-1    4.185450956810451E-3    3.828984797339250E-2   -1.295952772103386E-2    3.816929509961051E-2   -1.323218270166782E-2    9.622397869753271E-1    5.250414193353919E-3
 4.506257738073424E6     9.620547549085977E-1    4.090844510983013E-3    3.822669022710982E-2   -1.287290932693706E-2    3.809328177029653E-2   -1.316523464032647E-2    9.621618461046417E-1    4.772353221330000E-3
 4.540639865665382E6     9.621133149187758E-1    4.029950453822262E-3    3.816644680201943E-2   -1.281921862397565E-2    3.805751226366540E-2   -1.304420200969024E-2    9.622236327362009E-1    4.486873817089358E-3
 4.575284324168356E6     9.622212415373831E-1    3.889884925722669E-3    3.810702109736688E-2   -1.273685938303371E-2    3.799697039432402E-2   -1.296326779452205E-2    9.623619039861678E-1    4.514671611620852E-3
 4.610193115131186E6     9.622766626554720E-1    3.606627420723406E-3    3.802533584402688E-2   -1.259995144589572E-2    3.788167162605923E-2   -1.299996740191073E-2    9.624343130465252E-1    4.477153651572077E-3
 4.645368255374223E6     9.623258209585404E-1    3.460663634827189E-3    3.796101274747998E-2   -1.251341475103543E-2    3.781384358388588E-2   -1.292066324123290E-2    9.624172777721006E-1    4.258786661354236E-3
 4.680811777105891E6     9.623403330020548E-1    3.305953299005449E-3    3.789400275456249E-2   -1.243471302343144E-2    3.775034825488993E-2   -1.283585073315479E-2    9.625091251567814E-1    4.219103098361217E-3
 4.716525728040087E6     9.623830703255508E-1    3.060350866166267E-3    3.783072584223314E-2   -1.236855192787788E-2    3.768676356865826E-2   -1.275525150366333E-2    9.625231845869958E-1    3.933065914273479E-3
 4.752512171514469E6     9.624821122567765E-1    2.889366126675769E-3    3.776896830359352E-2   -1.228821675733364E-2    3.762835570761203E-2   -1.268360587937233E-2    9.626134569374407E-1    3.888375234296439E-3
 4.788773186609713E6     9.625414655123408E-1    2.818365655815677E-3    3.770206856124751E-2   -1.220341063327754E-2    3.756402316261036E-2   -1.260875849605709E-2    9.626711227241191E-1    3.667254733930296E-3
 4.825310868269563E6     9.626375923098845E-1    2.577797457901055E-3    3.762497076607436E-2   -1.210487808926138E-2    3.749650117449276E-2   -1.259829271711045E-2    9.627773878054597E-1    3.791629249346876E-3
 4.862127327421905E6     9.626772371388862E-1    2.418583433219826E-3    3.756399748856599E-2   -1.202526042790101E-2    3.743883394322051E-2   -1.251465839156115E-2    9.628478798981924E-1    3.596797655582726E-3
 4.899224691100715E6     9.627475224710738E-1    2.314875585956435E-3    3.750122079532398E-2   -1.194522039245501E-2    3.737768205063194E-2   -1.244012715384364E-2    9.628887459246258E-1    3.425258084203581E-3
 4.936605102568937E6     9.627918769897286E-1    2.143014652522866E-3    3.744255480802759E-2   -1.185908131330835E-2    3.732146068185434E-2   -1.234400772807824E-2    9.629181335958944E-1    3.440037833676719E-3
 4.974270721442348E6     9.628273346522416E-1    2.017966678132479E-3    3.737699082559916E-2   -1.178564338999348E-2    3.725914241458126E-2   -1.226913608574414E-2    9.629784864122449E-1    3.140834199771457E-3
 5.012223723814265E6     9.629295037431014E-1    1.910288413397609E-3    3.731973879289167E-2   -1.169905487806909E-2    3.719284539743521E-2   -1.220283973741784E-2    9.630113141506701E-1    2.842900068044580E-3
 5.050466302381308E6     9.629691862455327E-1    1.771541250051991E-3    3.726242191638462E-2   -1.161875308292577E-2    3.713260758203369E-2   -1.212491907145627E-2    9.630863419637176E-1    2.703323730059787E-3
 5.089000666570071E6     9.630183562166441E-1    1.604622401789599E-3    3.720210128492033E-2   -1.153520071615273E-2    3.707157472837243E-2   -1.204467718219937E-2    9.631319959304532E-1    2.561718020637305E-3
 5.127829042664761E6     9.630820537504658E-1    1.473703399848924E-3    3.714503809854608E-2   -1.145604948188378E-2    3.701392681023076E-2   -1.196575117384364E-2    9.632419172551480E-1    2.335072333206787E-3
 5.166953673935857E6     9.631306142081143E-1    1.338992347302221E-3    3.708423986845416E-2   -1.137847107711472E-2    3.695428708090517E-2   -1.188350954707387E-2    9.633020206145320E-1    2.413407807005165E-3
 5.206376820769652E6     9.632052288407504E-1    1.196808862023561E-3    3.702098386381583E-2   -1.129772150558254E-2    3.689103742504064E-2   -1.181710485343951E-2    9.633221368188107E-1    1.890195775583877E-3
 5.246100760798878E6     9.632517411054479E-1    1.020625372194288E-3    3.695563775723568E-2   -1.123039212894513E-2    3.682873229863216E-2   -1.174450337042470E-2    9.633779787481292E-1    1.905666361119621E-3
 5.286127789034322E6     9.633542259428359E-1    9.055326867315566E-4    3.690031137785929E-2   -1.114047498868783E-2    3.676469383227127E-2   -1.165676603821146E-2    9.634446194982160E-1    2.015302156044255E-3
 5.326460217997355E6     9.633708236995484E-1    1.072458581005498E-3    3.686216317340417E-2   -1.121209232161313E-2    3.680994626850586E-2   -1.134629411702108E-2    9.635695246701089E-1    1.653754080180519E-3
 5.367100377853584E6     9.633974065972634E-1    9.408278211426325E-4    3.680192835655364E-2   -1.112907124152680E-2    3.675163436135773E-2   -1.126473804285718E-2    9.636395568918550E-1    1.584841547470009E-3
 5.408050616547454E6     9.634602712844142E-1    7.884932772916126E-4    3.674385816925187E-2   -1.105153356451989E-2    3.668626322356229E-2   -1.119679900747985E-2    9.636933285851580E-1    1.412544216973664E-3
 5.449313299937895E6     9.635133213591391E-1    5.916172236982712E-4    3.668542782625818E-2   -1.097108567763302E-2    3.663230645151951E-2   -1.111321234352038E-2    9.637200301129147E-1    1.321231067360019E-3
 5.490890811935049E6     9.635470166970681E-1    1.557340726606182E-4    3.660006061936678E-2   -1.074757407866921E-2    3.648245322097327E-2   -1.125867783576281E-2    9.637196515358929E-1    1.164212437944715E-3
 5.532785554637930E6     9.636043043429312E-1    1.321897908095678E-5    3.654347159278363E-2   -1.066874321268893E-2    3.642525016196341E-2   -1.117701073609521E-2    9.638197509106824E-1    1.337649404537125E-3
 5.574999948473252E6     9.636377115030851E-1    1.540034032624168E-4    3.651856701310394E-2   -1.071487716364933E-2    3.645688879657680E-2   -1.087255804620337E-2    9.638976834532599E-1    8.474612784376628E-4
 5.617536432335250E6     9.636841300144549E-1    3.360424179048886E-5    3.645728643418472E-2   -1.064200180094170E-2    3.640439359736799E-2   -1.078834090634938E-2    9.639253734018662E-1    6.334241143784202E-4
 5.660397463726575E6     9.637653071798890E-1   -1.055552468875283E-4    3.639802628266906E-2   -1.056566494906387E-2    3.634669719337157E-2   -1.071782530675535E-2    9.639938618991868E-1    3.748356281713677E-4
 5.703585518900323E6     9.638709900765764E-1   -6.208419265264798E-4    3.630923638069345E-2   -1.035032533574560E-2    3.619906068127215E-2   -1.086144765957799E-2    9.640295367494133E-1    4.201133075845630E-4
 5.747103093003022E6     9.639163010953138E-1   -7.542299994901886E-4    3.625852936847778E-2   -1.026481080511625E-2    3.614549184181932E-2   -1.078633130009406E-2    9.641046576958333E-1    1.246017749823937E-4
 5.790952700218840E6     9.639553731781412E-1   -9.389980856821604E-4    3.620070300946628E-2   -1.018390125671167E-2    3.608611050253206E-2   -1.070800306147962E-2    9.641003687946280E-1   -1.349406212365614E-4
 5.835136873914825E6     9.639793778809687E-1   -7.452613006004387E-4    3.617328585243276E-2   -1.024681145728549E-2    3.612181262104024E-2   -1.039474802508505E-2    9.642528581951418E-1   -1.988800378192142E-4
 5.879658166787256E6     9.640569105444884E-1   -8.841962137631768E-4    3.611395662404467E-2   -1.016924436609376E-2    3.606727884457833E-2   -1.030160500671806E-2    9.642570598650875E-1   -3.973144839613282E-4
 5.924519151009166E6     9.640964290578747E-1   -1.031289066517976E-3    3.606393882368721E-2   -1.008413425812390E-2    3.601608968945550E-2   -1.022275544733624E-2    9.643849774953478E-1   -4.374046483271862E-4
 5.969722418378883E6     9.641398875893290E-1   -1.203598841575102E-3    3.600852333606198E-2   -1.000543491479538E-2    3.595824076992477E-2   -1.014637481683102E-2    9.644311886988783E-1   -6.062611361810815E-4
 6.015270580469812E6     9.641726151247555E-1   -1.343241392454807E-3    3.595201402480603E-2   -9.927199031097846E-3    3.590205930597029E-2   -1.006850800366217E-2    9.644012167096381E-1   -1.019227903884469E-3
 6.061166268781302E6     9.642458138024770E-1   -1.488768183275879E-3    3.589140294348107E-2   -9.851196812644462E-3    3.584629124112467E-2   -9.984005154263164E-3    9.645436671042430E-1   -1.097189730788695E-3
 6.107412134890671E6     9.642561968511916E-1   -1.682483902328632E-3    3.583656200983693E-2   -9.748595265824276E-3    3.577401916889474E-2   -9.917416518033354E-3    9.646076006247576E-1   -1.184126443653854E-3
 6.154010850606443E6     9.642855847566537E-1   -1.838735403914846E-3    3.578487048282487E-2   -9.660445236283732E-3    3.571548863675647E-2   -9.833037902740972E-3    9.646119124129081E-1   -1.272805027027712E-3
 6.200965108122637E6     9.643875524438537E-1   -2.009478546401877E-3    3.572851671609996E-2   -9.590264458491168E-3    3.566553770955842E-2   -9.748478642590135E-3    9.646886932011788E-1   -1.118130160439763E-3
 6.248277620174343E6     9.644148958443215E-1   -2.171869224127407E-3    3.566721301115915E-2   -9.511058267259509E-3    3.561255686900328E-2   -9.665545334717028E-3    9.647653623771729E-1   -1.454999955186125E-3
 6.295951120194497E6     9.644984100183258E-1   -2.305629888631945E-3    3.562005467894371E-2   -9.419733858223565E-3    3.555767398177086E-2   -9.586448463754791E-3    9.647968987843839E-1   -1.620667974400269E-3
 6.343988362471664E6     9.645407101199143E-1   -2.449318005978204E-3    3.556485300194924E-2   -9.364956590466829E-3    3.552071372262301E-2   -9.490948317078401E-3    9.648164531948290E-1   -1.864844036309526E-3
 6.392392122309345E6     9.646136176256424E-1   -2.637484280173944E-3    3.551285371793069E-2   -9.279042517617905E-3    3.546848600045904E-2   -9.408562269269401E-3    9.648287752943766E-1   -2.138432157351741E-3
 6.441165196186168E6     9.646353929942929E-1   -2.795935451764803E-3    3.545939993289484E-2   -9.194875432333468E-3    3.541289337166087E-2   -9.331135528778161E-3    9.649277861929541E-1   -2.323167218557283E-3
 6.490310401917514E6     9.646635179362135E-1   -2.930352963009400E-3    3.540688281512866E-2   -9.121354414602413E-3    3.536606134782855E-2   -9.241446942043270E-3    9.649919817100657E-1   -2.267155284643100E-3
 6.539830578818345E6     9.647426846862961E-1   -3.108730814582911E-3    3.534953816994933E-2   -9.039543922951900E-3    3.531077002005882E-2   -9.159009784588808E-3    9.650358161781428E-1   -2.452681515535289E-3
 6.589728587867169E6     9.647662866561224E-1   -3.270181417000266E-3    3.529779754125411E-2   -8.957261643495846E-3    3.525455482241685E-2   -9.080255427482748E-3    9.650713273720211E-1   -2.699669910521359E-3
 6.640007311871376E6     9.648237174005853E-1   -3.442880609274353E-3    3.524349934729884E-2   -8.879390791913140E-3    3.520396418813431E-2   -8.998783706887606E-3    9.651091696761620E-1   -2.949954322398767E-3
 6.690669655633785E6     9.648757588051794E-1   -3.608919281063151E-3    3.518969185047283E-2   -8.800570307426363E-3    3.515387678088555E-2   -8.916259841015645E-3    9.651734191618407E-1   -3.073523785133430E-3
 6.741718546120445E6     9.648900038936841E-1   -3.754011000708296E-3    3.514011058683515E-2   -8.709107322336131E-3    3.509806106821841E-2   -8.837266749062354E-3    9.652012109500221E-1   -3.281378894870869E-3
 6.793156932629797E6     9.649714523851293E-1   -3.970289519357568E-3    3.508837504066298E-2   -8.633189851662322E-3    3.504675033208306E-2   -8.751761676405951E-3    9.652592823039536E-1   -3.368939273933785E-3
 6.844987786962981E6     9.649992019944723E-1   -4.110406739784025E-3    3.503461305942743E-2   -8.544686370467647E-3    3.499825963067851E-2   -8.672203955244909E-3    9.653225335131931E-1   -3.502017226091604E-3
 6.897214103595586E6     9.650761237343952E-1   -4.423730529733466E-3    3.498225370462710E-2   -8.421087417681774E-3    3.490668711938910E-2   -8.634108341251860E-3    9.653536708812926E-1   -3.758385677555137E-3
 6.949838899850640E6     9.650438216327327E-1   -4.565664586505865E-3    3.492889139027096E-2   -8.335241834479434E-3    3.485175664510299E-2   -8.552984902550612E-3    9.654279910438621E-1   -3.890618550254062E-3
 7.002865216072913E6     9.651373897043215E-1   -4.980926107427424E-3    3.485712333747929E-2   -8.186016183673608E-3    3.475588099863104E-2   -8.598430037649185E-3    9.654468618769932E-1   -4.087618621462692E-3
 7.056296115804635E6     9.651544909356592E-1   -5.127461620062937E-3    3.480887895402897E-2   -8.103543120406224E-3    3.470777501147469E-2   -8.521268004754999E-3    9.654933130463269E-1   -4.275128441969772E-3
 7.110134685962399E6     9.652050580069370E-1   -5.349286633624663E-3    3.475761702992462E-2   -8.024197214140397E-3    3.465517784881444E-2   -8.437788390339733E-3    9.654891816638119E-1   -4.538609786549460E-3
 7.164384037015557E6     9.653155091803185E-1   -5.516813047967107E-3    3.470910651801044E-2   -7.940744192164177E-3    3.460859503836580E-2   -8.353939187189239E-3    9.655727456164405E-1   -4.717877634137242E-3
 7.219047303165923E6     9.653119773561276E-1   -5.719628218923163E-3    3.465464476533282E-2   -7.861896153546200E-3    3.455793618565049E-2   -8.271814249613284E-3    9.656232578736027E-1   -4.887168641472303E-3
 7.274127642528819E6     9.654313102252222E-1   -5.866082511709803E-3    3.460488183657864E-2   -7.774948950841215E-3    3.450645284291327E-2   -8.188156042866114E-3    9.656778898622027E-1   -5.111954645846731E-3
 7.329628237315600E6     9.655107017518232E-1   -6.159317587981019E-3    3.454122430390722E-2   -7.659752314141551E-3    3.445444902269157E-2   -8.189092265965068E-3    9.657454712907081E-1   -5.272165727792345E-3
 7.385552294017412E6     9.655055708040265E-1   -6.335911491178681E-3    3.448989718175512E-2   -7.578486798187884E-3    3.440386410211261E-2   -8.106842725569033E-3    9.657742140728833E-1   -5.472481636626528E-3
 7.441903043590503E6     9.655374473875892E-1   -6.157667560483754E-3    3.447869068051842E-2   -7.617347206268565E-3    3.442198021235553E-2   -7.779808945708899E-3    9.658714339816382E-1   -5.678660144006702E-3
 7.498683741642874E6     9.655965641826422E-1   -6.329886594910123E-3    3.442835636977857E-2   -7.531059790833168E-3    3.437307891799032E-2   -7.693729296526402E-3    9.658884575855371E-1   -5.923510606567424E-3
 7.555897668622349E6     9.656374331822698E-1   -6.781193287114700E-3    3.435487262301165E-2   -7.351686678629300E-3    3.426439345753041E-2   -7.776768842059674E-3    9.659252317110549E-1   -6.050835746789195E-3
 7.613548130006171E6     9.657171436587421E-1   -6.978705444518419E-3    3.430476515434953E-2   -7.265382953656596E-3    3.421392721692066E-2   -7.689838634651914E-3    9.659777106631470E-1   -6.234578441606835E-3
 7.671638456491867E6     9.658999872123704E-1   -7.398331502292485E-3    3.421562896580029E-2   -7.122507087943925E-3    3.419375231173515E-2   -7.818151673076913E-3    9.660299109088707E-1   -6.406101867027597E-3
 7.730172004189732E6     9.659245406889438E-1   -7.581447805433276E-3    3.416861528402351E-2   -7.039840453481968E-3    3.414929703303533E-2   -7.734715794101174E-3    9.660363251100508E-1   -6.628426688274554E-3
 7.789152154816771E6     9.660294168343210E-1   -7.781097442212496E-3    3.412177098476527E-2   -6.952716498809151E-3    3.410319218160919E-2   -7.649115630504614E-3    9.660901716392505E-1   -6.804649142863664E-3
 7.848582315891974E6     9.658667258763347E-1   -7.751985641771633E-3    3.411000516147592E-2   -6.927034431812246E-3    3.402327184717861E-2   -7.354298782639180E-3    9.662123183828063E-1   -6.985486804761518E-3
 7.908465920933248E6     9.659418917860827E-1   -7.967600568007851E-3    3.406068934725209E-2   -6.845412666878409E-3    3.397426902059046E-2   -7.269986577364388E-3    9.662514795747754E-1   -7.182448733430386E-3
 7.968806429655775E6     9.660235915905702E-1   -8.160609421028007E-3    3.401544327419190E-2   -6.758065878876023E-3    3.393166134204194E-2   -7.186229730319700E-3    9.662913679521994E-1   -7.377671456821186E-3
 8.029607328171868E6     9.660602302291861E-1   -8.341976162480070E-3    3.396818662428855E-2   -6.670187915356693E-3    3.388019782848136E-2   -7.099777985929650E-3    9.662919499045075E-1   -7.565089775635616E-3
 8.090872129192449E6     9.661238773114631E-1   -8.527916577245338E-3    3.392340280258181E-2   -6.587628800218398E-3    3.383581910444287E-2   -7.015884043428482E-3    9.663491492546764E-1   -7.750755067989730E-3
 8.152604372229892E6     9.661131352733624E-1   -8.710517752978925E-3    3.387266876688616E-2   -6.502078632386566E-3    3.378899361544430E-2   -6.932519507045964E-3    9.663795587671697E-1   -7.973008161607793E-3
 8.214807623802581E6     9.661806059946259E-1   -8.929312808842469E-3    3.382693641780796E-2   -6.414650066846177E-3    3.374386226875827E-2   -6.848274666212670E-3    9.664238828842346E-1   -8.168768194881560E-3
 8.277485477640945E6     9.662235512556513E-1   -9.131343122023827E-3    3.377854928784652E-2   -6.326463868968599E-3    3.369939887681523E-2   -6.764497201186594E-3    9.664430191374719E-1   -8.370186067407102E-3
 8.340641554895067E6     9.662529390415661E-1   -9.325034576747708E-3    3.373288394233592E-2   -6.238895008907435E-3    3.365573408015310E-2   -6.676219479981821E-3    9.665497381210649E-1   -8.553371761912404E-3
 8.404279504343957E6     9.663446208213943E-1   -9.523287544554749E-3    3.368807905766357E-2   -6.153742467593058E-3    3.360620013094993E-2   -6.590645116296846E-3    9.665648852844043E-1   -8.755305476826217E-3
 8.468403002606256E6     9.663613522195994E-1   -9.732629796570625E-3    3.363958712202316E-2   -6.068825847990811E-3    3.355929275041895E-2   -6.506987901912347E-3    9.665866938755818E-1   -8.973173095630591E-3
 8.533015754352720E6     9.663893273857905E-1   -9.830829102355531E-3    3.361602370444720E-2   -6.019320542951630E-3    3.353690329782647E-2   -6.328800038953186E-3    9.666319806085748E-1   -9.176372625466271E-3
 8.598121492520234E6     9.664393917123004E-1   -1.003183045907815E-2    3.356653808197133E-2   -5.928943785669932E-3    3.349271032471853E-2   -6.244387744436881E-3    9.666931433701353E-1   -9.387047938357667E-3
 8.663723978527457E6     9.666850552079197E-1   -1.057939730219225E-2    3.346290391640598E-2   -5.752959064872293E-3    3.346717013072480E-2   -6.467933512130080E-3    9.667270590592452E-1   -9.533348744032550E-3
 8.729827002492212E6     9.667107614361692E-1   -1.076785761013694E-2    3.341651871048673E-2   -5.666059789421207E-3    3.341858703908366E-2   -6.381268395511726E-3    9.667416029079581E-1   -9.754368110355809E-3
 8.796434383450346E6     9.667337716188829E-1   -1.101723150362873E-2    3.336863544804734E-2   -5.580435091700258E-3    3.337904117150964E-2   -6.296673409102025E-3    9.668299549166198E-1   -9.980841978249371E-3
 8.863549969576446E6     9.667257805902997E-1   -1.110746721967452E-2    3.335276259230145E-2   -5.520859568054035E-3    3.329829534808711E-2   -6.076404093150643E-3    9.668775599900846E-1   -1.020306191556934E-2
 8.931177638406139E6     9.667005143339438E-1   -1.132361543021476E-2    3.330818123694722E-2   -5.431958492202727E-3    3.325341836474176E-2   -5.989935183612176E-3    9.669715960581968E-1   -1.039958412488815E-2
 8.999321297060097E6     9.667156547516265E-1   -1.152690017511253E-2    3.326353332309714E-2   -5.345391412122515E-3    3.321007240014179E-2   -5.905538915418479E-3    9.669899790831671E-1   -1.061944114839758E-2
 9.067984882469844E6     9.668062796601697E-1   -1.175146706688611E-2    3.321998254707806E-2   -5.257211265621037E-3    3.316857679484798E-2   -5.816014682339297E-3    9.670068889317196E-1   -1.081400707831773E-2
 9.137172361605095E6     9.668523846857728E-1   -1.196658653155058E-2    3.317691310065845E-2   -5.169301079791162E-3    3.312166587585039E-2   -5.728119792481645E-3    9.670177984391953E-1   -1.101366948833461E-2
 9.206887731702998E6     9.668251847098484E-1   -1.187527703125083E-2    3.317639740674978E-2   -5.166794920711997E-3    3.311215846168909E-2   -5.408433114505676E-3    9.670684994582770E-1   -1.128555462274110E-2
 9.277135020499127E6     9.668643129019671E-1   -1.211565807727037E-2    3.313236273244835E-2   -5.080588768555877E-3    3.307435765906966E-2   -5.318211242593567E-3    9.671920372185576E-1   -1.150799165009836E-2
 9.347918286460072E6     9.669365586135938E-1   -1.231583422122423E-2    3.309088642249219E-2   -4.987788558601707E-3    3.302741694794500E-2   -5.231771237312517E-3    9.672239164751112E-1   -1.170690638397523E-2
 9.419241619017981E6     9.669821501164475E-1   -1.253995888387578E-2    3.304723379950810E-2   -4.901485860636325E-3    3.298893526516559E-2   -5.142550091875015E-3    9.673096786593373E-1   -1.195251043794916E-2
 9.491109138806809E6     9.669783030058497E-1   -1.275022493705479E-2    3.300516834166160E-2   -4.811503435694722E-3    3.294471911245896E-2   -5.053982748795680E-3    9.673249189153650E-1   -1.214608223799846E-2
 9.563524997900363E6     9.670584829272075E-1   -1.301156035437174E-2    3.296238688691056E-2   -4.720547954245603E-3    3.290325884299977E-2   -4.962114109369054E-3    9.673177898279922E-1   -1.237759496705302E-2
 9.636493380052259E6     9.670855361791144E-1   -1.318572161597885E-2    3.292145887746017E-2   -4.630665752871833E-3    3.286043693281934E-2   -4.873525421142813E-3    9.674415989451873E-1   -1.260233948651402E-2
 9.710018500937525E6     9.671129302163887E-1   -1.343573879540274E-2    3.287990891093141E-2   -4.540368484812075E-3    3.282120443788751E-2   -4.785120757081098E-3    9.674391143464720E-1   -1.281744813633400E-2
 9.784104608396223E6     9.671296404752495E-1   -1.385854595543935E-2    3.280586401800664E-2   -4.387881174746339E-3    3.274252742444179E-2   -4.845485635626923E-3    9.674493046703888E-1   -1.297178440450698E-2
 9.858755982678859E6     9.672200711565179E-1   -1.407261211675243E-2    3.276272054761213E-2   -4.296200611187241E-3    3.270182996830964E-2   -4.754773412849651E-3    9.674536714661237E-1   -1.321496998950784E-2
 9.933976936693633E6     9.672379075869602E-1   -1.430354179655917E-2    3.272278626898882E-2   -4.205686784001418E-3    3.266070110709217E-2   -4.664665096120790E-3    9.675387925888969E-1   -1.342070036054876E-2
 1.000977181625571E7     9.672824135800777E-1   -1.456369938272890E-2    3.268138667584913E-2   -4.116421260892990E-3    3.262220580052515E-2   -4.576053593284345E-3    9.675780870684553E-1   -1.365500435212983E-2
 1.008614500033817E7     9.673502595294300E-1   -1.476902393829435E-2    3.264133237654542E-2   -4.024961510335703E-3    3.257882730313855E-2   -4.487253015685443E-3    9.675787519974477E-1   -1.387875803255933E-2
 1.016310090132507E7     9.674328563286791E-1   -1.501735279629580E-2    3.259879561391749E-2   -3.933351489814841E-3    3.254087097041596E-2   -4.393792568707538E-3    9.676234942006252E-1   -1.409901585419908E-2
 1.024064396526634E7     9.673910712618731E-1   -1.503919729180184E-2    3.258950465078263E-2   -3.897839383515422E-3    3.253299412782199E-2   -4.147822283310865E-3    9.676730204839249E-1   -1.438072981285091E-2
 1.031877867213467E7     9.674453529208312E-1   -1.530281514849872E-2    3.254579444410922E-2   -3.798682196331101E-3    3.249390355213692E-2   -4.046940270416029E-3    9.675965048800648E-1   -1.460842441612546E-2
 1.039750953608436E7     9.674934952583593E-1   -1.553420766423962E-2    3.250688531224195E-2   -3.706529011342320E-3    3.245546577293241E-2   -3.954533269946446E-3    9.676647979758660E-1   -1.482567234921028E-2
 1.047684110571204E7     9.675083442120805E-1   -1.574374628392997E-2    3.246478230071889E-2   -3.611354605501473E-3    3.241595670018797E-2   -3.861797399437805E-3    9.676917614117508E-1   -1.508003946217244E-2
 1.055677796431950E7     9.675610255261021E-1   -1.600215713093282E-2    3.242837392444701E-2   -3.520380947701834E-3    3.237749307423176E-2   -3.768637474064829E-3    9.677692298013322E-1   -1.530505727866284E-2
 1.063732473017859E7     9.677454630210012E-1   -1.665060182134996E-2    3.230952755348600E-2   -3.320552613356596E-3    3.236702788492642E-2   -4.059168023017841E-3    9.677484380418990E-1   -1.551636861513623E-2
 1.071848605679777E7     9.678253855416807E-1   -1.691007500833338E-2    3.227311700099020E-2   -3.226674743791093E-3    3.232860679462522E-2   -3.965776064089641E-3    9.677810470255164E-1   -1.574155603478401E-2
 1.080026663319129E7     9.677374134257545E-1   -1.701021884232328E-2    3.226240803547115E-2   -3.153868716079562E-3    3.224024818964873E-2   -3.733320489001978E-3    9.678666085402460E-1   -1.597762706729057E-2
 1.088267118414987E7     9.678646765625972E-1   -1.727679428649775E-2    3.222228553534098E-2   -3.062049809969088E-3    3.220290541778596E-2   -3.640595567149339E-3    9.679224996853500E-1   -1.620734795544481E-2
 1.096570447051370E7     9.679758115633907E-1   -1.759764930513105E-2    3.215359347155704E-2   -2.944151732380723E-3    3.221424088762503E-2   -3.686621311692058E-3    9.678998239684349E-1   -1.647301370505426E-2
 1.104937128944762E7     9.679480346310680E-1   -1.787877813475155E-2    3.211319086835500E-2   -2.849334856940772E-3    3.218154769235192E-2   -3.593031316080996E-3    9.679566078426017E-1   -1.670555526394859E-2
 1.113367647471805E7     9.680189703413014E-1   -1.812867895310707E-2    3.207530608435005E-2   -2.755846895441018E-3    3.214336254684626E-2   -3.500005448365914E-3    9.679811236499857E-1   -1.695377837429263E-2
 1.121862489697252E7     9.679047313419199E-1   -1.784243229758058E-2    3.213726640047575E-2   -2.819167595417699E-3    3.212927048818772E-2   -2.935183054283050E-3    9.680363022602442E-1   -1.729358545161963E-2
 1.130422146402085E7     9.679655011892135E-1   -1.806080656128913E-2    3.210116210622791E-2   -2.721746791673804E-3    3.208885043131070E-2   -2.839533071191223E-3    9.680577198843612E-1   -1.754450892415384E-2
 1.139047112111875E7     9.679717467193245E-1   -1.831399851373465E-2    3.206209362599843E-2   -2.624431096752963E-3    3.205328082232037E-2   -2.738252425831037E-3    9.681010040360722E-1   -1.778757034561823E-2
 1.147737885125368E7     9.680215155634374E-1   -1.858539825986118E-2    3.202525374032743E-2   -2.530267232103623E-3    3.201594377050398E-2   -2.643050767726608E-3    9.681765971404557E-1   -1.803273359828261E-2
 1.156494967543242E7     9.680805339672031E-1   -1.884740501268394E-2    3.199088885123724E-2   -2.433158157110646E-3    3.197966959586684E-2   -2.548496841733045E-3    9.681961572281749E-1   -1.827766209944088E-2
 1.165318865297152E7     9.680647461674057E-1   -1.915287530643545E-2    3.194825434263355E-2   -2.316717001115375E-3    3.192796994735508E-2   -2.465039678914987E-3    9.681965207657787E-1   -1.850917596767694E-2
 1.174210088178934E7     9.682772213838677E-1   -1.989737272761841E-2    3.181369088030723E-2   -2.081822883263423E-3    3.189590511421467E-2   -2.831023068152576E-3    9.682550062460618E-1   -1.866759547208268E-2
 1.183169149870061E7     9.683163082594664E-1   -2.019502382554277E-2    3.177633440199205E-2   -1.985162896514993E-3    3.186384940122519E-2   -2.736313097899928E-3    9.682529837260309E-1   -1.892425897429211E-2
 1.192196567971337E7     9.683369699154664E-1   -2.041698120183869E-2    3.173877969061693E-2   -1.887795129578699E-3    3.182909299128008E-2   -2.641298336496579E-3    9.683045367598806E-1   -1.917828859703347E-2
 1.201292864032780E7     9.683759605277222E-1   -2.069764519741932E-2    3.170173142385340E-2   -1.791510609385810E-3    3.179458733682410E-2   -2.543757710844287E-3    9.683468125152918E-1   -1.943174921447906E-2
 1.210458563583766E7     9.684069018571253E-1   -2.098092520740059E-2    3.166591060755010E-2   -1.692959037122250E-3    3.175830084527392E-2   -2.446106107040612E-3    9.683477301455491E-1   -1.974371376243584E-2
 1.219694196163385E7     9.684325076052497E-1   -2.122126014078813E-2    3.162955200528768E-2   -1.592860443628397E-3    3.172577157483020E-2   -2.349769484240075E-3    9.683827825521616E-1   -1.999144817886078E-2
 1.229000295351040E7     9.682494712855954E-1   -2.119609523517415E-2    3.166578775649775E-2   -1.560422341210837E-3    3.162721609393056E-2   -1.904534215464124E-3    9.684152687820285E-1   -2.029670425369391E-2
 1.238377398797275E7     9.683198912704363E-1   -2.148125549029035E-2    3.163380147721719E-2   -1.461265704889749E-3    3.159310781985320E-2   -1.804454918284720E-3    9.684947401592083E-1   -2.056416545552819E-2
 1.247826048254829E7     9.683591054303846E-1   -2.173846736114087E-2    3.159658290441771E-2   -1.361470514137823E-3    3.155755706523064E-2   -1.704064081082323E-3    9.684770016073380E-1   -2.081150611067867E-2
 1.257346789609938E7     9.684567008501366E-1   -2.174712057291182E-2    3.160126093569009E-2   -1.357668586931083E-3    3.160573698851339E-2   -1.448275835777025E-3    9.685088338828012E-1   -2.117662457147318E-2
 1.266940172913885E7     9.684857020036254E-1   -2.200960494457005E-2    3.156907907042884E-2   -1.255712483418448E-3    3.157091214669597E-2   -1.346707105233682E-3    9.685289624345502E-1   -2.147267473458925E-2
 1.276606752414753E7     9.685023212162990E-1   -2.229861957546999E-2    3.153558498195650E-2   -1.154820860381485E-3    3.153849428511928E-2   -1.244468172212869E-3    9.685767298907184E-1   -2.172098252620950E-2
 1.286347086589479E7     9.685154725804819E-1   -2.259431761247437E-2    3.149955733005971E-2   -1.052265002073022E-3    3.150741811457452E-2   -1.143487471400765E-3    9.685722327573163E-1   -2.201541880477624E-2
 1.296161738176090E7     9.685741160827880E-1   -2.288466270356648E-2    3.146926129433574E-2   -9.504505465107550E-4    3.147052470561088E-2   -1.039565505218980E-3    9.686110663808510E-1   -2.229963571464299E-2
 1.306051274206230E7     9.685836397254828E-1   -2.315385734803366E-2    3.143345715922179E-2   -8.506091389604198E-4    3.144003146647635E-2   -9.404862683298009E-4    9.686441969589833E-1   -2.257138751166763E-2
 1.316016266037924E7     9.685945882976688E-1   -2.341829358037873E-2    3.140072794844420E-2   -7.454933576927915E-4    3.140570149739200E-2   -8.350267265422011E-4    9.686660788626819E-1   -2.283028502138080E-2
 1.326057289388563E7     9.686369898594346E-1   -2.378649732853259E-2    3.135955282711643E-2   -6.078739614786912E-4    3.134605323636394E-2   -7.623867040378182E-4    9.687378150232284E-1   -2.308586035690817E-2
 1.336174924368203E7     9.686070021653667E-1   -2.408039601642141E-2    3.132730601380226E-2   -5.055863318748092E-4    3.131275119698102E-2   -6.571563183648230E-4    9.687547940201439E-1   -2.335820534523242E-2
 1.346369755513046E7     9.686697710671743E-1   -2.430401048650874E-2    3.130378238665250E-2   -4.345916990681445E-4    3.131049261475182E-2   -5.239509606741579E-4    9.687401806447778E-1   -2.367351876556847E-2
 1.356642371819227E7     9.687099757438891E-1   -2.459098203796290E-2    3.127129398175785E-2   -3.296819648690607E-4    3.127955153099833E-2   -4.187397455481590E-4    9.687971319313485E-1   -2.395662782930999E-2
 1.366993366776852E7     9.687619366415886E-1   -2.489183019203743E-2    3.124074616111809E-2   -2.257806181430372E-4    3.124514804618798E-2   -3.141940522736519E-4    9.688022528781530E-1   -2.427709847813794E-2
 1.377423338404255E7     9.687794627825818E-1   -2.514127115223550E-2    3.121059621701096E-2   -1.169878485389618E-4    3.121479922902521E-2   -2.081459410667944E-4    9.688208048833751E-1   -2.456306689828866E-2
 1.387932889282586E7     9.687608911366450E-1   -2.582057365684743E-2    3.110757196124977E-2    1.068127881141566E-4    3.110731024378805E-2   -3.785248096770011E-4    9.688772185401785E-1   -2.475447819660932E-2
 1.398522626590596E7     9.689738466781534E-1   -2.631706806486820E-2    3.102535078359830E-2    2.410342265445471E-4    3.116345502304309E-2   -5.198856774850488E-4    9.688905279522022E-1   -2.502919040696662E-2
 1.409193162139728E7     9.689956167783068E-1   -2.663075561034662E-2    3.099403972061186E-2    3.488689415215662E-4    3.113430928581497E-2   -4.140930718492575E-4    9.689350270012766E-1   -2.531613198416949E-2
 1.419945112409473E7     9.688871788379555E-1   -2.674139883390771E-2    3.101377845666634E-2    4.252005423010450E-4    3.101702929937164E-2   -6.570491229679760E-5    9.689842988219488E-1   -2.562185138464374E-2
 1.430779098582953E7     9.688671160208717E-1   -2.702935119423419E-2    3.098188027466441E-2    5.325846161322270E-4    3.098905326231151E-2    4.183560093722527E-5    9.690579211232421E-1   -2.593547913403050E-2
 1.441695746582855E7     9.689432994122350E-1   -2.735173676459670E-2    3.095158846255345E-2    6.386123460038624E-4    3.095777068060730E-2    1.476812948393579E-4    9.690645662957528E-1   -2.624937611464535E-2
 1.452695687107559E7     9.689785359599492E-1   -2.766323962534063E-2    3.092340179015468E-2    7.463262408210179E-4    3.093040545467049E-2    2.566800632067451E-4    9.690848283415942E-1   -2.653262322763018E-2
 1.463779555667585E7     9.690133581617665E-1   -2.796270496003006E-2    3.089019798152805E-2    8.529602632371396E-4    3.089956752945539E-2    3.633892414285229E-4    9.691193062186143E-1   -2.683609842828141E-2
 1.474947992622320E7     9.690267203562299E-1   -2.826602576564463E-2    3.086082611896942E-2    9.627104856615498E-4    3.087274285571420E-2    4.711292745459517E-4    9.691374245222035E-1   -2.711341454082698E-2
 1.486201643216998E7     9.690220617559441E-1   -2.843871259235554E-2    3.087232308253195E-2    1.030349170803798E-3    3.085525049324017E-2    7.600383945537859E-4    9.691588735688781E-1   -2.746391943650540E-2
 1.497541157619987E7     9.690678128294126E-1   -2.894088571683195E-2    3.080191400499607E-2    1.182294670639773E-3    3.081680014504170E-2    6.907512647020072E-4    9.691636044477413E-1   -2.776378709748221E-2
 1.508967190960350E7     9.690764473699771E-1   -2.925258722665009E-2    3.077235720678415E-2    1.292355088049996E-3    3.079012678791792E-2    8.002863000121057E-4    9.692158127516524E-1   -2.807165035476519E-2
 1.520480403365694E7     9.691199402505917E-1   -2.955741097902803E-2    3.074322589530323E-2    1.403932002431278E-3    3.076008830079319E-2    9.118054996172880E-4    9.692402287947386E-1   -2.836576761435032E-2
 1.532081460000315E7     9.691098734334832E-1   -2.990898185732855E-2    3.071372519291263E-2    1.513625386337057E-3    3.073321875810380E-2    1.018293339914795E-3    9.692574987568265E-1   -2.870443202396849E-2
 1.543771031103615E7     9.692068803866088E-1   -3.019745184573587E-2    3.068619034503084E-2    1.627741196672706E-3    3.070671781283359E-2    1.132714373962490E-3    9.692761965785919E-1   -2.904538130745438E-2
 1.555549792028828E7     9.691890506669554E-1   -3.052600688883072E-2    3.065693422380508E-2    1.739787731468810E-3    3.068030927687009E-2    1.243245051222676E-3    9.693321317892558E-1   -2.935772638824139E-2
 1.567418423282054E7     9.691755124303870E-1   -3.070919297954060E-2    3.067282854852826E-2    1.811953468525716E-3    3.066058575960292E-2    1.537473330035405E-3    9.693367680923262E-1   -2.970722787134560E-2
 1.579377610561541E7     9.692198826038864E-1   -3.102358705993854E-2    3.064438624235274E-2    1.924715539909260E-3    3.063389002803915E-2    1.651816318727873E-3    9.693482555878762E-1   -3.002552198013822E-2
 1.591428044797338E7     9.692044700379547E-1   -3.133579313491827E-2    3.061701938683398E-2    2.038765324319416E-3    3.060642039069498E-2    1.765496651058655E-3    9.693579512826321E-1   -3.036003382931961E-2
 1.603570422191187E7     9.692166891927059E-1   -3.168210151017221E-2    3.058977914236600E-2    2.153351123813437E-3    3.058062300013299E-2    1.878801183563952E-3    9.693737790692614E-1   -3.070078607672281E-2
 1.615805444256752E7     9.692652057604004E-1   -3.202418713789284E-2    3.056134829993670E-2    2.267976356268399E-3    3.055533144721866E-2    1.992679259477762E-3    9.694123737594278E-1   -3.100403616670892E-2
 1.628133817860163E7     9.692574481098970E-1   -3.236201356468843E-2    3.053606816743092E-2    2.384069625953505E-3    3.052905345359054E-2    2.108940681201852E-3    9.694598886862964E-1   -3.135478519714727E-2
 1.640556255260818E7     9.692614518386032E-1   -3.278435791815583E-2    3.049188387152227E-2    2.517634700048678E-3    3.049153050596473E-2    2.155773281092447E-3    9.694680686287714E-1   -3.169480536588460E-2
 1.653073474152580E7     9.693066130398854E-1   -3.316716552387003E-2    3.046708387451761E-2    2.633450307798005E-3    3.046788851733154E-2    2.275092475322191E-3    9.694674336992083E-1   -3.202515422069049E-2
 1.665686197705204E7     9.693413605092883E-1   -3.349611961795223E-2    3.044173439372984E-2    2.752500759127723E-3    3.044500007367398E-2    2.390650226903094E-3    9.694693682337303E-1   -3.236543405212914E-2
 1.678395154606132E7     9.693537610494420E-1   -3.385284644587573E-2    3.041635676424667E-2    2.870707682148845E-3    3.041917576440089E-2    2.506179183667244E-3    9.694615607194980E-1   -3.271052544735315E-2
 1.691201079102603E7     9.693971447548432E-1   -3.429674038084132E-2    3.036307949164000E-2    3.007100385387069E-3    3.040486683369665E-2    2.507821299429700E-3    9.695273902481226E-1   -3.304204103541421E-2
 1.704104711044038E7     9.693991938161951E-1   -3.466890188452326E-2    3.033820897408139E-2    3.124165979778051E-3    3.037968072626775E-2    2.625712911730157E-3    9.695255856442102E-1   -3.338449701980950E-2
 1.717106795924834E7     9.694277801848277E-1   -3.501275600333866E-2    3.031306200993836E-2    3.246318787568143E-3    3.035850131604460E-2    2.744724185564157E-3    9.695748175927459E-1   -3.371389778361385E-2
 1.730208084927390E7     9.695782236910000E-1   -3.555099050262021E-2    3.023486135600834E-2    3.383261707678028E-3    3.045796160273024E-2    2.611084771343588E-3    9.695789251329572E-1   -3.408282048182094E-2
 1.743409334965526E7     9.694621286446092E-1   -3.573327582985639E-2    3.026419243823602E-2    3.484431520217774E-3    3.031408961265017E-2    2.978899419374383E-3    9.695962176356572E-1   -3.444716062220366E-2
 1.756711308728221E7     9.694644159064106E-1   -3.612286347288644E-2    3.024102773417310E-2    3.604449646620172E-3    3.028860388195116E-2    3.099312073996365E-3    9.696105856200347E-1   -3.479881019658118E-2
 1.770114774723655E7     9.695006255161814E-1   -3.645851392125805E-2    3.021767702853499E-2    3.728416997755577E-3    3.026848239216870E-2    3.221973411311032E-3    9.696498318688235E-1   -3.514025392883170E-2
 1.783620507323623E7     9.695367548337680E-1   -3.648710566658171E-2    3.028257103835297E-2    3.752746984002600E-3    3.029219879797238E-2    3.655661942869345E-3    9.696416614892360E-1   -3.561306396881772E-2
 1.797229286808272E7     9.694818179022368E-1   -3.693427202232183E-2    3.024165408220113E-2    3.903324542164996E-3    3.024549193127775E-2    3.740103863618966E-3    9.696767066666195E-1   -3.591393876689813E-2
 1.810941899411174E7     9.695172548394981E-1   -3.724167382313583E-2    3.023601180321580E-2    3.997430682712530E-3    3.024624744391590E-2    3.902497008267395E-3    9.696796223392585E-1   -3.634116279286161E-2
 1.824759137364766E7     9.695795237643480E-1   -3.764045239951635E-2    3.021387383324357E-2    4.120743664562243E-3    3.022499298385520E-2    4.026292345385393E-3    9.696806693323199E-1   -3.674692896759006E-2
 1.838681798946100E7     9.695941065254421E-1   -3.799916991625665E-2    3.019213405201063E-2    4.248206089387689E-3    3.020324395256692E-2    4.151274229287134E-3    9.696817298647747E-1   -3.706266498598685E-2
 1.852710688522972E7     9.695978556956822E-1   -3.880079752891799E-2    3.005743553551784E-2    4.473229887620040E-3    3.018224538674735E-2    3.854768923041291E-3    9.697479349719111E-1   -3.736613646377626E-2
 1.866846616600409E7     9.695492581022150E-1   -3.910650017431608E-2    3.005850392424291E-2    4.590382121524659E-3    3.012469012727125E-2    4.085467229231824E-3    9.697177477943230E-1   -3.773471833584020E-2
 1.881090399867451E7     9.696072319813841E-1   -3.919247944859976E-2    3.011788679383866E-2    4.639549921834291E-3    3.012927701491543E-2    4.512643186377002E-3    9.697282770510099E-1   -3.820762595140510E-2
 1.895442861244394E7     9.696049713911572E-1   -3.956812169551377E-2    3.009921584353789E-2    4.766700950198296E-3    3.011057464457598E-2    4.639093795027889E-3    9.697691186665685E-1   -3.857030081519602E-2
 1.909904829930285E7     9.695892200195656E-1   -3.996054764421244E-2    3.007970048607343E-2    4.894800190745171E-3    3.008900330796433E-2    4.769157125021588E-3    9.697636052871353E-1   -3.895235627459750E-2
 1.924477141450845E7     9.696290934398630E-1   -4.034669820181783E-2    3.005770052874098E-2    5.021726539884632E-3    3.006840209322254E-2    4.898934619060351E-3    9.697643350310795E-1   -3.935731014291215E-2
 1.939160637706759E7     9.696268398999995E-1   -4.075735177921770E-2    3.003746788022532E-2    5.151269989772142E-3    3.004977648613325E-2    5.025817117542622E-3    9.697801847090802E-1   -3.975098619812715E-2
 1.953956167022271E7     9.696155404218846E-1   -4.118856340973763E-2    3.001850285176800E-2    5.280786049153779E-3    3.003072487108071E-2    5.156627065134840E-3    9.697959992403768E-1   -4.014095004520438E-2
 1.968864584194249E7     9.696420504705611E-1   -4.161088377546799E-2    2.998827295419579E-2    5.426217834010184E-3    2.999788291924067E-2    5.262317495200861E-3    9.697924573817999E-1   -4.052442600663074E-2
 1.983886750541528E7     9.696861694729145E-1   -4.235891449803451E-2    2.987406086464647E-2    5.623812662519907E-3    3.001805196924560E-2    5.001560534621054E-3    9.698013847725738E-1   -4.084382677512604E-2
 1.999023533954688E7     9.696801132335359E-1   -4.279407072579124E-2    2.985392440188694E-2    5.751862416081940E-3    3.000078895310560E-2    5.131904274764173E-3    9.698245511585785E-1   -4.126552075524600E-2
 2.014275808946211E7     9.697067282262308E-1   -4.317251814862046E-2    2.983424398883019E-2    5.886816526021043E-3    2.998486648441478E-2    5.261678110525637E-3    9.698074553910555E-1   -4.168978938491367E-2
 2.029644456700960E7     9.697467171493279E-1   -4.359536022457006E-2    2.981934239334384E-2    6.019136392758334E-3    2.997018589850755E-2    5.393992426287702E-3    9.698541998654059E-1   -4.208240549659926E-2
 2.045130365127147E7     9.697334202396413E-1   -4.400988786548075E-2    2.980102519021167E-2    6.153651580827362E-3    2.995556642891450E-2    5.525595454966869E-3    9.698682756972951E-1   -4.247663182038617E-2
 2.060734428907584E7     9.697784991946474E-1   -4.442096758306483E-2    2.978244627060976E-2    6.284970165587263E-3    2.993904681659782E-2    5.660991909775670E-3    9.698472165931330E-1   -4.285127911954658E-2
 2.076457549551392E7     9.697418974134694E-1   -4.484402207831949E-2    2.976514446325112E-2    6.417888934352102E-3    2.992368939597598E-2    5.793738543734986E-3    9.698382632630272E-1   -4.330088226911068E-2
 2.092300635446098E7     9.697425348714744E-1   -4.527589341577274E-2    2.974677483393025E-2    6.555137465040065E-3    2.990952812255172E-2    5.927753799710911E-3    9.698501981266175E-1   -4.372160489523542E-2
 2.108264601910070E7     9.697517640444803E-1   -4.571714479775953E-2    2.973077045661332E-2    6.690244131658087E-3    2.989563416499710E-2    6.062826126304545E-3    9.698604486639891E-1   -4.412813348085370E-2
 2.124350371245464E7     9.697519210149916E-1   -4.574230210443393E-2    2.983296134890438E-2    6.743477146464441E-3    2.985031389899449E-2    6.644310731412371E-3    9.698497227146121E-1   -4.466976710053282E-2
 2.140558872791451E7     9.697479936454219E-1   -4.617627062809904E-2    2.981743750485871E-2    6.880864425961816E-3    2.983485658495411E-2    6.784353163342728E-3    9.698857749430163E-1   -4.507083471642244E-2
 2.156891042977939E7     9.697075942002926E-1   -4.681882846572284E-2    2.973292562079900E-2    7.085750823356143E-3    2.978205821396280E-2    6.709433889628812E-3    9.698869291634725E-1   -4.544217669409169E-2
 2.173347825379676E7     9.697068823387767E-1   -4.727542098426676E-2    2.971853766498693E-2    7.226447595193071E-3    2.976816685972082E-2    6.847151237131769E-3    9.699001047007196E-1   -4.589267235023639E-2
 2.189930170770744E7     9.696823770535445E-1   -4.772446501788838E-2    2.970220209543645E-2    7.363356726383469E-3    2.975556526929102E-2    6.985906971483091E-3    9.699075641938583E-1   -4.631060578717740E-2
 2.206639037179505E7     9.697076784555536E-1   -4.816488940017150E-2    2.968812059445207E-2    7.505646461668216E-3    2.974126639141083E-2    7.126433393452915E-3    9.698760403907742E-1   -4.676523428293979E-2
 2.223475389943947E7     9.697411619410589E-1   -4.836966116408461E-2    2.974424662708692E-2    7.583294320636077E-3    2.976370122513902E-2    7.484651140980654E-3    9.698718519057942E-1   -4.725873734225271E-2
 2.240440201767448E7     9.697798614763000E-1   -4.885248305227643E-2    2.973297577002156E-2    7.725547166081230E-3    2.974766555631933E-2    7.624732793026883E-3    9.698549486901364E-1   -4.771462919444599E-2
 2.257534452774993E7     9.697667385853992E-1   -4.929015491566664E-2    2.971857529783961E-2    7.868975955962428E-3    2.973593580473312E-2    7.769121093107361E-3    9.698338295411458E-1   -4.817562708130881E-2
 2.274759130569773E7     9.697523313164665E-1   -4.977730159564604E-2    2.970588202056556E-2    8.013950717734678E-3    2.972386270685599E-2    7.910644710698484E-3    9.698568694657987E-1   -4.861262851949502E-2
 2.292115230290256E7     9.697382896892238E-1   -5.022887935951505E-2    2.969138087863129E-2    8.158549639875000E-3    2.971214980620349E-2    8.057156899996160E-3    9.698708629065439E-1   -4.907957209226137E-2
 2.309603754667697E7     9.697292258816048E-1   -5.070930263085211E-2    2.967958697668848E-2    8.302404658666905E-3    2.970003492346755E-2    8.202146225167040E-3    9.698587188979072E-1   -4.953373173821318E-2
 2.327225714084021E7     9.697331440428353E-1   -5.118177584710414E-2    2.966980870612871E-2    8.448570628104210E-3    2.968810686725552E-2    8.348923587253622E-3    9.698451915279750E-1   -5.000728137607042E-2
 2.344982126630262E7     9.696758756380818E-1   -5.182642127621268E-2    2.960409836270484E-2    8.644398572400144E-3    2.964371183359749E-2    8.355751355267978E-3    9.699201858741178E-1   -5.034604127429250E-2
 2.362874018165328E7     9.696592347761175E-1   -5.230793434886282E-2    2.959167463276648E-2    8.793866968145551E-3    2.963203852658591E-2    8.501341681424140E-3    9.698842842236244E-1   -5.084009903384969E-2
 2.380902422375290E7     9.696796871508746E-1   -5.291928711747101E-2    2.953379655401495E-2    8.958406729390220E-3    2.966614660777941E-2    8.442490359944800E-3    9.698912164348629E-1   -5.129623552077591E-2
 2.399068380833123E7     9.696924586756692E-1   -5.342879921130576E-2    2.952352097995571E-2    9.107491663772329E-3    2.965571756274370E-2    8.590313035380768E-3    9.699057752865375E-1   -5.176880929755776E-2
 2.417372943058824E7     9.696643518167097E-1   -5.376931962499304E-2    2.955831572336319E-2    9.239030120019106E-3    2.960403473620475E-2    8.946891577080172E-3    9.699118529819389E-1   -5.224047338232591E-2
 2.435817166580120E7     9.696640024596795E-1   -5.422851492414723E-2    2.954807360272232E-2    9.389807498070885E-3    2.959364714388961E-2    9.097780766062033E-3    9.699134080294755E-1   -5.271210108154040E-2
 2.454402116993507E7     9.696684914795469E-1   -5.489119082997395E-2    2.948937154416554E-2    9.558172569410056E-3    2.963070269174570E-2    9.036524889293747E-3    9.698731374226415E-1   -5.319252691018479E-2
 2.473128868025839E7     9.696493265404829E-1   -5.538874457150205E-2    2.947960528713900E-2    9.710208507062487E-3    2.962318839113702E-2    9.188160604392016E-3    9.698819226861516E-1   -5.369789016062960E-2
 2.491998501596375E7     9.696404744157998E-1   -5.586976486718812E-2    2.946800813783335E-2    9.863523666754923E-3    2.961484083460785E-2    9.339066863185211E-3    9.698732838233532E-1   -5.416370785135736E-2
 2.511012107879237E7     9.696539112001588E-1   -5.608808047441247E-2    2.956291355166309E-2    9.955499044377935E-3    2.958445127281902E-2    9.852400220144927E-3    9.697901576893624E-1   -5.477729439358615E-2
 2.530170785366461E7     9.696160479509299E-1   -5.659178021873212E-2    2.955187351548792E-2    1.011071115750371E-2    2.957431016777049E-2    1.000925961272320E-2    9.697850288618729E-1   -5.528764793161678E-2
 2.549475640931404E7     9.696521806988432E-1   -5.707356875943557E-2    2.954092451478032E-2    1.026821965161960E-2    2.956207372276310E-2    1.016583443045418E-2    9.697640474856225E-1   -5.578463577234943E-2
 2.568927789892715E7     9.696282021482442E-1   -5.764076720687343E-2    2.953165109381669E-2    1.042559120149018E-2    2.955344028963649E-2    1.032471804607296E-2    9.697628865491773E-1   -5.629322158268166E-2
 2.588528356078789E7     9.695767669735823E-1   -5.816184135331342E-2    2.949583559729359E-2    1.061426730363555E-2    2.952585632553786E-2    1.043658765601973E-2    9.697692560918454E-1   -5.677602505034907E-2
 2.608278471892660E7     9.695966754368824E-1   -5.864273707341530E-2    2.951279958382296E-2    1.075831593111573E-2    2.953537279249209E-2    1.065565840852873E-2    9.697423756767694E-1   -5.729995877351893E-2
 2.628179278377446E7     9.695684857455449E-1   -5.914128740871307E-2    2.950902392361491E-2    1.092583461456711E-2    2.953410902888839E-2    1.082341325571183E-2    9.697271172105945E-1   -5.781954685437075E-2
 2.648231925282269E7     9.695078951664007E-1   -5.981539271491604E-2    2.945114246179990E-2    1.113424550119992E-2    2.951131812035427E-2    1.083370322135332E-2    9.697581980153259E-1   -5.824432519841381E-2
 2.668437571128672E7     9.694985671808302E-1   -6.037853338027926E-2    2.945255251846227E-2    1.129639189187525E-2    2.951172253911559E-2    1.099723457505599E-2    9.697544539334287E-1   -5.875548008006804E-2
 2.688797383277575E7     9.694977575722932E-1   -6.090551125371598E-2    2.945080884109240E-2    1.145841608159179E-2    2.951224455921695E-2    1.115592385165370E-2    9.697299897668513E-1   -5.929907442713428E-2
 2.709312537996687E7     9.694869459224760E-1   -6.135762986868456E-2    2.948143755762856E-2    1.160237816281529E-2    2.951347053202604E-2    1.142345888369941E-2    9.697158464026331E-1   -5.984565604110968E-2
 2.729984220528475E7     9.694937844568113E-1   -6.188336697926691E-2    2.948074746396792E-2    1.176592734617881E-2    2.951287144910994E-2    1.158914869834169E-2    9.696987857911925E-1   -6.037578656581492E-2
 2.750813625158667E7     9.695087058015435E-1   -6.241019532504570E-2    2.947920020956959E-2    1.193284767802359E-2    2.951313033993551E-2    1.175331354956533E-2    9.696897066425446E-1   -6.093073102802470E-2
 2.771801955285188E7     9.694738121410108E-1   -6.328866188704801E-2    2.938171039746120E-2    1.212620729805378E-2    2.964749301137404E-2    1.148921448156815E-2    9.696863027448309E-1   -6.139222194282432E-2
 2.792950423487763E7     9.693979809555993E-1   -6.370742131291500E-2    2.942411335136878E-2    1.229047740944946E-2    2.952712146774049E-2    1.189844672920141E-2    9.696711075781965E-1   -6.194186764263675E-2
 2.814260251597910E7     9.693913347660490E-1   -6.429372620681696E-2    2.942393836985426E-2    1.245877929714142E-2    2.952801902346069E-2    1.206552950299265E-2    9.696583091879664E-1   -6.250749857864851E-2
 2.835732670769557E7     9.693803568184224E-1   -6.483825863750964E-2    2.942482332952543E-2    1.262577134335301E-2    2.952956022637056E-2    1.223254043288773E-2    9.696500489235810E-1   -6.306588974521755E-2
 2.857368921550186E7     9.694264171804384E-1   -6.519556015185281E-2    2.950639684084643E-2    1.274977328310156E-2    2.953044970183141E-2    1.264541125529290E-2    9.695768954423444E-1   -6.369582417087626E-2
 2.879170253952448E7     9.693879287726429E-1   -6.579419330349437E-2    2.950749382989196E-2    1.292252670795293E-2    2.953145894056167E-2    1.281455982720775E-2    9.695205737983879E-1   -6.424966283794147E-2
 2.901137927526460E7     9.693642541020627E-1   -6.636163278089073E-2    2.950767285075043E-2    1.309274270783410E-2    2.953102501028398E-2    1.298825894134678E-2    9.695287514571800E-1   -6.482962219584973E-2
 2.923273211432508E7     9.693435358046595E-1   -6.695356084353100E-2    2.950769996328024E-2    1.326529359614033E-2    2.953484001986635E-2    1.315879311730279E-2    9.694799848249944E-1   -6.542510305049169E-2
 2.945577384514398E7     9.693119243279672E-1   -6.754263922184864E-2    2.951064948757336E-2    1.343828252405385E-2    2.953687499379375E-2    1.333329005787622E-2    9.694801515625542E-1   -6.598434204074040E-2
 2.968051735373363E7     9.693186158912588E-1   -6.813017578881846E-2    2.951363152846390E-2    1.361460798054256E-2    2.953867655787236E-2    1.350776573469250E-2    9.694608748115370E-1   -6.656348051874504E-2
 2.990697562442441E7     9.692274379538075E-1   -6.886873829302756E-2    2.947309124591378E-2    1.381871067593664E-2    2.952479576038900E-2    1.358432189953014E-2    9.694671400477662E-1   -6.708627955009959E-2
 3.013516174061584E7     9.692186635357778E-1   -6.936897012140715E-2    2.949297272522810E-2    1.398918531118803E-2    2.953080526229839E-2    1.380632426225433E-2    9.694312732621858E-1   -6.769861351346491E-2
 3.036508888553168E7     9.691664635019152E-1   -7.000818831011681E-2    2.948033392376114E-2    1.417444518949510E-2    2.953315371507678E-2    1.393726474687412E-2    9.694079340445052E-1   -6.825519492166290E-2
 3.059677034298190E7     9.691307758052371E-1   -7.063730660741586E-2    2.948342768770295E-2    1.435379065357877E-2    2.953882755655908E-2    1.411568656414369E-2    9.693849394204921E-1   -6.885754665900903E-2
 3.083021949813037E7     9.691774743155128E-1   -7.163931774099166E-2    2.939463408285939E-2    1.452884234762416E-2    2.988586859590574E-2    1.375807560070924E-2    9.693508300866420E-1   -6.940743351666046E-2
 3.106544983826748E7     9.691484907309981E-1   -7.224829522862151E-2    2.940128708018524E-2    1.471063178200109E-2    2.989622047592568E-2    1.393623431243959E-2    9.693224394624308E-1   -6.998787824321862E-2
 3.130247495359022E7     9.690868780256109E-1   -7.238590376535398E-2    2.954273057982909E-2    1.487094101439442E-2    2.956957806557722E-2    1.476241299370739E-2    9.692543128237711E-1   -7.072856124172791E-2
 3.154130853798668E7     9.690481840199152E-1   -7.301526103715775E-2    2.954880926226401E-2    1.505245185148417E-2    2.957767796044712E-2    1.494645754714551E-2    9.692205826292420E-1   -7.133528470284044E-2
 3.178196438982744E7     9.690185018487739E-1   -7.364438096306730E-2    2.955410343990542E-2    1.523762989013742E-2    2.958373800101418E-2    1.513016319684753E-2    9.691806312177642E-1   -7.195919649358530E-2
 3.202445641276293E7     9.689523168946779E-1   -7.434084372839678E-2    2.953434770392891E-2    1.544157646766033E-2    2.957966445792625E-2    1.525767520244344E-2    9.691642841958652E-1   -7.252561393517437E-2
 3.226879861652631E7     9.689707366888427E-1   -7.489872200259823E-2    2.957116437699260E-2    1.560929180275923E-2    2.959828670752397E-2    1.550190823605279E-2    9.690919135875771E-1   -7.321664076376921E-2
 3.251500511774320E7     9.688504152705445E-1   -7.594696806409590E-2    2.945783864225501E-2    1.582503095218699E-2    2.978662535130292E-2    1.517802198898556E-2    9.691380861728048E-1   -7.370977449327043E-2
 3.276309014074709E7     9.688071374240339E-1   -7.659724065907891E-2    2.946704256629014E-2    1.601260626613496E-2    2.979826133376649E-2    1.536550692614493E-2    9.690881231960194E-1   -7.433563967373281E-2
 3.301306801840112E7     9.687611442290971E-1   -7.727697877815018E-2    2.947714538881160E-2    1.619836952075475E-2    2.981114848638389E-2    1.555222223191051E-2    9.690622613604639E-1   -7.495029496787421E-2
 3.326495319292643E7     9.687326686454808E-1   -7.793458037600397E-2    2.948635239987244E-2    1.639074502449115E-2    2.982356556885654E-2    1.574005893129352E-2    9.690349355559156E-1   -7.562316330195946E-2
 3.351876021673609E7     9.687604695288150E-1   -7.822495382546928E-2    2.961245499568115E-2    1.655674514865452E-2    2.964302923758372E-2    1.644564413146805E-2    9.689174298758951E-1   -7.639433117849030E-2
 3.377450375327612E7     9.687226239259682E-1   -7.886741064553419E-2    2.962352812859463E-2    1.674967269069118E-2    2.965236406761597E-2    1.663662645421137E-2    9.688809026279610E-1   -7.707108296703041E-2
 3.403219857787284E7     9.686022024241062E-1   -7.962658568435083E-2    2.958440880300937E-2    1.696716993502938E-2    2.965211123188984E-2    1.672194938991552E-2    9.688864994307679E-1   -7.765175096739824E-2
 3.429185957858586E7     9.685663713512269E-1   -8.031314834873923E-2    2.959496715422917E-2    1.715941773147697E-2    2.966171320848870E-2    1.691609133322362E-2    9.688397205465152E-1   -7.832183892108298E-2
 3.455350175706909E7     9.685116150861358E-1   -8.097559904906103E-2    2.960142161152897E-2    1.735395672882793E-2    2.967077645577042E-2    1.710979079187426E-2    9.687955739968783E-1   -7.895099594272172E-2
 3.481714022943672E7     9.684339762801887E-1   -8.198070707402533E-2    2.953750304840564E-2    1.754533892588405E-2    2.989147970793031E-2    1.689606710320769E-2    9.687495623971476E-1   -7.959867522389376E-2
 3.508279022713681E7     9.683637434475978E-1   -8.267925070237589E-2    2.953913215450577E-2    1.774223389770521E-2    2.989896796345694E-2    1.709121261636848E-2    9.686934630276011E-1   -8.025155255306134E-2
 3.535046709783159E7     9.683031636183732E-1   -8.334959379845272E-2    2.954089616423333E-2    1.794478065059514E-2    2.990244997119489E-2    1.729315569443182E-2    9.686419115797540E-1   -8.092663713014710E-2
 3.562018630628331E7     9.682181783966944E-1   -8.408870688166839E-2    2.953537853116502E-2    1.815487737494401E-2    2.990182808110160E-2    1.750037101838739E-2    9.685773275844287E-1   -8.161763800697260E-2
 3.589196343524875E7     9.681265003130540E-1   -8.476257383136224E-2    2.952859258351473E-2    1.838226572156133E-2    2.989861859816130E-2    1.772756429896276E-2    9.684964236182823E-1   -8.228884097353353E-2
 3.616581418637872E7     9.680811291757264E-1   -8.542430474237235E-2    2.954372973506684E-2    1.862668318148348E-2    2.992028657592188E-2    1.797198649407341E-2    9.684542698185040E-1   -8.293900649087470E-2
 3.644175438112541E7     9.680514466008442E-1   -8.612904472622709E-2    2.958690338859283E-2    1.886263301654753E-2    2.996450204566314E-2    1.820584700517685E-2    9.684229611588983E-1   -8.362469957941139E-2
 3.671979996165685E7     9.680146351896608E-1   -8.662963703866737E-2    2.966033918518092E-2    1.908929129630563E-2    2.982293224401564E-2    1.867523471009114E-2    9.683877873114799E-1   -8.434960835930591E-2
 3.699996699177712E7     9.679731470599232E-1   -8.734484290369043E-2    2.969965054355194E-2    1.929585705748157E-2    2.986272015155252E-2    1.888004012538001E-2    9.683505825879080E-1   -8.506625571270067E-2
 3.728227165785540E7     9.679356819744638E-1   -8.810947973817428E-2    2.972990848055145E-2    1.950199336137157E-2    2.989641961334260E-2    1.908451093841344E-2    9.683192244932997E-1   -8.578375623018995E-2
 3.756673026976037E7     9.678739952066870E-1   -8.883219584574546E-2    2.975572540332113E-2    1.970768980327818E-2    2.992516018421991E-2    1.928989873030450E-2    9.682735725418600E-1   -8.650515351019882E-2
 3.785335926180276E7     9.679347993730013E-1   -8.938955994415547E-2    2.986480664141151E-2    1.989418338326814E-2    2.989884236552373E-2    1.978156851597113E-2    9.681350031077027E-1   -8.732954718966243E-2
 3.814217519368506E7     9.679030976962405E-1   -9.012308155808139E-2    2.988974755890935E-2    2.010597565308127E-2    2.992518135998039E-2    1.999233428328257E-2    9.680907729027930E-1   -8.806642609961016E-2
 3.843319475145779E7     9.678209884236586E-1   -9.087564380051640E-2    2.991287405146577E-2    2.032091974702025E-2    2.995055128908753E-2    2.020735739591238E-2    9.680207188853150E-1   -8.879884915636643E-2
 3.872643474848381E7     9.677709406969922E-1   -9.163034300678438E-2    2.993905768247004E-2    2.053864871863325E-2    2.997653851604147E-2    2.042320015170125E-2    9.679670725839865E-1   -8.955234443127191E-2
 3.902191212640966E7     9.677220352165588E-1   -9.240797412093391E-2    2.996574444016149E-2    2.075616662701237E-2    3.000404741787205E-2    2.064125207207727E-2    9.679174302265942E-1   -9.028103696420155E-2
 3.931964395614420E7     9.676705359180164E-1   -9.318445289351888E-2    2.999377188434890E-2    2.097510819662243E-2    3.003075690250583E-2    2.085987464505971E-2    9.678653109030083E-1   -9.101885464497611E-2
 3.961964743884522E7     9.675519956193366E-1   -9.401485548945093E-2    2.998695871612116E-2    2.120986985662786E-2    3.005344050259048E-2    2.101169600163020E-2    9.678443201273125E-1   -9.175740340430458E-2
 3.992193990691278E7     9.674769161736739E-1   -9.479793302231738E-2    3.001465881541482E-2    2.143220898970988E-2    3.008318985692697E-2    2.123320944926954E-2    9.677714353731505E-1   -9.252572947906244E-2
 4.022653882499073E7     9.673282572546694E-1   -9.576561560117040E-2    2.999135585854022E-2    2.165940213502852E-2    3.017847248584296E-2    2.123580802686198E-2    9.677402978928206E-1   -9.321135787330866E-2
 4.053346179097611E7     9.672395844130778E-1   -9.656239385836586E-2    3.001860832040498E-2    2.188442533405838E-2    3.020984951930469E-2    2.145892194894062E-2    9.676732250248926E-1   -9.402359208756370E-2
 4.084272653703488E7     9.671867109045437E-1   -9.734701138507210E-2    3.004739168775919E-2    2.211077910912887E-2    3.024153722088460E-2    2.168362048168740E-2    9.675994431044168E-1   -9.479912446427739E-2
 4.115435093062763E7     9.670861984005681E-1   -9.828660399860939E-2    3.006259042072085E-2    2.233035513122038E-2    3.037731787109281E-2    2.176143045428646E-2    9.675449990747974E-1   -9.557068777131750E-2
 4.146835297554084E7     9.670145986258341E-1   -9.911050442071680E-2    3.008990782307296E-2    2.255984846027453E-2    3.041270477210305E-2    2.198799312782224E-2    9.674631933401190E-1   -9.636071679444499E-2
 4.178475081292742E7     9.669822423922682E-1   -1.001905012572657E-1    3.011493230046155E-2    2.277896097817595E-2    3.079982600527127E-2    2.197774569731401E-2    9.673930100586894E-1   -9.713796417816162E-2
 4.210356272235513E7     9.668972856075697E-1   -1.010121899581804E-1    3.014695653723453E-2    2.300949185352089E-2    3.083745793671476E-2    2.220840407154779E-2    9.673095638600447E-1   -9.792634527968401E-2
 4.242480712286174E7     9.668215557234293E-1   -1.018524418113191E-1    3.018029364738553E-2    2.324633819488519E-2    3.087937590210578E-2    2.244040792655179E-2    9.672317446708517E-1   -9.875531957975306E-2
 4.274850257402029E7     9.667536191134042E-1   -1.026854290202578E-1    3.021468686134007E-2    2.348134038580784E-2    3.091851206766859E-2    2.267728967305862E-2    9.671596883898381E-1   -9.956199456849858E-2
 4.307466777701053E7     9.668015659417327E-1   -1.029033134836548E-1    3.035612140292459E-2    2.372898676657340E-2    3.040330914285044E-2    2.360153757696040E-2    9.669933911034234E-1   -1.005257108754520E-1
 4.340332157569963E7     9.665986429560667E-1   -1.043789219816181E-1    3.028536275881009E-2    2.395846923757277E-2    3.099916160588468E-2    2.315252613674348E-2    9.669945589769381E-1   -1.012106352209279E-1
 4.373448295773120E7     9.664899205591311E-1   -1.052270208658729E-1    3.032137233918853E-2    2.420125520141590E-2    3.104387687617638E-2    2.339131104454316E-2    9.669276637819312E-1   -1.020218148679404E-1
 4.406817105562137E7     9.663653581030653E-1   -1.058081664103815E-1    3.036106822993819E-2    2.445475935085437E-2    3.071283583522092E-2    2.386776790794051E-2    9.668379451203755E-1   -1.028757274612679E-1
 4.440440514786536E7     9.662764033564616E-1   -1.066663528561580E-1    3.039982848648546E-2    2.470035652107421E-2    3.075462404082884E-2    2.411229300477402E-2    9.667541718652396E-1   -1.037533297092606E-1
 4.474320466005030E7     9.661616713840242E-1   -1.075433368721229E-1    3.043842541006244E-2    2.494573341023052E-2    3.079667931400904E-2    2.435693437694586E-2    9.666682389238528E-1   -1.045886280092163E-1
 4.508458916597787E7     9.661364977303194E-1   -1.082039036345077E-1    3.050978822593328E-2    2.520121779899942E-2    3.067245339639745E-2    2.485465925836027E-2    9.665723001313512E-1   -1.054884478420441E-1
 4.542857838879555E7     9.660558839267590E-1   -1.090958149795346E-1    3.055074905716459E-2    2.545131361563287E-2    3.071425849762964E-2    2.510350550619483E-2    9.664616354517209E-1   -1.063513978134049E-1
 4.577519220213508E7     9.659333242582689E-1   -1.100008759259663E-1    3.059192188090737E-2    2.570139707288746E-2    3.075754503326426E-2    2.535362235071125E-2    9.663844988687476E-1   -1.072014931864957E-1
 4.612445063126191E7     9.658482726778816E-1   -1.109067320000939E-1    3.063362875599572E-2    2.595459867220180E-2    3.080415222294390E-2    2.560404471629662E-2    9.662789965588512E-1   -1.081124035730300E-1
 4.647637385423118E7     9.657442291288750E-1   -1.117936125699536E-1    3.067506865561711E-2    2.620850950702420E-2    3.084686907315715E-2    2.585862555910722E-2    9.661870990434072E-1   -1.089727744664825E-1
 4.683098220305377E7     9.656224797541237E-1   -1.127148012550606E-1    3.071845704643147E-2    2.646477126142618E-2    3.089297922312722E-2    2.611247769275108E-2    9.660815032321015E-1   -1.098714795771010E-1
 4.718829616487134E7     9.655247819505594E-1   -1.136181754417691E-1    3.076295891363134E-2    2.672316246918030E-2    3.093965474258829E-2    2.637046568411200E-2    9.659839040771405E-1   -1.107978498096415E-1
 4.754833638313931E7     9.653368555625040E-1   -1.147621346958431E-1    3.077581431185557E-2    2.697353287192446E-2    3.116865083765558E-2    2.637307876981979E-2    9.658922143431391E-1   -1.116513050932778E-1
 4.791112365881994E7     9.652254403406511E-1   -1.156837311899963E-1    3.082103196214714E-2    2.723456018606143E-2    3.121934455012680E-2    2.663251306870152E-2    9.657761701449957E-1   -1.125299662952598E-1
 4.827667895158397E7     9.651067244440573E-1   -1.166336962734697E-1    3.086822560228597E-2    2.750080112449721E-2    3.126917087474892E-2    2.689473103859963E-2    9.656599019423256E-1   -1.134419585461370E-1
 4.864502338102144E7     9.649834655827603E-1   -1.175625933112549E-1    3.091359839322451E-2    2.776957967020195E-2    3.132287379668383E-2    2.716010138105844E-2    9.655486949757834E-1   -1.143657317148704E-1
 4.901617822786229E7     9.648680036413060E-1   -1.185046983516475E-1    3.096216048291853E-2    2.804258193447678E-2    3.137570744853986E-2    2.743026748189792E-2    9.654353557938705E-1   -1.152697704104602E-1
 4.939016493520518E7     9.647558334121837E-1   -1.194570241289032E-1    3.101557247674010E-2    2.831470674042712E-2    3.143319820187897E-2    2.769955347799107E-2    9.653261212086925E-1   -1.162262144718678E-1
 4.976700510975666E7     9.646237920085478E-1   -1.204100278405214E-1    3.106892940135070E-2    2.858624983546061E-2    3.148875928743288E-2    2.797018813633097E-2    9.652104801023325E-1   -1.171723744494951E-1
 5.014672052307993E7     9.645152518745672E-1   -1.214061942041414E-1    3.111908788352184E-2    2.886056948090927E-2    3.154692123530917E-2    2.824549575565369E-2    9.650952281242879E-1   -1.181045353676989E-1
 5.052933311285146E7     9.643805206685694E-1   -1.223679968756669E-1    3.117829015613581E-2    2.913990532538035E-2    3.161075671845368E-2    2.852204735356659E-2    9.649755943162520E-1   -1.190722514589167E-1
 5.091486498412994E7     9.642543836483844E-1   -1.233451645531730E-1    3.123809785765810E-2    2.942272020328313E-2    3.167470847261969E-2    2.879908952412495E-2    9.648426842141736E-1   -1.200094982607599E-1
 5.130333841063219E7     9.641176878177643E-1   -1.243304289108641E-1    3.129760006986548E-2    2.970240549520910E-2    3.174240991729196E-2    2.907970631179121E-2    9.647242204797731E-1   -1.209905282133142E-1
 5.169477583602042E7     9.640023825314710E-1   -1.253211307192729E-1    3.135766113272859E-2    2.998597427212824E-2    3.181244834422976E-2    2.935862280915071E-2    9.645933260542298E-1   -1.219751046666558E-1
 5.208919987519933E7     9.638827828313582E-1   -1.263123028186969E-1    3.142393365374700E-2    3.026897248415410E-2    3.188359351141946E-2    2.963912129098252E-2    9.644726293499541E-1   -1.229619900981533E-1
 5.248663331562151E7     9.637249436922593E-1   -1.273351186483309E-1    3.148932384172187E-2    3.055064763419364E-2    3.195319943333749E-2    2.991967886771256E-2    9.643423221232630E-1   -1.239354034160840E-1
 5.288709911860541E7     9.636009099540727E-1   -1.283696242713698E-1    3.155364436347809E-2    3.083908819202398E-2    3.202092496389451E-2    3.020307029177679E-2    9.641995323756964E-1   -1.249164814451313E-1
 5.329062042066076E7     9.634621138979970E-1   -1.293549616094324E-1    3.161593692485151E-2    3.112519132574363E-2    3.209362023921146E-2    3.048943888214575E-2    9.640793651601052E-1   -1.259150235089021E-1
 5.369722053482568E7     9.633143571200017E-1   -1.304154363890940E-1    3.168452298549060E-2    3.141421958862754E-2    3.216856572800120E-2    3.077517366022232E-2    9.639248982151544E-1   -1.269451605854044E-1
 5.410692295201402E7     9.631709082445739E-1   -1.314640705272265E-1    3.175139263630010E-2    3.170655750089137E-2    3.223928298600932E-2    3.106151375780498E-2    9.638015218386452E-1   -1.279595153112604E-1
 5.451975134237129E7     9.630288248711053E-1   -1.325323493557563E-1    3.182073733302091E-2    3.199819716716611E-2    3.231460477164484E-2    3.135384047986736E-2    9.636484830973800E-1   -1.290040278568225E-1
 5.493572955664375E7     9.628653031672686E-1   -1.335981201697971E-1    3.189121567316534E-2    3.229294000053707E-2    3.239179702503540E-2    3.164522023573598E-2    9.635225126130882E-1   -1.300506272155371E-1
 5.535488162755510E7     9.627277993757886E-1   -1.346291443320777E-1    3.195983582728018E-2    3.259113458130444E-2    3.246882841777245E-2    3.194231284009125E-2    9.633700788549376E-1   -1.310816368008026E-1
 5.577723177119546E7     9.625422805617354E-1   -1.356717704319637E-1    3.203137107806110E-2    3.289124001964869E-2    3.254729197963845E-2    3.223839419459299E-2    9.631981959535018E-1   -1.321325440272633E-1
 5.620280438842070E7     9.623878005197469E-1   -1.367944788716407E-1    3.210698079028161E-2    3.319464605417237E-2    3.262922209199900E-2    3.253654937894035E-2    9.630325860540014E-1   -1.331726072400111E-1
 5.663162406626155E7     9.622283647164360E-1   -1.378647487130231E-1    3.218006063370169E-2    3.349776902020863E-2    3.271064649553222E-2    3.283698139646019E-2    9.628781015949817E-1   -1.342608214559050E-1
 5.706371557934452E7     9.620534075721082E-1   -1.389577004658476E-1    3.225594154663824E-2    3.380545648065494E-2    3.279496865590018E-2    3.314253154829607E-2    9.627282136109280E-1   -1.353252604348731E-1
 5.749910389132310E7     9.618825971857786E-1   -1.400760540013957E-1    3.233555807282845E-2    3.411371927864460E-2    3.287993292550865E-2    3.344823267942734E-2    9.625607304063527E-1   -1.364167114706016E-1
 5.793781415631992E7     9.617196912999729E-1   -1.411800106442300E-1    3.241360018192982E-2    3.442322344738365E-2    3.296398064743455E-2    3.375425374793491E-2    9.623800295767513E-1   -1.375000412398910E-1
 5.837987172038046E7     9.617755548387450E-1   -1.417642888037906E-1    3.262334092757720E-2    3.472141484572522E-2    3.272940758734891E-2    3.458478691329703E-2    9.621345059304275E-1   -1.387168822910191E-1
 5.882530212293670E7     9.615868016085052E-1   -1.429490162136453E-1    3.270751768317208E-2    3.503582914373805E-2    3.281342540053214E-2    3.490070498524535E-2    9.619537882802088E-1   -1.398034292048528E-1
 5.927413109828297E7     9.613962022986815E-1   -1.440481267329620E-1    3.279419160307576E-2    3.535276702838750E-2    3.290242914122967E-2    3.521778298558353E-2    9.617630236722072E-1   -1.409173395284145E-1
 5.972638457706322E7     9.612087639130671E-1   -1.451551553558306E-1    3.288202223764784E-2    3.567205441802365E-2    3.298974919694855E-2    3.553836153453821E-2    9.615954782117668E-1   -1.420493637384659E-1
 6.018208868776779E7     9.610381132964666E-1   -1.463043453545880E-1    3.296882810303609E-2    3.599256858912957E-2    3.308170539813656E-2    3.586163138254047E-2    9.614243299049360E-1   -1.431553900847760E-1
 6.064126975824468E7     9.608426605846994E-1   -1.474502514507689E-1    3.305948823095709E-2    3.631752632731357E-2    3.317674663058839E-2    3.618383120426693E-2    9.612537114089391E-1   -1.443094097137376E-1
 6.110395431721926E7     9.606480426058622E-1   -1.486368543061113E-1    3.315415733734225E-2    3.664201544983642E-2    3.327299032633474E-2    3.651004172277034E-2    9.610508014804592E-1   -1.454443868335225E-1
 6.157016909582742E7     9.604494728543144E-1   -1.497862258024086E-1    3.324798933661981E-2    3.697000905112911E-2    3.336842206156803E-2    3.683785673700039E-2    9.608491727496375E-1   -1.466141373500869E-1
 6.203994102916045E7     9.602314965654957E-1   -1.509424237349843E-1    3.334224190997179E-2    3.729906320008600E-2    3.346706104420841E-2    3.716536634197633E-2    9.606558107534118E-1   -1.477673212299475E-1
 6.251329725781982E7     9.600236981449060E-1   -1.521093352680198E-1    3.344066207143817E-2    3.762873043541261E-2    3.356589325998502E-2    3.749779239577343E-2    9.604387030900008E-1   -1.489311349260190E-1
 6.299026512948693E7     9.598008230670292E-1   -1.533357239209375E-1    3.353925212783509E-2    3.796047369343401E-2    3.366746725254611E-2    3.783064966727041E-2    9.602478593226759E-1   -1.500912639311466E-1
 6.347087220050172E7     9.595902432037995E-1   -1.545295948932816E-1    3.363911843572653E-2    3.829384923629617E-2    3.377119672358884E-2    3.816604497965759E-2    9.600555709057789E-1   -1.513020239109912E-1
 6.395514623745525E7     9.593902829547991E-1   -1.557633688287414E-1    3.374062907242086E-2    3.863485135840640E-2    3.387484621636810E-2    3.850390966898144E-2    9.598360363710245E-1   -1.524912710429906E-1
 6.444311521879433E7     9.591770482888972E-1   -1.569840194030835E-1    3.384168015198363E-2    3.897786374777967E-2    3.397896045264587E-2    3.884398325258749E-2    9.596312634819104E-1   -1.537064447873543E-1
 6.493480733643661E7     9.589336568950824E-1   -1.582112250309712E-1    3.394597507254990E-2    3.931830826264524E-2    3.408547882507314E-2    3.918829948615337E-2    9.593798845818241E-1   -1.549195674980914E-1
 6.543025099740107E7     9.586946476011293E-1   -1.594635814264046E-1    3.405180469087423E-2    3.966150567384295E-2    3.419168980000782E-2    3.953044822222273E-2    9.591666200639891E-1   -1.561324663682196E-1
 6.592947482544785E7     9.583678246735382E-1   -1.617168121258451E-1    3.390851388657136E-2    4.007382373131286E-2    3.519098427280687E-2    3.911382803696899E-2    9.590179303102565E-1   -1.572073713950052E-1
 6.643250766273243E7     9.581596044712510E-1   -1.629872459726558E-1    3.401575348345685E-2    4.042996824167742E-2    3.532680323566991E-2    3.945702564319456E-2    9.587971907569752E-1   -1.584380667615362E-1
 6.693937857147253E7     9.579184269890444E-1   -1.642596112000055E-1    3.412004664203949E-2    4.078502446988665E-2    3.545004849785706E-2    3.980889331069258E-2    9.585735950854454E-1   -1.596629991308417E-1
 6.745011683562562E7     9.576586441598676E-1   -1.655639406570574E-1    3.421756610330023E-2    4.114863601745572E-2    3.557112645537673E-2    4.016469463544538E-2    9.583094933633496E-1   -1.609100519549830E-1
 6.796475196258274E7     9.574272877223846E-1   -1.668233661889909E-1    3.432429838739058E-2    4.152364381156292E-2    3.569577914908278E-2    4.053622419714642E-2    9.580813434646772E-1   -1.621957743568548E-1
 6.848331368487169E7     9.571771595140632E-1   -1.680885237047476E-1    3.443919544402695E-2    4.190418833586334E-2    3.582742465888419E-2    4.091512160071126E-2    9.578346547342385E-1   -1.634694791705119E-1
 6.900583196187538E7     9.567691250127726E-1   -1.689316811572267E-1    3.463623862265897E-2    4.226689265708482E-2    3.538638589158358E-2    4.150985252989409E-2    9.576011621578633E-1   -1.647302949227022E-1
 6.953233698156311E7     9.564937838804665E-1   -1.702185472568401E-1    3.475695778922075E-2    4.264417467631575E-2    3.553320057939455E-2    4.186938620779426E-2    9.573016231542228E-1   -1.660770758641634E-1
 7.006285916223384E7     9.562442271079881E-1   -1.715745156185988E-1    3.488398497075612E-2    4.301696824220252E-2    3.568018786752600E-2    4.222866614937942E-2    9.570566245217120E-1   -1.674209935582991E-1
 7.059742915427396E7     9.559530508929797E-1   -1.729587124584579E-1    3.501549124966585E-2    4.339024978460308E-2    3.582039563157857E-2    4.259846928218996E-2    9.567975012811244E-1   -1.686801172344099E-1
 7.113607784192866E7     9.556858256176576E-1   -1.742842781309775E-1    3.514784599343684E-2    4.376511375002100E-2    3.596540884332042E-2    4.297239030584797E-2    9.565425700037146E-1   -1.700406014228951E-1
 7.167883634508467E7     9.554310777511014E-1   -1.756175639936427E-1    3.528353988951094E-2    4.414360839454654E-2    3.610950823214489E-2    4.335099905907072E-2    9.562842412316933E-1   -1.713737320645496E-1
 7.222573602107021E7     9.551590104549413E-1   -1.770065890595946E-1    3.541758143567661E-2    4.452271747524363E-2    3.624752915179176E-2    4.373220688857993E-2    9.560109194024577E-1   -1.726864785496752E-1
 7.277680846646504E7     9.548506816284177E-1   -1.783662739788434E-1    3.554709227662986E-2    4.491074903245576E-2    3.638537844758473E-2    4.411686704980077E-2    9.557296169100059E-1   -1.740275147372561E-1
 7.333208551892644E7     9.545735383500255E-1   -1.797393473381651E-1    3.567068427087105E-2    4.530892729056023E-2    3.653534235453937E-2    4.449882600795498E-2    9.554020052116344E-1   -1.755103245565215E-1
 7.389159925902925E7     9.542574038954769E-1   -1.811918353932262E-1    3.580974813099336E-2    4.570844644426654E-2    3.669487081453125E-2    4.488706159774791E-2    9.551037138931099E-1   -1.769039564411304E-1
 7.445538201211768E7     9.539504542146404E-1   -1.826178325349683E-1    3.595798237113750E-2    4.610631290090626E-2    3.685214741826027E-2    4.527841396806753E-2    9.548027226317403E-1   -1.782089352274015E-1
 7.502346635017487E7     9.536575232671601E-1   -1.840270863351327E-1    3.611338838937950E-2    4.650111382057465E-2    3.701116475573187E-2    4.568049801398418E-2    9.545108304560981E-1   -1.795836241950786E-1
 7.559588509370317E7     9.533557742296035E-1   -1.854436579576946E-1    3.626461016024411E-2    4.689793459912740E-2    3.717392314181257E-2    4.607617578575254E-2    9.542011358771405E-1   -1.809959449992805E-1
 7.617267131362079E7     9.530544370180558E-1   -1.868581728478365E-1    3.641736435516490E-2    4.729898194029119E-2    3.733041486667309E-2    4.647721694223148E-2    9.539144317049815E-1   -1.824083089120798E-1
 7.675385833317320E7     9.527033002657910E-1   -1.882799172397014E-1    3.655923089002819E-2    4.770697154961108E-2    3.748789320752370E-2    4.688156185911959E-2    9.535573626577538E-1   -1.838503727020148E-1
 7.733947972985649E7     9.523876930869790E-1   -1.897474745954856E-1    3.670475044376634E-2    4.812368815083886E-2    3.766064028296535E-2    4.728271001741875E-2    9.532325841124928E-1   -1.853373259957127E-1
 7.792956933735959E7     9.520505203245788E-1   -1.912584718160851E-1    3.685717959890067E-2    4.854272448333016E-2    3.783886727392433E-2    4.768905219959189E-2    9.529036582383832E-1   -1.867965991966455E-1
 7.852416124751715E7     9.516838027075485E-1   -1.927711105752341E-1    3.701613361080703E-2    4.896396734512485E-2    3.801313954603302E-2    4.810447221332596E-2    9.525593454006777E-1   -1.882172999261426E-1
 7.912328981227988E7     9.513784838713504E-1   -1.941871956724731E-1    3.718066198572764E-2    4.938949503667758E-2    3.818204744195069E-2    4.853100149722788E-2    9.522189157186218E-1   -1.896708758806497E-1
 7.972698964569975E7     9.510219753778227E-1   -1.956611574499066E-1    3.734892191083627E-2    4.981655608783780E-2    3.835690919327437E-2    4.895774529969269E-2    9.518590111477957E-1   -1.911581478203903E-1
 8.033529562592810E7     9.506805556181201E-1   -1.971540510860179E-1    3.751755856500262E-2    5.025406448381469E-2    3.854464380310667E-2    4.939124767124544E-2    9.515303264184783E-1   -1.926434271345673E-1
 8.094824289723292E7     9.503279720523490E-1   -1.986917982929363E-1    3.769819243775108E-2    5.069518064422710E-2    3.873978738884473E-2    4.982848807302707E-2    9.511530134085426E-1   -1.941198147522586E-1
 8.156586687202743E7     9.499561412044076E-1   -2.002208945745913E-1    3.788356445631512E-2    5.113503907606869E-2    3.893987152492076E-2    5.026641168467104E-2    9.508337103749885E-1   -1.956244361111445E-1
 8.218820323291673E7     9.495903836933022E-1   -2.017833350432319E-1    3.807622986335264E-2    5.157494759976060E-2    3.914199705828182E-2    5.070428931979667E-2    9.504982999718916E-1   -1.971625232419745E-1
 8.281528793475981E7     9.492195550542488E-1   -2.033107196263329E-1    3.827082851692486E-2    5.201895742656314E-2    3.934496534031895E-2    5.114311852922496E-2    9.501424680414183E-1   -1.987015981253147E-1
 8.344715720674579E7     9.488817404801037E-1   -2.049005730081907E-1    3.846930716621151E-2    5.246202189668275E-2    3.955470728614104E-2    5.158348488421212E-2    9.497320712929256E-1   -2.002401547041245E-1
 8.408384755448765E7     9.485014108318782E-1   -2.064634099494362E-1    3.866588480460841E-2    5.290673935121992E-2    3.976301412473497E-2    5.202305549183184E-2    9.493746929770147E-1   -2.018097762680673E-1
 8.472539576213124E7     9.481178612307689E-1   -2.080735454699999E-1    3.885920496447117E-2    5.335462717812994E-2    3.996909370966592E-2    5.246735569141578E-2    9.490012777533671E-1   -2.034028128127570E-1
 8.537183889448020E7     9.476887596361686E-1   -2.096471820425358E-1    3.905151188761083E-2    5.381556155772239E-2    4.017415785159635E-2    5.292838284966978E-2    9.485915686349405E-1   -2.049685723412637E-1
 8.602321429913802E7     9.472812737490101E-1   -2.112372728697669E-1    3.926055346845124E-2    5.428741750942509E-2    4.040067256500179E-2    5.339401978126461E-2    9.482298655825173E-1   -2.065701526957908E-1
 8.667955960866481E7     9.468584530115894E-1   -2.128279249853606E-1    3.947523895647673E-2    5.474935484570977E-2    4.062836480162130E-2    5.385286935568909E-2    9.478320182931255E-1   -2.081697305505083E-1
 8.734091274275188E7     9.464303574255816E-1   -2.144610310748431E-1    3.968479496266238E-2    5.521481221344249E-2    4.085039390353884E-2    5.431679766138409E-2    9.474141818085490E-1   -2.097877704795821E-1
 8.800731191041334E7     9.460252036104142E-1   -2.161096284342924E-1    3.989943955159257E-2    5.569766162085896E-2    4.107727713691695E-2    5.479358920240023E-2    9.470093540193778E-1   -2.114083880556777E-1
 8.867879561219153E7     9.456028996802444E-1   -2.177485332699159E-1    4.012547161842096E-2    5.618631437931641E-2    4.131224019353200E-2    5.527993142005597E-2    9.465622320229039E-1   -2.130193723495778E-1
 8.935540264238395E7     9.452296886509834E-1   -2.194225107719981E-1    4.037262938009224E-2    5.668110248838076E-2    4.156887719541611E-2    5.576691733282442E-2    9.461579866373400E-1   -2.146642849006663E-1
 9.003717209128250E7     9.447871901581315E-1   -2.210652780724599E-1    4.060609970640656E-2    5.715318567551840E-2    4.180742096214673E-2    5.624168016023694E-2    9.457486876037167E-1   -2.163247196336364E-1
 9.072414334743266E7     9.443462709775338E-1   -2.227544439833514E-1    4.085960443340286E-2    5.763844734948168E-2    4.207469946795291E-2    5.672090982903419E-2    9.453310046573637E-1   -2.179891803916793E-1
 9.141635609990983E7     9.438874547103580E-1   -2.244784452102210E-1    4.111156312962039E-2    5.812315317233290E-2    4.234179536957963E-2    5.720388157937453E-2    9.449145840396074E-1   -2.196956887255617E-1
 9.211385034061028E7     9.434350887713920E-1   -2.261923984191080E-1    4.137032260913991E-2    5.861705711194095E-2    4.261404113116592E-2    5.769344019398791E-2    9.444688972792670E-1   -2.214106012838135E-1
 9.281666636656430E7     9.429739027329783E-1   -2.279096086814296E-1    4.164421062054621E-2    5.911063007844709E-2    4.289746491931337E-2    5.818319903573643E-2    9.440380304947157E-1   -2.231455158211872E-1
 9.352484478226222E7     9.425288832240315E-1   -2.296659664421628E-1    4.192072514347025E-2    5.959479141084269E-2    4.317948334039586E-2    5.866273572111778E-2    9.435631868156531E-1   -2.248807427830647E-1
 9.423842650200106E7     9.420672169177243E-1   -2.314467322885843E-1    4.219399310872636E-2    6.008109279188036E-2    4.346253301560724E-2    5.914302162369842E-2    9.430935987338256E-1   -2.266177094874981E-1
 9.495745275224906E7     9.415371466326143E-1   -2.332048293377464E-1    4.246437535343114E-2    6.056321152725268E-2    4.374662022970531E-2    5.962770227095125E-2    9.426172736946534E-1   -2.284066042907387E-1
 9.568196507402541E7     9.410138859579760E-1   -2.350023041089679E-1    4.274161705143386E-2    6.105942585384959E-2    4.403152703030092E-2    6.011682019966749E-2    9.420754568254092E-1   -2.301550164665154E-1
 9.641200532530291E7     9.405047082697834E-1   -2.368319235247208E-1    4.302121279783064E-2    6.155940725055642E-2    4.431802988922794E-2    6.060859549008892E-2    9.415864634135565E-1   -2.319567771992678E-1
 9.714761568342420E7     9.399841250792914E-1   -2.386500839978005E-1    4.330092255632799E-2    6.206413694913667E-2    4.460207799577198E-2    6.110965147047437E-2    9.410636319952359E-1   -2.337510377133586E-1
 9.788883864753923E7     9.393906124730033E-1   -2.404705390845682E-1    4.358652404092394E-2    6.257385351566008E-2    4.489877542997329E-2    6.161783226499002E-2    9.405065978609027E-1   -2.355544704219499E-1
 9.863571704106140E7     9.388343111738091E-1   -2.423218075116336E-1    4.387850495931556E-2    6.309039715641596E-2    4.519762877312589E-2    6.212702413618285E-2    9.399611264017909E-1   -2.373778486481538E-1
 9.938829401413949E7     9.382716383312253E-1   -2.441643681928497E-1    4.417107883678478E-2    6.361062945819908E-2    4.549691321624340E-2    6.264359102730281E-2    9.393874892033987E-1   -2.392063573234174E-1
 1.001466130461536E8     9.376805467251580E-1   -2.460605051262405E-1    4.447361867656686E-2    6.414433504128840E-2    4.580509694694331E-2    6.317441579262906E-2    9.388301740682572E-1   -2.410388563804328E-1
 1.009107179482240E8     9.370631001931590E-1   -2.479258887034706E-1    4.478278315729197E-2    6.468254685384782E-2    4.612632847580441E-2    6.371245270947247E-2    9.382676432937570E-1   -2.428935784552157E-1
 1.016806528657447E8     9.364260405760375E-1   -2.498115559557142E-1    4.511270122323321E-2    6.522678855754353E-2    4.646033519722104E-2    6.424860792855622E-2    9.376691802096589E-1   -2.447526417196608E-1
 1.024564622809335E8     9.357920593709206E-1   -2.517256887060680E-1    4.544786357501935E-2    6.577287174572283E-2    4.680389001640458E-2    6.478998768989927E-2    9.371344880052986E-1   -2.466487138847843E-1
 1.032381910153997E8     9.351625982243749E-1   -2.536540574160980E-1    4.579926859810930E-2    6.632197233223262E-2    4.716105632226804E-2    6.532919568669883E-2    9.365277688722849E-1   -2.485290993821158E-1
 1.040258842327368E8     9.344868028262944E-1   -2.555824814401714E-1    4.616570169600506E-2    6.685792810308351E-2    4.752863408035937E-2    6.585935182286302E-2    9.359216316442378E-1   -2.504266088308822E-1
 1.048195874411304E8     9.338219342001517E-1   -2.575370443622444E-1    4.652729195289336E-2    6.738482825183421E-2    4.789621072971315E-2    6.638297656330439E-2    9.353164499340494E-1   -2.523375282788776E-1
 1.056193464959857E8     9.330976725102911E-1   -2.594719212371949E-1    4.688577705781593E-2    6.791169398732332E-2    4.825637312003073E-2    6.690319547098006E-2    9.346922798674578E-1   -2.542760798410824E-1
 1.064252076025801E8     9.324164790999898E-1   -2.614301178548178E-1    4.723710219405704E-2    6.844399738947048E-2    4.861070277108574E-2    6.742835496590531E-2    9.340771457263154E-1   -2.562306814623621E-1
 1.072372173187304E8     9.316960156817867E-1   -2.633811116721024E-1    4.759072919514767E-2    6.899766000122409E-2    4.896733374112904E-2    6.798293759429494E-2    9.334529554018295E-1   -2.582086916549551E-1
 1.080554225574824E8     9.309333523592367E-1   -2.653815298047697E-1    4.796426424194080E-2    6.955242372823395E-2    4.934199233539192E-2    6.853529905306595E-2    9.328225411397946E-1   -2.601896260423780E-1
 1.088798705898232E8     9.302042645704115E-1   -2.673701387665167E-1    4.834355807111905E-2    7.011778223908878E-2    4.972248569920228E-2    6.909307068416111E-2    9.321835330532999E-1   -2.621915412772604E-1
 1.097106090474096E8     9.294298996996517E-1   -2.693562244694568E-1    4.874407067161988E-2    7.068591379604930E-2    5.011905714073090E-2    6.966019886301650E-2    9.315013278917549E-1   -2.642379049277161E-1
 1.105476859253232E8     9.286806438991242E-1   -2.713517570014619E-1    4.916123093515010E-2    7.123855376490634E-2    5.053452814608218E-2    7.021267681691201E-2    9.308241646547694E-1   -2.662840626338638E-1
 1.113911495848395E8     9.279685276364557E-1   -2.733700663111418E-1    4.956890369974905E-2    7.178500098263450E-2    5.094005845823508E-2    7.075547899612029E-2    9.301237524436584E-1   -2.683571421930506E-1
 1.122410487562254E8     9.272476785715159E-1   -2.754320106026697E-1    4.996754930392895E-2    7.234215488597046E-2    5.134367040780860E-2    7.130773419798501E-2    9.294137829284144E-1   -2.704366682978172E-1
 1.130974325415529E8     9.265119116514905E-1   -2.775253952664245E-1    5.037312525843127E-2    7.291251229644355E-2    5.174774287093267E-2    7.187645413633929E-2    9.286724329053592E-1   -2.725563012395072E-1
 1.139603504175348E8     9.257629020286458E-1   -2.796491547859215E-1    5.079181625740593E-2    7.349229903077609E-2    5.217219084996257E-2    7.245455581972553E-2    9.279249564243616E-1   -2.746642191084780E-1
 1.148298522383858E8     9.249655136545107E-1   -2.817889436376879E-1    5.122246043173198E-2    7.407213465997313E-2    5.260609888180905E-2    7.303154661441612E-2    9.271849493097789E-1   -2.767930949557663E-1
 1.157059882387014E8     9.241769209134572E-1   -2.839378481586863E-1    5.165739670216782E-2    7.465614854656331E-2    5.304788815238547E-2    7.361001225565421E-2    9.263863275754829E-1   -2.789357677021959E-1
 1.165888090363587E8     9.233319298560948E-1   -2.861341899930759E-1    5.210513294593123E-2    7.523499401438835E-2    5.349404533629975E-2    7.418389930574987E-2    9.255963743588270E-1   -2.811060021526701E-1
 1.174783656354443E8     9.224571859883443E-1   -2.883248918310299E-1    5.255928590408183E-2    7.581037672231453E-2    5.394936288182196E-2    7.475343875070420E-2    9.247731895385197E-1   -2.832836666348663E-1
 1.183747094291968E8     9.215879682698026E-1   -2.904829860349513E-1    5.300853276922475E-2    7.638074727994229E-2    5.439717416334505E-2    7.532104746057582E-2    9.239747594204133E-1   -2.854828699334170E-1
 1.192778922029803E8     9.207759724218394E-1   -2.926801476494201E-1    5.344094441304503E-2    7.697238752067223E-2    5.483541934886482E-2    7.590358258909122E-2    9.231650409969110E-1   -2.876915177288506E-1
 1.201879661372721E8     9.199514356225998E-1   -2.949425479894463E-1    5.390242320383766E-2    7.759150088263730E-2    5.529263163419369E-2    7.651740325146850E-2    9.223284971452477E-1   -2.899298548511993E-1
 1.211049838106809E8     9.190748835411464E-1   -2.972196795259389E-1    5.439196828404144E-2    7.819643326598905E-2    5.578553110884433E-2    7.711194905586848E-2    9.214536811410486E-1   -2.921697382782212E-1
 1.220289982029829E8     9.182370442571857E-1   -2.995147755698553E-1    5.486435079196034E-2    7.878704020135709E-2    5.625605646959681E-2    7.769138066427829E-2    9.205934669022684E-1   -2.944213778000440E-1
 1.229600626981811E8     9.173600812031436E-1   -3.018472953628574E-1    5.532539368653257E-2    7.939967850875002E-2    5.671827189190477E-2    7.829797575544126E-2    9.197300850254764E-1   -2.967064993461868E-1
 1.238982310875929E8     9.164602752667490E-1   -3.042325456742122E-1    5.580457921864566E-2    8.004258584451086E-2    5.719782596915212E-2    7.893153902460251E-2    9.188512738003340E-1   -2.990241582934654E-1
 1.248435575729559E8     9.155146478526218E-1   -3.066479237811949E-1    5.631844443429549E-2    8.069056621301575E-2    5.770748910120352E-2    7.957314204731615E-2    9.179121783143964E-1   -3.013619821434042E-1
 1.257960967695579E8     9.145263604147233E-1   -3.090522880791309E-1    5.684151504740531E-2    8.130194395770163E-2    5.822308761117863E-2    8.018042792977444E-2    9.169537689033138E-1   -3.036750810834546E-1
 1.267559037093956E8     9.135522261412105E-1   -3.114585790502585E-1    5.735227500304300E-2    8.190037409502242E-2    5.873428599205029E-2    8.077156117952303E-2    9.160363990430729E-1   -3.059697587997840E-1
 1.277230338443520E8     9.125819635054734E-1   -3.139088147025590E-1    5.783125529854531E-2    8.254220042448697E-2    5.921860005820633E-2    8.140664734629610E-2    9.151478312347997E-1   -3.083459462921039E-1
 1.286975430493991E8     9.115866186079782E-1   -3.164007526349127E-1    5.834448853367180E-2    8.322720200807814E-2    5.973232429403989E-2    8.207983219629121E-2    9.142027591982993E-1   -3.107751350104471E-1
 1.296794876258291E8     9.105460394910133E-1   -3.188915926481428E-1    5.889611543157335E-2    8.390435098010801E-2    6.028329707111408E-2    8.275146982084342E-2    9.132204513848324E-1   -3.132019459178860E-1
 1.306689243045034E8     9.095034246792177E-1   -3.213745699554065E-1    5.945370495802933E-2    8.457504829047012E-2    6.084379525534474E-2    8.341436757319656E-2    9.122278312527401E-1   -3.156333053426042E-1
 1.316659102491341E8     9.084672560771102E-1   -3.238857881463420E-1    6.001952049111380E-2    8.525763686451768E-2    6.140780428190353E-2    8.408388158094815E-2    9.112295372350201E-1   -3.181049871605275E-1
 1.326705030595824E8     9.074186319027758E-1   -3.264109615569221E-1    6.059231893325207E-2    8.595065215416843E-2    6.198475798373491E-2    8.476933710239365E-2    9.101986011366047E-1   -3.205901464942738E-1
 1.336827607751903E8     9.063677953552867E-1   -3.289888417907869E-1    6.119131123545010E-2    8.664406045961040E-2    6.259313485517091E-2    8.545530317636171E-2    9.091612582887959E-1   -3.230768930071495E-1
 1.347027418781318E8     9.052865704961006E-1   -3.315987982328632E-1    6.180064103433967E-2    8.733311212039116E-2    6.320853166684730E-2    8.613482158189677E-2    9.081038995076752E-1   -3.256025783306954E-1
 1.357305052967905E8     9.041727990424515E-1   -3.342139895788401E-1    6.242233210882309E-2    8.802298229358731E-2    6.383246542061161E-2    8.680580330628211E-2    9.070039973706232E-1   -3.281361835476011E-1
 1.367661104091667E8     9.030525630545165E-1   -3.368306382456580E-1    6.304251537529354E-2    8.870861339796911E-2    6.446089142272135E-2    8.748238084001693E-2    9.058695359049477E-1   -3.306669333059284E-1
 1.378096170463071E8     9.018874774166347E-1   -3.394926559496617E-1    6.367287270460391E-2    8.939500980200103E-2    6.509815083888534E-2    8.815540531703016E-2    9.047346959493309E-1   -3.332048817456345E-1
 1.388610854957592E8     9.007198125125745E-1   -3.421857856596370E-1    6.430363752777883E-2    9.009155073989716E-2    6.573247697567539E-2    8.883978996572300E-2    9.036347465644218E-1   -3.357276312616899E-1
 1.399205765050585E8     8.995121020645378E-1   -3.448789865257727E-1    6.494221480875989E-2    9.079840225942817E-2    6.637616763301535E-2    8.953125993543226E-2    9.025214909793625E-1   -3.383020476704580E-1
 1.409881512852336E8     8.982986771904018E-1   -3.475749212081276E-1    6.558704878481228E-2    9.151120921843998E-2    6.702706159565680E-2    9.022982265162779E-2    9.013789930466501E-1   -3.409182270145233E-1
 1.420638715143470E8     8.970595370978909E-1   -3.502791746228123E-1    6.623668901707619E-2    9.224254809633020E-2    6.768511651859091E-2    9.094944677924098E-2    9.002310715435787E-1   -3.435547256299165E-1
 1.431477993410541E8     8.958280638669589E-1   -3.529995392378640E-1    6.690256659825904E-2    9.298045297464666E-2    6.835238308631482E-2    9.167741447461301E-2    8.990683122774910E-1   -3.461886188831977E-1
 1.442399973881980E8     8.945662576772190E-1   -3.557444467454393E-1    6.757399267901511E-2    9.373453473704460E-2    6.903490586815852E-2    9.242393798628792E-2    8.978608297305796E-1   -3.489041199535433E-1
 1.453405287564251E8     8.932669816889177E-1   -3.585330318089499E-1    6.827236313785769E-2    9.451213440385632E-2    6.974186616098096E-2    9.319230427331962E-2    8.966228022267168E-1   -3.516223972443033E-1
 1.464494570278296E8     8.919687809193688E-1   -3.613206538585609E-1    6.900213685085459E-2    9.529162539076642E-2    7.048098060514178E-2    9.395978119241755E-2    8.953477347000919E-1   -3.543381831571004E-1
 1.475668462696298E8     8.906358960714574E-1   -3.641440289820963E-1    6.975029386052659E-2    9.606063598805177E-2    7.123303988179033E-2    9.472122797449621E-2    8.940561034286832E-1   -3.570617680651458E-1
 1.486927610378684E8     8.892452634166810E-1   -3.670013665894269E-1    7.052139401931604E-2    9.683262127634616E-2    7.201205238927628E-2    9.548287395816092E-2    8.927318961938061E-1   -3.598427085930517E-1
 1.498272663811400E8     8.878625864157121E-1   -3.698307820711003E-1    7.129917473419346E-2    9.760046305740110E-2    7.280152742362918E-2    9.624384947270281E-2    8.913751939531794E-1   -3.626288651930218E-1
 1.509704278443526E8     8.864450475073492E-1   -3.726917299301005E-1    7.208797973884197E-2    9.836106061970111E-2    7.359691424003705E-2    9.700172076689079E-2    8.899809752940845E-1   -3.654138592136098E-1
 1.521223114725131E8     8.850204618067601E-1   -3.755668299961433E-1    7.287100309108879E-2    9.913430194331364E-2    7.439410580584802E-2    9.776498649123895E-2    8.885474318477017E-1   -3.681752923277412E-1
 1.532829838145407E8     8.835508450652725E-1   -3.784710460103754E-1    7.366786889333754E-2    9.992162791672905E-2    7.520066437662785E-2    9.854954519645132E-2    8.871710002491130E-1   -3.709554805255875E-1
 1.544525119271165E8     8.820541495113808E-1   -3.814252486508091E-1    7.448311648029129E-2    1.007384115720064E-1    7.603760254148671E-2    9.934372236484285E-2    8.857973552319539E-1   -3.737887261607739E-1
 1.556309633785520E8     8.805377872812729E-1   -3.843860595789915E-1    7.531425364607436E-2    1.015500932020410E-1    7.690288978821005E-2    1.001340218569981E-1    8.843830181307887E-1   -3.766900306862579E-1
 1.568184062526983E8     8.790020279456916E-1   -3.873465366765175E-1    7.614093604107555E-2    1.023792642697318E-1    7.778078734604964E-2    1.009343601189951E-1    8.829453937594265E-1   -3.796069031557124E-1
 1.580149091528745E8     8.774406025409970E-1   -3.903475910364502E-1    7.698913970429938E-2    1.032470344702458E-1    7.868725675636987E-2    1.017568821742720E-1    8.814506075752149E-1   -3.825251433086911E-1
 1.592205412058353E8     8.758351218393881E-1   -3.933447514804079E-1    7.787623555197989E-2    1.041143242061622E-1    7.964602812908167E-2    1.025787629098475E-1    8.799467157931729E-1   -3.854416088761273E-1
 1.604353720657634E8     8.741970655918405E-1   -3.962714547529849E-1    7.878810353175142E-2    1.049792980598942E-1    8.063472561706708E-2    1.033963478132267E-1    8.783914602629924E-1   -3.884214427460755E-1
 1.616594719182909E8     8.725584376190189E-1   -3.992586658841842E-1    7.972931660962561E-2    1.058329159384882E-1    8.163507057743800E-2    1.042002973854887E-1    8.767900594857974E-1   -3.913944693926027E-1
 1.628929114845590E8     8.708929430694310E-1   -4.022280686429061E-1    8.068475218535019E-2    1.066742845019380E-1    8.265554317938392E-2    1.049963956748473E-1    8.751354534454223E-1   -3.944280037236333E-1
 1.641357620253014E8     8.692680487290689E-1   -4.050440474739624E-1    8.163282729350911E-2    1.075170962395334E-1    8.365538028706848E-2    1.058023677059363E-1    8.734598807867386E-1   -3.974482000926943E-1
 1.653880953449593E8     8.675495465632971E-1   -4.081020027514882E-1    8.262949421944298E-2    1.083394326079931E-1    8.466790542542683E-2    1.066136647918867E-1    8.717432330811098E-1   -4.004969722232892E-1
 1.666499837958347E8     8.658047743313281E-1   -4.112146729033949E-1    8.364623428739022E-2    1.091657806666786E-1    8.570178969895219E-2    1.074249572662096E-1    8.699781704255373E-1   -4.035745512037344E-1
 1.679215002822650E8     8.640301059077560E-1   -4.143539418973933E-1    8.467356388057112E-2    1.100025808438969E-1    8.673726337142339E-2    1.082548892990333E-1    8.681874072409506E-1   -4.066516988637031E-1
 1.692027182648404E8     8.621998359202204E-1   -4.175232098658060E-1    8.573335483775227E-2    1.108528316164509E-1    8.781208146239239E-2    1.090958723427655E-1    8.663687094773581E-1   -4.097623510450347E-1
 1.704937117646426E8     8.603019478344099E-1   -4.207111934458281E-1    8.681376019172331E-2    1.117110503552761E-1    8.891621649714020E-2    1.099335881470380E-1    8.645232129179133E-1   -4.128739960044795E-1
 1.717945553675260E8     8.583959847336192E-1   -4.238931711000123E-1    8.791517716165960E-2    1.125523574548531E-1    9.004983719281925E-2    1.107586765580471E-1    8.626343360821294E-1   -4.160081729267103E-1
 1.731053242284249E8     8.564665510288985E-1   -4.271328395672377E-1    8.901706890648169E-2    1.133877142991435E-1    9.117369500508125E-2    1.115786323687342E-1    8.606976413318744E-1   -4.191346446086044E-1
 1.744260940756933E8     8.544917558276428E-1   -4.303621070574536E-1    9.014257891484308E-2    1.142553622727981E-1    9.232508898359182E-2    1.124218475119018E-1    8.587223922122963E-1   -4.223160680060357E-1
 1.757569412154842E8     8.524767099218616E-1   -4.336542300487533E-1    9.126091012316327E-2    1.151041245013307E-1    9.346009776805730E-2    1.132478572799236E-1    8.566730190478956E-1   -4.254459910412853E-1
 1.770979425361561E8     8.503768475803188E-1   -4.369352545570513E-1    9.237323390063658E-2    1.160049238571954E-1    9.459868519060174E-2    1.141283576510010E-1    8.546673118971673E-1   -4.285727377188841E-1
 1.784491755127131E8     8.482042664458046E-1   -4.402217945935620E-1    9.354316818159483E-2    1.169451277119386E-1    9.579457833097402E-2    1.150460032014015E-1    8.526571363598063E-1   -4.317799477867700E-1
 1.798107182112848E8     8.459969655656018E-1   -4.434989112723245E-1    9.477158729015171E-2    1.178805259790679E-1    9.703868191227068E-2    1.159579914218382E-1    8.505650610749804E-1   -4.350152068586605E-1
 1.811826492936349E8     8.436881165260105E-1   -4.467631303373527E-1    9.601256421959400E-2    1.188074418422311E-1    9.829351341401124E-2    1.168679873268269E-1    8.483958978682130E-1   -4.382731215003619E-1
 1.825650480217040E8     8.413705263107185E-1   -4.500190189948552E-1    9.730691979647803E-2    1.197369617270702E-1    9.961312918671571E-2    1.177711695130748E-1    8.461799422307621E-1   -4.415915819123317E-1
 1.839579942621904E8     8.389868682178343E-1   -4.532749639526131E-1    9.863640478489231E-2    1.206638450849518E-1    1.009528488258129E-1    1.186713015519291E-1    8.438922485790025E-1   -4.448544271193007E-1
 1.853615684911660E8     8.366096619773776E-1   -4.565376063930640E-1    9.998812384453608E-2    1.215871387383692E-1    1.023194320904302E-1    1.195703240980024E-1    8.415947868910351E-1   -4.481215372234203E-1
 1.867758517987237E8     8.341435925075391E-1   -4.597981652214803E-1    1.013517378859947E-1    1.224918379998340E-1    1.036891948912459E-1    1.204533398828054E-1    8.392287192851033E-1   -4.514912945843302E-1
 1.882009258936609E8     8.316824496237938E-1   -4.630708120725165E-1    1.027419856684439E-1    1.234220164039357E-1    1.050959839212359E-1    1.213682574246355E-1    8.368140767048515E-1   -4.548262920832146E-1
 1.896368731082037E8     8.291489869728704E-1   -4.663396678598913E-1    1.041556847605586E-1    1.243384610105342E-1    1.065196199670995E-1    1.222666245010004E-1    8.343056522981237E-1   -4.581986138620093E-1
 1.910837764027621E8     8.265780387175694E-1   -4.697073365320302E-1    1.055901051798407E-1    1.252710969689717E-1    1.079531004043408E-1    1.231716141503700E-1    8.317624679390782E-1   -4.615097130032891E-1
 1.925417193707203E8     8.238744961918809E-1   -4.731076347666973E-1    1.070275106961247E-1    1.261887686267234E-1    1.094018276579148E-1    1.240722725571726E-1    8.291802139098340E-1   -4.648927257608360E-1
 1.940107862432706E8     8.210513555154739E-1   -4.764940461632046E-1    1.084390702537357E-1    1.271163365388293E-1    1.108180872076922E-1    1.249805783518079E-1    8.264949431080749E-1   -4.683183563008185E-1
 1.954910618942780E8     8.181051039999753E-1   -4.798530376182589E-1    1.098119087660344E-1    1.281436970198304E-1    1.121933853625797E-1    1.259905981085816E-1    8.237024650341209E-1   -4.716747620111805E-1
 1.969826318451810E8     8.150911961939580E-1   -4.831385400292518E-1    1.112996769881232E-1    1.293025986016128E-1    1.136797567559915E-1    1.271284572740882E-1    8.209613142259005E-1   -4.749683939780794E-1
 1.984855822699381E8     8.120114259641783E-1   -4.863468621077530E-1    1.128674558978016E-1    1.304552736717700E-1    1.152435310896816E-1    1.282663935532429E-1    8.181938383226536E-1   -4.783527314441051E-1
 2.000000000000000E8     8.088916924235507E-1   -4.894883398120592E-1    1.144738798711804E-1    1.316641954450632E-1    1.168444996745646E-1    1.294605432119402E-1    8.153014692680092E-1   -4.817508203025133E-1
