#  HZ   S   RI   R     50.00 
! Rohde & Schwarz Vector Network Analyzer 
! Rohde-Schwarz,ZNLE6-2Port,1323001256200024,1.71.1.10-23.02.1.238
! Created: UTC 4/11/2025, 6:34:39 AM
! freq[Hz]                re:S11                  im:S11                  re:S21                  im:S21                  re:S12                  im:S12                  re:S22                  im:S22
 1.000000000000000E5     9.012979171012085E-1    7.377411970432635E-2    9.985169133475900E-2   -7.427933496687933E-2    9.998242588956145E-2   -7.434859950360827E-2    9.010748489128939E-1    7.361831479856441E-2
 1.007629862646662E5     9.014987983787497E-1    7.347085922718326E-2    9.964704941789487E-2   -7.399740624617851E-2    9.977937802718011E-2   -7.406404228398021E-2    9.012663788155451E-1    7.334817723088476E-2
 1.015317940097331E5     9.016814171246068E-1    7.318743617116967E-2    9.943984469671645E-2   -7.371821515969812E-2    9.957504881653759E-2   -7.378588092277914E-2    9.014644121119210E-1    7.305710992881549E-2
 1.023064676522963E5     9.018561967796072E-1    7.290631403547182E-2    9.923614147028126E-2   -7.344173199756304E-2    9.936522273926389E-2   -7.350995062800871E-2    9.016814398963650E-1    7.277882037557590E-2
 1.030870519483485E5     9.020355703194196E-1    7.261088633677490E-2    9.903213271951507E-2   -7.316647804295454E-2    9.916413562363741E-2   -7.323719583162502E-2    9.018322590115513E-1    7.251005433164420E-2
 1.038735919953636E5     9.022189423582627E-1    7.232950547473044E-2    9.882301307670162E-2   -7.289448441316197E-2    9.896040835224867E-2   -7.296323797206278E-2    9.020577656351205E-1    7.223247169777910E-2
 1.046661332349037E5     9.023958731856911E-1    7.206346818680985E-2    9.861661025535175E-2   -7.262088984682767E-2    9.876202018814401E-2   -7.269613235877201E-2    9.022857594209067E-1    7.198856776293391E-2
 1.054647214552430E5     9.026507971458356E-1    7.179436369912194E-2    9.841985349280007E-2   -7.235504971127174E-2    9.855349679171813E-2   -7.242646896277108E-2    9.024581810148399E-1    7.171674622856314E-2
 1.062694027940149E5     9.028263392973925E-1    7.154369961969978E-2    9.821545365599907E-2   -7.208993573343801E-2    9.834960924715716E-2   -7.216021419231090E-2    9.026573416031800E-1    7.144474613130405E-2
 1.070802237408760E5     9.030215581286563E-1    7.127124012696104E-2    9.801540348295172E-2   -7.182881204668608E-2    9.814770153687929E-2   -7.190017904335159E-2    9.028639781682495E-1    7.118789474117446E-2
 1.078972311401927E5     9.031962253939899E-1    7.100343772058162E-2    9.780566724692050E-2   -7.156278965046925E-2    9.794312718415676E-2   -7.163943045905417E-2    9.030768061821307E-1    7.093944243273845E-2
 1.087204721937475E5     9.034439677981829E-1    7.073693653047569E-2    9.760513064531563E-2   -7.131163656175550E-2    9.773786972995978E-2   -7.137851428415390E-2    9.032806930493669E-1    7.066532838370215E-2
 1.095499944634658E5     9.036269857477686E-1    7.048584339093378E-2    9.740384895890231E-2   -7.105084474454100E-2    9.753734941560210E-2   -7.111915182836623E-2    9.034678693247117E-1    7.042922739764833E-2
 1.103858458741646E5     9.038279973966132E-1    7.023181198559299E-2    9.719627924732838E-2   -7.079215701779197E-2    9.733580747144377E-2   -7.086869410190549E-2    9.036737822815309E-1    7.015583124078936E-2
 1.112280747163201E5     9.039979675979508E-1    6.997012194874583E-2    9.699217612717506E-2   -7.053516848318976E-2    9.713161514298209E-2   -7.061408823597237E-2    9.038787897639761E-1    6.992451882070103E-2
 1.120767296488583E5     9.041987805152194E-1    6.971057082998214E-2    9.678840823962298E-2   -7.028231975854939E-2    9.692488783280467E-2   -7.036117676404560E-2    9.040508057694068E-1    6.964630232469983E-2
 1.129318597019661E5     9.044126746482464E-1    6.944448465216967E-2    9.658929536462914E-2   -7.003527361016358E-2    9.672084769968753E-2   -7.010716120359332E-2    9.042567537706141E-1    6.939242412633959E-2
 1.137935142799240E5     9.045894713012805E-1    6.920927140619219E-2    9.638394530677044E-2   -6.978559922164358E-2    9.651188743568932E-2   -6.985702854230880E-2    9.044631856545559E-1    6.914380623289132E-2
 1.146617431639607E5     9.047956473400596E-1    6.896728875162465E-2    9.618029136684940E-2   -6.953806392512216E-2    9.630725733211928E-2   -6.961052269981716E-2    9.046727160799259E-1    6.891080498729021E-2
 1.155365965151286E5     9.050187726354822E-1    6.871652546881928E-2    9.597958967375017E-2   -6.929866855627077E-2    9.610701589766647E-2   -6.936446751095146E-2    9.048553534535438E-1    6.865610085483193E-2
 1.164181248772018E5     9.051976266890193E-1    6.847659429505082E-2    9.577699781700429E-2   -6.905316610442379E-2    9.589939614770826E-2   -6.911920822502039E-2    9.050363586142793E-1    6.842289841366885E-2
 1.173063791795965E5     9.054133781876066E-1    6.821920126648033E-2    9.556853398227708E-2   -6.881438517602648E-2    9.569168546470286E-2   -6.887892041480111E-2    9.052522507441458E-1    6.817835085857017E-2
 1.182014107403141E5     9.056376994246182E-1    6.798924995016209E-2    9.536859927419142E-2   -6.857532895555386E-2    9.548926561539020E-2   -6.863841347441114E-2    9.054468469292588E-1    6.794511276548040E-2
 1.191032712689044E5     9.058205231765704E-1    6.775742339142329E-2    9.515838477991109E-2   -6.833160798536358E-2    9.528153921168943E-2   -6.839783750507415E-2    9.056327351939276E-1    6.767464076221796E-2
 1.200120128694542E5     9.060122379754598E-1    6.750327620482660E-2    9.495546075377864E-2   -6.809779177118568E-2    9.507411510402031E-2   -6.816044857178842E-2    9.058407692220467E-1    6.746994493050208E-2
 1.209276880435975E5     9.062127561106507E-1    6.728848830307436E-2    9.475140101196484E-2   -6.785820882325189E-2    9.487324998569854E-2   -6.792379854597093E-2    9.060635006591420E-1    6.722263999947721E-2
 1.218503496935483E5     9.064089969058308E-1    6.705413087454766E-2    9.454691321530284E-2   -6.762383892690367E-2    9.466557428728245E-2   -6.768992500636993E-2    9.062529952990844E-1    6.699525617987288E-2
 1.227800511251578E5     9.066309940541449E-1    6.681362289564602E-2    9.434433313211132E-2   -6.739407807220923E-2    9.446234390924853E-2   -6.745934798494538E-2    9.064748518797766E-1    6.676268813522973E-2
 1.237168460509929E5     9.068152317024845E-1    6.658288043710903E-2    9.413845941562840E-2   -6.716109927062237E-2    9.425583647186250E-2   -6.722381600289437E-2    9.066625906322375E-1    6.653328345418905E-2
 1.246607885934402E5     9.070273574526420E-1    6.636663727104876E-2    9.392805128041398E-2   -6.693108202489927E-2    9.404663881517074E-2   -6.699885347237018E-2    9.068790862231397E-1    6.629223320687362E-2
 1.256119332878327E5     9.072260899456924E-1    6.612970946406568E-2    9.372218338874126E-2   -6.670393282631931E-2    9.384571654300555E-2   -6.676923124280741E-2    9.070870994992195E-1    6.607638701953235E-2
 1.265703350856002E5     9.074079621288202E-1    6.589037678639129E-2    9.351472014830764E-2   -6.648050250482555E-2    9.363896987529127E-2   -6.654627028323833E-2    9.073035519776389E-1    6.584267011238799E-2
 1.275360493574453E5     9.076243386651249E-1    6.567590135836172E-2    9.330961871188440E-2   -6.625009253947987E-2    9.342952433581726E-2   -6.631591371670874E-2    9.075009164588862E-1    6.561725912140220E-2
 1.285091318965405E5     9.078276986806713E-1    6.542197055881900E-2    9.309878293615655E-2   -6.601941216972777E-2    9.322707109368852E-2   -6.609354315396748E-2    9.077123126505970E-1    6.538941144548464E-2
 1.294896389217529E5     9.080148155707863E-1    6.519318773950143E-2    9.288718301561148E-2   -6.578622813046703E-2    9.301558726891247E-2   -6.587249519591662E-2    9.078967686156397E-1    6.517278631644406E-2
 1.304776270808914E5     9.082626431689617E-1    6.495963441278728E-2    9.263919752181257E-2   -6.554884701718111E-2    9.281163452293825E-2   -6.565130675113573E-2    9.081442267202886E-1    6.496598997532883E-2
 1.314731534539810E5     9.084847467152014E-1    6.474687076276882E-2    9.243548632863552E-2   -6.531757030730366E-2    9.260693979382242E-2   -6.542970833958532E-2    9.083281164879496E-1    6.474708720769208E-2
 1.324762755565583E5     9.086571286738666E-1    6.452747090385874E-2    9.223471288450179E-2   -6.510125417188652E-2    9.239742644797042E-2   -6.521383746938557E-2    9.085302709762012E-1    6.452155624043032E-2
 1.334870513429962E5     9.088598117168240E-1    6.432916629088160E-2    9.206404304987745E-2   -6.492270377539006E-2    9.219710554467767E-2   -6.499718138424236E-2    9.087548198615675E-1    6.430599501005495E-2
 1.345055392098512E5     9.090384016207330E-1    6.412776073324891E-2    9.186042644423484E-2   -6.470809061611554E-2    9.198163793657042E-2   -6.477819251116304E-2    9.089077268873567E-1    6.408728811265015E-2
 1.355317979992373E5     9.092711510397978E-1    6.391381554544598E-2    9.165674196336822E-2   -6.449458016641381E-2    9.177724236549364E-2   -6.456451127017675E-2    9.091286590895435E-1    6.387603892110369E-2
 1.365658870022265E5     9.094541346094015E-1    6.369966756179052E-2    9.145148046634119E-2   -6.429004408053687E-2    9.157075337428462E-2   -6.434700966839667E-2    9.093393851581714E-1    6.367117931669976E-2
 1.376078659622731E5     9.096464068848169E-1    6.349340398891902E-2    9.124564370469739E-2   -6.407778976060811E-2    9.136100038536855E-2   -6.413684490879913E-2    9.095442505929348E-1    6.344551548421892E-2
 1.386577950786655E5     9.098437415856384E-1    6.327514146015566E-2    9.104632891400151E-2   -6.386868279301028E-2    9.115206875765068E-2   -6.392364548943831E-2    9.097364224814561E-1    6.324221402638863E-2
 1.397157350100044E5     9.100509989451135E-1    6.306412791121661E-2    9.083392918769938E-2   -6.365340190939141E-2    9.094017510044931E-2   -6.371747941649418E-2    9.099155918608687E-1    6.301827338683454E-2
 1.407817468777081E5     9.102385511804548E-1    6.282874285558772E-2    9.062452167107078E-2   -6.345151292240529E-2    9.073407742842342E-2   -6.350804445295448E-2    9.101153795751533E-1    6.280495087797502E-2
 1.418558922695422E5     9.104482791750939E-1    6.263727763987673E-2    9.041668545551705E-2   -6.324055294231917E-2    9.052303920442750E-2   -6.329877270850189E-2    9.103550135242254E-1    6.259496155949347E-2
 1.429382332431784E5     9.106461322408627E-1    6.242539357580739E-2    9.021002977765702E-2   -6.303370250443244E-2    9.031535209286516E-2   -6.309149181277857E-2    9.105297344667639E-1    6.241844843476247E-2
 1.440288323297804E5     9.108745524699446E-1    6.222201984095665E-2    8.999693608235243E-2   -6.282738893702658E-2    9.010972256692816E-2   -6.288616523273226E-2    9.107531848676980E-1    6.220007785023337E-2
 1.451277525376154E5     9.110568182802412E-1    6.201737919709990E-2    8.979536315845210E-2   -6.262439270848938E-2    8.989809800473150E-2   -6.268657524592411E-2    9.109482320915159E-1    6.198800056240376E-2
 1.462350573556962E5     9.112527403488738E-1    6.182710278114534E-2    8.958708569578330E-2   -6.241924162058989E-2    8.969904841533290E-2   -6.248409893793366E-2    9.111789806228587E-1    6.179107372669795E-2
 1.473508107574468E5     9.114430631252192E-1    6.161686971578267E-2    8.937897110242159E-2   -6.222102353998153E-2    8.948308621149127E-2   -6.228008161882670E-2    9.113178057101957E-1    6.157457346319416E-2
 1.484750772044004E5     9.116537546481939E-1    6.140460789040881E-2    8.916819544379895E-2   -6.201984026228873E-2    8.927885456813005E-2   -6.208159652438629E-2    9.115358903826597E-1    6.138165929862027E-2
 1.496079216499225E5     9.118903241849118E-1    6.120903374636184E-2    8.896710819419860E-2   -6.181886778718264E-2    8.906993090136069E-2   -6.188109633951525E-2    9.117578852686414E-1    6.118147946218445E-2
 1.507494095429637E5     9.120580737812040E-1    6.100041350894268E-2    8.875428834801984E-2   -6.162032095647486E-2    8.886067840150569E-2   -6.167589184849014E-2    9.119860551051070E-1    6.099631443201992E-2
 1.518996068318418E5     9.122534770164228E-1    6.080718516802974E-2    8.854808970033919E-2   -6.142429909690982E-2    8.864957767875080E-2   -6.147881374017278E-2    9.122210269299548E-1    6.078931595223580E-2
 1.530585799680507E5     9.124445688129457E-1    6.060186791633918E-2    8.833857902382722E-2   -6.121972427790459E-2    8.844383183929783E-2   -6.128391071554389E-2    9.123814379807066E-1    6.059229334660253E-2
 1.542263959101001E5     9.126657415849492E-1    6.040595283294151E-2    8.812975534304654E-2   -6.103077943870343E-2    8.823255007196074E-2   -6.108594244961947E-2    9.125807028699090E-1    6.039488771298687E-2
 1.554031221273835E5     9.128797654572984E-1    6.020116573438892E-2    8.790438147445910E-2   -6.082496445488227E-2    8.802348108937894E-2   -6.089068754603799E-2    9.127963085649463E-1    6.019903313124305E-2
 1.565888266040779E5     9.132602365131365E-1    6.009700749615788E-2    8.752827821019073E-2   -6.071673862767485E-2    8.781627993176977E-2   -6.069799355532434E-2    9.129862497443346E-1    6.001275321211703E-2
 1.577835778430689E5     9.134586871316884E-1    5.990225938652426E-2    8.732124503548411E-2   -6.051922555269706E-2    8.760534490410479E-2   -6.050505837302469E-2    9.131741431275282E-1    5.981419660955464E-2
 1.589874448699104E5     9.136637636952110E-1    5.970785241512884E-2    8.711133455466710E-2   -6.033134325921860E-2    8.739646395266219E-2   -6.031080157206690E-2    9.134343509562373E-1    5.961781556600112E-2
 1.602004972368116E5     9.139047044145896E-1    5.952216544955678E-2    8.690510672542066E-2   -6.013604884979454E-2    8.718996102013198E-2   -6.011949291541550E-2    9.136161086921500E-1    5.942890403039396E-2
 1.614228050266550E5     9.141046827753226E-1    5.929447276453318E-2    8.670369353954199E-2   -5.990679667525519E-2    8.698467050920387E-2   -5.993150017886409E-2    9.138393622028561E-1    5.923820139753425E-2
 1.626544388570473E5     9.142599734541594E-1    5.902939041788530E-2    8.653006475279602E-2   -5.963690409697861E-2    8.677287958048255E-2   -5.974294144889401E-2    9.140444633815458E-1    5.902638950086388E-2
 1.638954698843964E5     9.144115369779577E-1    5.880240480418916E-2    8.634599946336989E-2   -5.943674534134458E-2    8.656079073532189E-2   -5.955246848533323E-2    9.142283139719516E-1    5.886462838034667E-2
 1.651459698080244E5     9.146824502626462E-1    5.866694151062334E-2    8.606840337670475E-2   -5.929882400250661E-2    8.635204588863964E-2   -5.936492257936924E-2    9.144517817010351E-1    5.865298216652359E-2
 1.664060108743095E5     9.148241579061805E-1    5.841652881609788E-2    8.593735200628809E-2   -5.906177626420549E-2    8.614167733268920E-2   -5.917506482823597E-2    9.146283197935544E-1    5.847420606201063E-2
 1.676756658808590E5     9.149509858732490E-1    5.827539388265181E-2    8.582022959715925E-2   -5.891479413515473E-2    8.593025213010229E-2   -5.898757783618695E-2    9.148826024659611E-1    5.829542538599509E-2
 1.689550081807175E5     9.151712882262437E-1    5.811114882682104E-2    8.562099221656938E-2   -5.874009267778030E-2    8.572253242583036E-2   -5.880593993356421E-2    9.150781314924524E-1    5.811547797867821E-2
 1.702441116866020E5     9.153623681011682E-1    5.792773643257447E-2    8.541161073683959E-2   -5.855941397306744E-2    8.551200766818863E-2   -5.861674630692731E-2    9.152725675178971E-1    5.792743424801721E-2
 1.715430508751738E5     9.155759380003947E-1    5.776297418274371E-2    8.520457048620216E-2   -5.837384655954386E-2    8.530507064068787E-2   -5.843554471454329E-2    9.154903559334460E-1    5.772853274575615E-2
 1.728519007913403E5     9.158161399532397E-1    5.755848721594975E-2    8.499827072799697E-2   -5.819422678587013E-2    8.509884313625543E-2   -5.825022892831215E-2    9.157171034190565E-1    5.756052361147392E-2
 1.741707370525927E5     9.160115086637335E-1    5.737775057512918E-2    8.478699224570937E-2   -5.800267619067364E-2    8.488977481714625E-2   -5.806892603486099E-2    9.159020605893464E-1    5.737680025900220E-2
 1.754996358533718E5     9.163594556843415E-1    5.725705485704258E-2    8.446208786952415E-2   -5.786284487587532E-2    8.467915659776076E-2   -5.788621738725537E-2    9.161217892086723E-1    5.717994476418010E-2
 1.768386739694722E5     9.166150306422701E-1    5.707159902774603E-2    8.421564046094918E-2   -5.768342857038553E-2    8.446530168302578E-2   -5.770188485632560E-2    9.163283738298302E-1    5.701535286128008E-2
 1.781879287624771E5     9.166519217469637E-1    5.683501385777317E-2    8.415883198006936E-2   -5.746817900480452E-2    8.426401647909076E-2   -5.752297352571542E-2    9.165801361349035E-1    5.683156101253267E-2
 1.795474781842276E5     9.168539620596700E-1    5.666113229276616E-2    8.395133180926963E-2   -5.728569243687075E-2    8.404952015382855E-2   -5.734074542548521E-2    9.167620100289212E-1    5.665677716638583E-2
 1.809174007813277E5     9.170573544852128E-1    5.647065185241341E-2    8.374416253738413E-2   -5.710344951464709E-2    8.384081535402120E-2   -5.716125578982327E-2    9.169441221042074E-1    5.646974660329970E-2
 1.822977756996804E5     9.172579319236887E-1    5.627768076705481E-2    8.353762033432623E-2   -5.692944884246686E-2    8.363117771585213E-2   -5.698088133475938E-2    9.171234687941134E-1    5.628632455131667E-2
 1.836886826890609E5     9.174631163150060E-1    5.611844847527632E-2    8.332234532622358E-2   -5.674786451167318E-2    8.342146180966345E-2   -5.680366765947129E-2    9.173510579175684E-1    5.609757676407571E-2
 1.850902021077247E5     9.176692533138849E-1    5.593203065455543E-2    8.311801903616924E-2   -5.657152708117500E-2    8.321369211643391E-2   -5.663105922456945E-2    9.175537900021129E-1    5.591628490615086E-2
 1.865024149270491E5     9.178648042941691E-1    5.574956366204392E-2    8.291533421337892E-2   -5.639716812385791E-2    8.300833782536274E-2   -5.644884744334558E-2    9.178089003808935E-1    5.575024450516451E-2
 1.879254027362132E5     9.180766154574550E-1    5.558040046937601E-2    8.270267779599033E-2   -5.621797647666383E-2    8.279616623692847E-2   -5.627446495879983E-2    9.180316232987772E-1    5.556558710089324E-2
 1.893592477469092E5     9.182778839750484E-1    5.539936036178098E-2    8.248453856284513E-2   -5.602207116530328E-2    8.258474734726623E-2   -5.610848278522291E-2    9.182029328542769E-1    5.539254229015469E-2
 1.908040327980933E5     9.185111047858635E-1    5.523049659618788E-2    8.228352379341461E-2   -5.586388861567460E-2    8.238405744783421E-2   -5.592163188667243E-2    9.184169937739397E-1    5.521895680403411E-2
 1.922598413607715E5     9.187179595745403E-1    5.503734033499415E-2    8.208016556037423E-2   -5.569265994856780E-2    8.217565297305318E-2   -5.574763087688304E-2    9.186067269347744E-1    5.503747012166253E-2
 1.937267575428232E5     9.188758644708556E-1    5.485740263964226E-2    8.186559981853567E-2   -5.551352751866517E-2    8.196290169673660E-2   -5.557018885918788E-2    9.188013861118729E-1    5.486507402172147E-2
 1.952048660938581E5     9.191926945888076E-1    5.471697646987411E-2    8.156219962338424E-2   -5.536882116583901E-2    8.175541346999546E-2   -5.539610334611375E-2    9.190072949199963E-1    5.469279089129836E-2
 1.966942524101142E5     9.195202169999215E-1    5.458645517882200E-2    8.126438365261376E-2   -5.524838085484569E-2    8.154700287800447E-2   -5.522401078033991E-2    9.192253302834547E-1    5.451966789001633E-2
 1.981950025393913E5     9.197029269973510E-1    5.433965801896954E-2    8.106477933631455E-2   -5.499860083637335E-2    8.133423516344976E-2   -5.504810198122997E-2    9.194211810371494E-1    5.433401654293052E-2
 1.997072031860212E5     9.198672893528606E-1    5.411562580205847E-2    8.090032372205624E-2   -5.477205564162323E-2    8.112945062711874E-2   -5.487847129429266E-2    9.196653338373588E-1    5.417232024356427E-2
 2.012309417158795E5     9.199921703180706E-1    5.391793537187613E-2    8.073671251087075E-2   -5.458867906842581E-2    8.092279266552418E-2   -5.470317250880437E-2    9.198562731832096E-1    5.398560826023419E-2
 2.027663061614301E5     9.202637455915296E-1    5.376991053042027E-2    8.048441605907478E-2   -5.443158858810564E-2    8.071591203193186E-2   -5.453583136491090E-2    9.200726952012331E-1    5.382226468875936E-2
 2.043133852268128E5     9.204743202637676E-1    5.363191539126565E-2    8.028188884123721E-2   -5.429321710614793E-2    8.050763147183193E-2   -5.436373461026127E-2    9.202466780904995E-1    5.363227732936614E-2
 2.058722682929675E5     9.207307987863075E-1    5.356193848138991E-2    8.002438883718040E-2   -5.420535101616651E-2    8.029307864071332E-2   -5.418981013122911E-2    9.204449878150699E-1    5.346781350318883E-2
 2.074430454227995E5     9.207700125424338E-1    5.330963843809354E-2    7.999981505383298E-2   -5.396568670372209E-2    8.008700123081169E-2   -5.401884226046276E-2    9.206307124872704E-1    5.328109733129633E-2
 2.090258073663807E5     9.209349211779840E-1    5.313578241017948E-2    7.978954771480083E-2   -5.379659518817741E-2    7.988005334619935E-2   -5.385298873730912E-2    9.208806948654837E-1    5.310702183057824E-2
 2.106206455661938E5     9.211285058938912E-1    5.296195829927774E-2    7.958186345424501E-2   -5.362676664100142E-2    7.966974531986147E-2   -5.368096497916713E-2    9.210782356313374E-1    5.293571184010275E-2
 2.122276521624151E5     9.213181218914034E-1    5.277846650928525E-2    7.937372537295903E-2   -5.345819967491980E-2    7.946447729214175E-2   -5.351129920092150E-2    9.212580177213756E-1    5.277060012885405E-2
 2.138469199982374E5     9.217031294037380E-1    5.264768652520384E-2    7.898614222784384E-2   -5.332763463221710E-2    7.925550212966065E-2   -5.333847123231060E-2    9.214563567340054E-1    5.259959736749378E-2
 2.154785426252357E5     9.218976373090111E-1    5.248533643815970E-2    7.883885335756899E-2   -5.315482531031390E-2    7.905078602976880E-2   -5.316728139368011E-2    9.216704147376849E-1    5.243235408324874E-2
 2.171226143087691E5     9.219488794897100E-1    5.227083090173799E-2    7.875776860558714E-2   -5.295362375006992E-2    7.884149238833023E-2   -5.300230095365623E-2    9.218692693590813E-1    5.225896873871160E-2
 2.187792300334291E5     9.221753930960326E-1    5.211198284190867E-2    7.855350191059042E-2   -5.278921665621431E-2    7.864036178120201E-2   -5.283733534092415E-2    9.220624709141969E-1    5.209080926100738E-2
 2.204484855085266E5     9.223632165498489E-1    5.192819009815955E-2    7.834468428139456E-2   -5.262044629226863E-2    7.843422014976693E-2   -5.267317821833730E-2    9.222832352492835E-1    5.190818741866073E-2
 2.221304771736209E5     9.225942055383294E-1    5.176846833250479E-2    7.813457340452691E-2   -5.245354480154143E-2    7.823323844074435E-2   -5.250159874549855E-2    9.224826981865804E-1    5.174017282463025E-2
 2.238253022040931E5     9.227867598787783E-1    5.161406136960314E-2    7.793137893707947E-2   -5.228621698748043E-2    7.803200804871015E-2   -5.233479148034684E-2    9.227241316140863E-1    5.159016731000381E-2
 2.255330585167579E5     9.229949550741953E-1    5.144265468174961E-2    7.772905322329415E-2   -5.212266847109562E-2    7.782202316504051E-2   -5.217039793325402E-2    9.228813152757515E-1    5.140296217126816E-2
 2.272538447755223E5     9.232187694610883E-1    5.127707119082503E-2    7.752377112021344E-2   -5.195501618784722E-2    7.761434083332655E-2   -5.200031023287038E-2    9.231172623094677E-1    5.123474506507335E-2
 2.289877603970853E5     9.234291983327902E-1    5.110890973211441E-2    7.731587867036105E-2   -5.178602793840423E-2    7.741031037833511E-2   -5.183296612937140E-2    9.232951209234452E-1    5.108738105663242E-2
 2.307349055566813E5     9.236042736653367E-1    5.093723427227148E-2    7.711245809222056E-2   -5.162452511129655E-2    7.720423033563384E-2   -5.166611895840936E-2    9.234654116369770E-1    5.089135934765261E-2
 2.324953811938693E5     9.238176593832795E-1    5.077943253719733E-2    7.691063895226533E-2   -5.145242731299525E-2    7.700086069023196E-2   -5.150258440398938E-2    9.237106899587576E-1    5.073022213207025E-2
 2.342692890183618E5     9.239925921714204E-1    5.060318307655699E-2    7.670134532049563E-2   -5.128817142808486E-2    7.679582579999543E-2   -5.133595588805537E-2    9.238683278501653E-1    5.057000632472354E-2
 2.360567315159030E5     9.242122841839547E-1    5.042986830108689E-2    7.649630855446600E-2   -5.112214236786920E-2    7.659007006240945E-2   -5.116552303359091E-2    9.240702218880515E-1    5.040691507099581E-2
 2.378578119541888E5     9.244298793613522E-1    5.027153000952538E-2    7.629292756375582E-2   -5.095646202465801E-2    7.638734522284753E-2   -5.100745947997727E-2    9.242772554020335E-1    5.022227157018341E-2
 2.396726343888348E5     9.246390578303840E-1    5.009012174364546E-2    7.608806113982325E-2   -5.078572431204289E-2    7.618933803799122E-2   -5.084272511951726E-2    9.244748322463487E-1    5.007134356689045E-2
 2.415013036693852E5     9.248291130426320E-1    4.992020528104518E-2    7.588199413624303E-2   -5.061686830911745E-2    7.599072777579538E-2   -5.067769735245083E-2    9.246751972000076E-1    4.991338972080200E-2
 2.433439254453724E5     9.251096995879066E-1    4.977622173546615E-2    7.559892973556066E-2   -5.047015046001177E-2    7.578366687910126E-2   -5.051252864730083E-2    9.248928789388547E-1    4.974558222274125E-2
 2.452006061724201E5     9.254119290877990E-1    4.962984370579578E-2    7.528953077750682E-2   -5.033971623370032E-2    7.558661255923005E-2   -5.034880062277999E-2    9.251111804199581E-1    4.958992426656171E-2
 2.470714531183934E5     9.255818634743503E-1    4.943938020904959E-2    7.510630358651790E-2   -5.014296959487206E-2    7.538240873623796E-2   -5.018579418744057E-2    9.253015333853573E-1    4.942439646143524E-2
 2.489565743695979E5     9.257380317246038E-1    4.920926552253865E-2    7.494758455061601E-2   -4.991103011600689E-2    7.517620108911549E-2   -5.002185161389969E-2    9.254923241765782E-1    4.925244774894317E-2
 2.508560788370214E5     9.259404613159044E-1    4.904315748635608E-2    7.474354335796435E-2   -4.976980325946773E-2    7.497738865669658E-2   -4.985820751141580E-2    9.256936372315683E-1    4.909686764963128E-2
 2.527700762626280E5     9.260958314598692E-1    4.886557291956536E-2    7.457185827855638E-2   -4.958293475632384E-2    7.477936584587017E-2   -4.969615744832404E-2    9.258998304196935E-1    4.893533265515996E-2
 2.546986772256976E5     9.262246994949950E-1    4.871400976972465E-2    7.445098498392423E-2   -4.943712131465837E-2    7.457452279725069E-2   -4.953234637748569E-2    9.260955923144766E-1    4.875566764797936E-2
 2.566419931492161E5     9.263730048038151E-1    4.857906679959335E-2    7.428628411158615E-2   -4.930771161933695E-2    7.437897401193462E-2   -4.937111031464723E-2    9.262849378830748E-1    4.860536599889124E-2
 2.586001363063102E5     9.265440762014810E-1    4.841059877008776E-2    7.408770671538628E-2   -4.914661975757630E-2    7.418131358450872E-2   -4.920635503078426E-2    9.264622189147212E-1    4.844426350476869E-2
 2.605732198267354E5     9.267311932322623E-1    4.825826660654159E-2    7.389222167265326E-2   -4.898938779645838E-2    7.398123816691220E-2   -4.904341846957849E-2    9.266890068414697E-1    4.827488262971475E-2
 2.625613577034118E5     9.269474816107084E-1    4.810038973994577E-2    7.369968192923596E-2   -4.882660388867465E-2    7.378457684130649E-2   -4.888068436094246E-2    9.268675842979219E-1    4.810280639746039E-2
 2.645646647990093E5     9.271366979833709E-1    4.792978652235655E-2    7.349994232600474E-2   -4.866589418245901E-2    7.358766472801401E-2   -4.871893303617335E-2    9.270753433516264E-1    4.795110791347632E-2
 2.665832568525859E5     9.273038071597961E-1    4.777550339310976E-2    7.330685573719246E-2   -4.850248771556208E-2    7.339367560807349E-2   -4.855925501114292E-2    9.272639673661653E-1    4.777233074204404E-2
 2.686172504862709E5     9.274921778258539E-1    4.760817184019002E-2    7.310881780996804E-2   -4.833781866261328E-2    7.319004931872994E-2   -4.839502565838009E-2    9.274434026073789E-1    4.762149748440447E-2
 2.706667632120051E5     9.276854029220141E-1    4.745274219468357E-2    7.291607714170023E-2   -4.817606610907860E-2    7.299740175479213E-2   -4.823175685428191E-2    9.276598437760469E-1    4.745607440480011E-2
 2.727319134383292E5     9.278754677852746E-1    4.728560953471036E-2    7.272176342196172E-2   -4.801421680481600E-2    7.280741067342571E-2   -4.807103829827120E-2    9.278560907543228E-1    4.730365097567578E-2
 2.748128204772244E5     9.280714499747446E-1    4.712840792665733E-2    7.252915639232692E-2   -4.785290439128473E-2    7.260884305221174E-2   -4.791057627066750E-2    9.280283965707742E-1    4.713284004265270E-2
 2.769096045510074E5     9.282702737947158E-1    4.696961455752000E-2    7.233851644210657E-2   -4.769468393197455E-2    7.241238803567952E-2   -4.774847058961023E-2    9.282061051235031E-1    4.696210384766582E-2
 2.790223867992730E5     9.284690886974999E-1    4.680172519280890E-2    7.214749468980414E-2   -4.753311529583303E-2    7.222635496932274E-2   -4.759120139387073E-2    9.284079505754887E-1    4.680109110544066E-2
 2.811512892858952E5     9.286811627108021E-1    4.664202074519413E-2    7.195485202597669E-2   -4.737600545571450E-2    7.202710909950832E-2   -4.742747429858539E-2    9.285954948766726E-1    4.664085012921215E-2
 2.832964350060779E5     9.288635893683800E-1    4.647594339194459E-2    7.176134118600672E-2   -4.721119702825288E-2    7.183626586742532E-2   -4.726751438877604E-2    9.287711556261098E-1    4.647849329558682E-2
 2.854579478934632E5     9.290135973725634E-1    4.631040927152395E-2    7.156795353957668E-2   -4.705239741490634E-2    7.164997285572400E-2   -4.710753969724885E-2    9.289780425714597E-1    4.631658234463525E-2
 2.876359528272883E5     9.292136787710378E-1    4.614671482774253E-2    7.138023420966595E-2   -4.689271430487487E-2    7.145626750361145E-2   -4.694657369878352E-2    9.291439143930588E-1    4.614763931795845E-2
 2.898305756396023E5     9.294004851637627E-1    4.598395267248424E-2    7.119535392520214E-2   -4.673558054655148E-2    7.126774101591020E-2   -4.678706372582005E-2    9.293502348318624E-1    4.598785722847967E-2
 2.920419431225354E5     9.295980290081914E-1    4.583213810613727E-2    7.100797186884976E-2   -4.657211061331658E-2    7.107714910663471E-2   -4.662714986208891E-2    9.295223224432230E-1    4.582545577009015E-2
 2.942701830356239E5     9.297805449805121E-1    4.567242067030843E-2    7.082278075710272E-2   -4.641177553747222E-2    7.089494249595907E-2   -4.646956463546247E-2    9.297289282921938E-1    4.566351627224541E-2
 2.965154241131938E5     9.299839907959805E-1    4.550292133815929E-2    7.063245896217828E-2   -4.625110285940078E-2    7.070767573222449E-2   -4.631520886907403E-2    9.299423671884269E-1    4.552309163016220E-2
 2.987777960717941E5     9.301521587593667E-1    4.534012501428481E-2    7.045020496578487E-2   -4.609232201254035E-2    7.051740566654822E-2   -4.615020210275853E-2    9.301176310628869E-1    4.534072832318482E-2
 3.010574296176943E5     9.303743177049750E-1    4.516564780516148E-2    7.024739506038108E-2   -4.591592871092944E-2    7.033478956773485E-2   -4.599659906249899E-2    9.302969652633659E-1    4.518026074312537E-2
 3.033544564544337E5     9.305745721721854E-1    4.499088379209892E-2    7.003085065065733E-2   -4.573813200670331E-2    7.015165897199939E-2   -4.584188477134215E-2    9.304659968960095E-1    4.502111965881224E-2
 3.056690092904338E5     9.307550850596756E-1    4.484125627108516E-2    6.987163949956417E-2   -4.559107321115414E-2    6.997091964838043E-2   -4.568548709240795E-2    9.306671147735581E-1    4.488177802671367E-2
 3.080012218466610E5     9.309771108201660E-1    4.467612761170268E-2    6.967860460977578E-2   -4.542771722158318E-2    6.978963858447911E-2   -4.552828064864912E-2    9.308539821022345E-1    4.472088848082125E-2
 3.103512288643551E5     9.310571607134187E-1    4.455376832771912E-2    6.953534119461344E-2   -4.530802211676924E-2    6.960322068716497E-2   -4.536616675793655E-2    9.310036760180938E-1    4.455298650902882E-2
 3.127191661128128E5     9.312412397375658E-1    4.440918430361700E-2    6.935575093732990E-2   -4.516017283303728E-2    6.942181377778546E-2   -4.521444925487637E-2    9.311999221619703E-1    4.438936502085037E-2
 3.151051703972316E5     9.314141247685571E-1    4.426096651597052E-2    6.918125659978497E-2   -4.500793392948423E-2    6.923992683886447E-2   -4.505677285775480E-2    9.313435282300306E-1    4.423792188631364E-2
 3.175093795666154E5     9.315723894325156E-1    4.408238794582343E-2    6.899906250916814E-2   -4.485380572678827E-2    6.906027646859021E-2   -4.490587791210155E-2    9.315456434306418E-1    4.408935454987347E-2
 3.199319325217355E5     9.317362251822681E-1    4.392439843528360E-2    6.882544867324973E-2   -4.469984337201630E-2    6.887705789611923E-2   -4.475022483614507E-2    9.317120405594408E-1    4.391945939978941E-2
 3.223729692231574E5     9.319101397727487E-1    4.375992422977162E-2    6.864212640659828E-2   -4.454616673229776E-2    6.870069231446839E-2   -4.459516185631923E-2    9.318926960628556E-1    4.375549228797623E-2
 3.248326306993267E5     9.321166520562378E-1    4.359838658770503E-2    6.846716046108721E-2   -4.439161249720439E-2    6.852040076094403E-2   -4.444009020033965E-2    9.320798767120576E-1    4.362252963039685E-2
 3.273110590547157E5     9.322596835058937E-1    4.344818269341000E-2    6.828904558590394E-2   -4.424101845228050E-2    6.834930488424469E-2   -4.428674002131514E-2    9.322614341622529E-1    4.345324022996058E-2
 3.298083974780366E5     9.324863003955346E-1    4.329694610071178E-2    6.811631766544160E-2   -4.408571696567938E-2    6.817180197564709E-2   -4.413538552705634E-2    9.324188887248653E-1    4.329382419967302E-2
 3.323247902505097E5     9.326696923360639E-1    4.314189918522741E-2    6.794255981327960E-2   -4.393604022909318E-2    6.799934590613933E-2   -4.398135332391002E-2    9.326169448641114E-1    4.314702528496099E-2
 3.348603827542018E5     9.328145842244218E-1    4.299214906531414E-2    6.776562821724737E-2   -4.378625523466328E-2    6.782637191215843E-2   -4.383429552598803E-2    9.327985623481864E-1    4.299462861336883E-2
 3.374153214804250E5     9.329837127034932E-1    4.283312075393227E-2    6.759360655350533E-2   -4.363343646153104E-2    6.764764734429039E-2   -4.368075369828970E-2    9.329536109954248E-1    4.282216815184393E-2
 3.399897540381991E5     9.331618172629824E-1    4.267886421353830E-2    6.741834676858943E-2   -4.348496572780640E-2    6.748088632605057E-2   -4.353192356867210E-2    9.331390964761238E-1    4.267743210545306E-2
 3.425838291627830E5     9.333421306205624E-1    4.252854720051372E-2    6.724334683379825E-2   -4.333650048395551E-2    6.730377570472397E-2   -4.338229408536798E-2    9.332956783696362E-1    4.251170103873471E-2
 3.451976967242625E5     9.335259472214706E-1    4.237906130188711E-2    6.707241895041204E-2   -4.318589739065721E-2    6.713108453889044E-2   -4.322978552282276E-2    9.334450185551288E-1    4.236666337882025E-2
 3.478315077362126E5     9.337246637321157E-1    4.222430349995811E-2    6.689854049457587E-2   -4.303580507171929E-2    6.695766247698678E-2   -4.308432827937569E-2    9.336242521041253E-1    4.220630550243173E-2
 3.504854143644205E5     9.338475664631154E-1    4.206703012767028E-2    6.672636273077581E-2   -4.288466291903237E-2    6.678605783284487E-2   -4.293077942593287E-2    9.338248522112527E-1    4.206118076051789E-2
 3.531595699356794E5     9.340431657856417E-1    4.191750845985725E-2    6.656106261540065E-2   -4.274143732323512E-2    6.661734503907313E-2   -4.278259129722345E-2    9.339962410227735E-1    4.192532685057961E-2
 3.558541289466428E5     9.342320915706631E-1    4.176731727313000E-2    6.639233315161554E-2   -4.259652086322990E-2    6.644425276755872E-2   -4.263734334780935E-2    9.341629071974960E-1    4.175427321787711E-2
 3.585692470727532E5     9.343895195516813E-1    4.162376076383695E-2    6.622092460300323E-2   -4.244823886182633E-2    6.627448499320870E-2   -4.249093762820141E-2    9.343068109980678E-1    4.161329303240339E-2
 3.613050811772345E5     9.345426817665594E-1    4.146036383257826E-2    6.605135040773175E-2   -4.230164068868713E-2    6.610140798078004E-2   -4.234362867730904E-2    9.344672463068491E-1    4.145569657544849E-2
 3.640617893201578E5     9.346842370015287E-1    4.130333023665639E-2    6.588442710701972E-2   -4.215544067870794E-2    6.593560938711981E-2   -4.219426875591828E-2    9.346163323900381E-1    4.130031256058185E-2
 3.668395307675686E5     9.349241598018241E-1    4.116553651492916E-2    6.571661913368532E-2   -4.200763526150947E-2    6.577013743524822E-2   -4.205085867998574E-2    9.347981038827530E-1    4.115302879752061E-2
 3.696384660006910E5     9.350180507683065E-1    4.100031380636654E-2    6.554654237092045E-2   -4.186284327743197E-2    6.560448204279640E-2   -4.190916226098439E-2    9.349934982468139E-1    4.100781839597391E-2
 3.724587567251991E5     9.352186905510365E-1    4.085364472391927E-2    6.537942995493047E-2   -4.171935068751702E-2    6.543920887012289E-2   -4.176243398124874E-2    9.351286045417569E-1    4.085801060330444E-2
 3.753005658805580E5     9.353799121823927E-1    4.071369972675061E-2    6.521713307947202E-2   -4.157711822839912E-2    6.527272960421995E-2   -4.162177494944722E-2    9.352990282414887E-1    4.072030024738301E-2
 3.781640576494411E5     9.355637241543402E-1    4.057145032265200E-2    6.505962197931756E-2   -4.144010683471784E-2    6.510184526435676E-2   -4.147510102917356E-2    9.354495446396049E-1    4.056052140189827E-2
 3.810493974672107E5     9.357935549852482E-1    4.042833027456237E-2    6.489600879465036E-2   -4.129869194050604E-2    6.494082027890698E-2   -4.133272565645603E-2    9.356435981507399E-1    4.043185661472844E-2
 3.839567520314787E5     9.359366714872214E-1    4.028600986002511E-2    6.472427675398507E-2   -4.116152940354818E-2    6.478072107494787E-2   -4.119392445113804E-2    9.357909962146891E-1    4.027902574307562E-2
 3.868862893117373E5     9.360601742193156E-1    4.013375727677666E-2    6.456463652061291E-2   -4.102226496046978E-2    6.461642361329543E-2   -4.104966743887689E-2    9.359655080755861E-1    4.012375779968634E-2
 3.898381785590618E5     9.362481162023194E-1    3.999746200318362E-2    6.440421700592540E-2   -4.088598143904199E-2    6.445159792377890E-2   -4.090924460084806E-2    9.361057675658894E-1    3.997366227746628E-2
 3.928125903158922E5     9.364344527183859E-1    3.984729963407155E-2    6.424371947069935E-2   -4.075054832467243E-2    6.428626664124112E-2   -4.076671769024758E-2    9.362440880289464E-1    3.982263463695268E-2
 3.958096964258819E5     9.365850841284504E-1    3.970375705616661E-2    6.407727358951897E-2   -4.061025685729727E-2    6.412754120992756E-2   -4.063385169325060E-2    9.364347274026603E-1    3.968020918898726E-2
 3.988296700438284E5     9.367568572817699E-1    3.954517107719903E-2    6.391524536910309E-2   -4.047379406506899E-2    6.397241269536508E-2   -4.049720744390198E-2    9.366069799424601E-1    3.953578083459423E-2
 4.018726856456762E5     9.369111367003771E-1    3.941478477528425E-2    6.375437843264768E-2   -4.033347852944915E-2    6.381003756862787E-2   -4.035814790976154E-2    9.367884758214912E-1    3.939876334035688E-2
 4.049389190385970E5     9.370491762373799E-1    3.927811972308785E-2    6.359247029550555E-2   -4.019678331510877E-2    6.364505853438911E-2   -4.021906589000293E-2    9.369236336515462E-1    3.924897411451764E-2
 4.080285473711492E5     9.372131120543309E-1    3.913771894484570E-2    6.343015969412473E-2   -4.005414847401361E-2    6.348372441754108E-2   -4.007965539014477E-2    9.370960875235190E-1    3.911623818565662E-2
 4.111417491435081E5     9.373689752685311E-1    3.898731670197855E-2    6.326769657306644E-2   -3.991872596238936E-2    6.332537180183989E-2   -3.993975440498431E-2    9.372525473783705E-1    3.898342283318682E-2
 4.142787042177814E5     9.375080790436895E-1    3.884139119038037E-2    6.310846585683165E-2   -3.978373842816486E-2    6.316666699138075E-2   -3.980750113718211E-2    9.373948195230963E-1    3.882343583346632E-2
 4.174395938283992E5     9.376851748113184E-1    3.870345646344714E-2    6.294878051345226E-2   -3.965026740161245E-2    6.300871224231995E-2   -3.967117087154243E-2    9.375851899329603E-1    3.869443927770961E-2
 4.206246005925882E5     9.378530708395892E-1    3.854295730394949E-2    6.279180894377466E-2   -3.951428968039090E-2    6.285392786371620E-2   -3.953728100382708E-2    9.377661236132868E-1    3.853710183646144E-2
 4.238339085209167E5     9.380279270953737E-1    3.840629991123778E-2    6.262994264548512E-2   -3.938351711930289E-2    6.269269122018813E-2   -3.940161362645307E-2    9.379394346806430E-1    3.841071707559585E-2
 4.270677030279291E5     9.381463764363787E-1    3.826597374475846E-2    6.246520451172907E-2   -3.924497369906330E-2    6.253457674008196E-2   -3.926737216512902E-2    9.380765092149472E-1    3.826759227304727E-2
 4.303261709428567E5     9.383063369353261E-1    3.813474250940727E-2    6.231251613909285E-2   -3.911111462093241E-2    6.237452631069734E-2   -3.913411817902077E-2    9.382356653831142E-1    3.811017057961284E-2
 4.336095005204146E5     9.384836210627197E-1    3.797856645299436E-2    6.215442271101122E-2   -3.898189321041168E-2    6.222117784550515E-2   -3.899859366073695E-2    9.384079961834353E-1    3.798981784971434E-2
 4.369178814516730E5     9.386582464962556E-1    3.784757089074963E-2    6.199289907958119E-2   -3.884531917589363E-2    6.206265309641264E-2   -3.886701896051890E-2    9.385667018937344E-1    3.784567062165900E-2
 4.402515048750198E5     9.387908077938854E-1    3.770822144542225E-2    6.184077311809325E-2   -3.871032824364536E-2    6.189951308198618E-2   -3.873293108785177E-2    9.387219584633368E-1    3.770548292779571E-2
 4.436105633872023E5     9.389363350776783E-1    3.756461549116692E-2    6.168326305426618E-2   -3.858072749997446E-2    6.174702301409179E-2   -3.860439310547079E-2    9.388741434795737E-1    3.756028590779723E-2
 4.469952510544541E5     9.391005406137846E-1    3.742049462857935E-2    6.152313066334388E-2   -3.844462326973562E-2    6.159117152805076E-2   -3.846820425584480E-2    9.390346834715573E-1    3.743002517046596E-2
 4.504057634237097E5     9.392569771917876E-1    3.728247025052587E-2    6.136638930854287E-2   -3.831162581774947E-2    6.143244662786650E-2   -3.833490562687488E-2    9.391639999930247E-1    3.729148078985708E-2
 4.538422975338975E5     9.394036572952671E-1    3.714005330560436E-2    6.120808717509047E-2   -3.817929066495365E-2    6.127595223428107E-2   -3.820609274002958E-2    9.393102956641909E-1    3.714210574870671E-2
 4.573050519273265E5     9.395360464274467E-1    3.699646876529473E-2    6.105275901195867E-2   -3.804882149183376E-2    6.112120831712282E-2   -3.807024583867190E-2    9.394722969190671E-1    3.701683183461627E-2
 4.607942266611566E5     9.396912181903123E-1    3.687451432124136E-2    6.089708368322952E-2   -3.791202848092864E-2    6.096448912928608E-2   -3.793805436853443E-2    9.395764394038447E-1    3.687934523264513E-2
 4.643100233189550E5     9.398549872826676E-1    3.672704797679862E-2    6.074706158950585E-2   -3.778380286958127E-2    6.081132325105579E-2   -3.780748837492869E-2    9.397682792769223E-1    3.673474220617482E-2
 4.678526450223470E5     9.399599786618643E-1    3.658739005006802E-2    6.059042945091835E-2   -3.765074266680149E-2    6.066107585212324E-2   -3.767920969207800E-2    9.399286971119933E-1    3.660558706961727E-2
 4.714222964427450E5     9.401221204495362E-1    3.644510796948316E-2    6.043777294029683E-2   -3.752123724383847E-2    6.050593341196527E-2   -3.754760763568148E-2    9.400495198545071E-1    3.646074074776114E-2
 4.750191838131770E5     9.402816818393941E-1    3.631058460937011E-2    6.028364177508450E-2   -3.738914995172107E-2    6.035210189908573E-2   -3.741839175431256E-2    9.402179222034542E-1    3.631605133592922E-2
 4.786435149402010E5     9.404339746954228E-1    3.617041523155265E-2    6.012845637566840E-2   -3.725994017477217E-2    6.020420057108681E-2   -3.729071207698232E-2    9.403763155237758E-1    3.617501133766820E-2
 4.822954992159092E5     9.406174356656110E-1    3.603133845186983E-2    5.997954155923664E-2   -3.713186491412649E-2    6.005137960699669E-2   -3.716059216085191E-2    9.405293579883893E-1    3.604201829789522E-2
 4.859753476300298E5     9.407339906212331E-1    3.588251347078024E-2    5.982376504115645E-2   -3.699740161912232E-2    5.990024692443988E-2   -3.702872239325814E-2    9.406965956906661E-1    3.589473796962984E-2
 4.896832727821107E5     9.408860146732925E-1    3.576110032706607E-2    5.967404180873435E-2   -3.687061794983143E-2    5.974686786718102E-2   -3.689962307862049E-2    9.408088579503121E-1    3.576930377373548E-2
 4.934194888938060E5     9.409897223961303E-1    3.562467164676001E-2    5.952565641890670E-2   -3.673984467650260E-2    5.959772568856111E-2   -3.677335751133271E-2    9.409903949502864E-1    3.562012786264428E-2
 4.971842118212518E5     9.411475279469299E-1    3.547797493659779E-2    5.937557669336124E-2   -3.660962398928010E-2    5.944762081238839E-2   -3.664435300204000E-2    9.411333682567142E-1    3.550032447610576E-2
 5.009776590675358E5     9.412959010442354E-1    3.533912829958779E-2    5.922995663653432E-2   -3.648026707507666E-2    5.929478361519998E-2   -3.650975203886766E-2    9.412196495721581E-1    3.536007043453088E-2
 5.048000497952673E5     9.414969743707521E-1    3.519929228613303E-2    5.907875247501495E-2   -3.635144043499663E-2    5.915006587175262E-2   -3.638340584050986E-2    9.414016494757261E-1    3.522710917091849E-2
 5.086516048392332E5     9.416785894639148E-1    3.506464779718443E-2    5.893540610965391E-2   -3.622675171372879E-2    5.899992885752520E-2   -3.625718263693808E-2    9.415630389833719E-1    3.509307251560762E-2
 5.125325467191607E5     9.417871693130795E-1    3.493202145890113E-2    5.878945656923583E-2   -3.609545826487506E-2    5.885456213414336E-2   -3.613099387605403E-2    9.416776845324262E-1    3.495418746963862E-2
 5.164430996525706E5     9.419057908106448E-1    3.478254262039470E-2    5.864020932725515E-2   -3.596690322260030E-2    5.870698211159818E-2   -3.600294839004031E-2    9.418750140942125E-1    3.481723758288403E-2
 5.203834895677360E5     9.420587125838036E-1    3.465856109392648E-2    5.849541917836311E-2   -3.583887041261966E-2    5.855882567907168E-2   -3.587737327935005E-2    9.419760544208760E-1    3.468720701778005E-2
 5.243539441167285E5     9.422355112152014E-1    3.451525078421853E-2    5.834701829111881E-2   -3.571123774875568E-2    5.841022692856247E-2   -3.574525484783461E-2    9.421387053625471E-1    3.452175680836801E-2
 5.283546926885745E5     9.423500887835169E-1    3.437195100769248E-2    5.819981283181831E-2   -3.558467339765754E-2    5.826606995003793E-2   -3.561739013619846E-2    9.422692827846334E-1    3.440471454873101E-2
 5.323859664225065E5     9.425089978900056E-1    3.423353049633575E-2    5.805443710115221E-2   -3.545011016250337E-2    5.812117719136815E-2   -3.548754636618748E-2    9.423937076155107E-1    3.427008053006333E-2
 5.364479982213206E5     9.426586819141296E-1    3.410815811832123E-2    5.791293360490058E-2   -3.532438896552509E-2    5.798082581096935E-2   -3.536194389241861E-2    9.425563783636219E-1    3.413564775782729E-2
 5.405410227648258E5     9.427913207309713E-1    3.397508023081107E-2    5.776912348329495E-2   -3.519857697539843E-2    5.783952696211593E-2   -3.523987324397475E-2    9.427162633621434E-1    3.400654269313141E-2
 5.446652765234077E5     9.429357336044625E-1    3.382805422294839E-2    5.762426032942358E-2   -3.506830535013065E-2    5.769600877256104E-2   -3.511037401058971E-2    9.428753604259816E-1    3.386549184211277E-2
 5.488209977716873E5     9.430774908998255E-1    3.368852772709572E-2    5.748269965005905E-2   -3.494395943449270E-2    5.755213157513698E-2   -3.498424669991502E-2    9.429853237851729E-1    3.373885311419195E-2
 5.530084266022880E5     9.431944298882845E-1    3.357254135400915E-2    5.734557433123928E-2   -3.481661080552621E-2    5.741574930036859E-2   -3.486092790004645E-2    9.431253718928722E-1    3.360701746832670E-2
 5.572278049397101E5     9.433414696908993E-1    3.342648090157854E-2    5.720342787813977E-2   -3.469434085095447E-2    5.727190734872456E-2   -3.473272081072015E-2    9.432765069119183E-1    3.346457576057827E-2
 5.614793765543010E5     9.434329985713995E-1    3.329484153386857E-2    5.706643506881397E-2   -3.456495032612776E-2    5.713876700740556E-2   -3.461407885032637E-2    9.434294248337245E-1    3.333414281472816E-2
 5.657633870763436E5     9.436092928229471E-1    3.315817456783676E-2    5.692787752229900E-2   -3.444371117787901E-2    5.699335146391582E-2   -3.448732629136930E-2    9.435611453756513E-1    3.318702713993828E-2
 5.700800840102463E5     9.437744036773802E-1    3.303949895789447E-2    5.678941088112852E-2   -3.431651704990835E-2    5.685747719107576E-2   -3.436319993484026E-2    9.437053378998721E-1    3.305527333687380E-2
 5.744297167488408E5     9.439011340707686E-1    3.289839840352279E-2    5.665128805657937E-2   -3.419268194981818E-2    5.672111266955873E-2   -3.424117614633124E-2    9.438050616732810E-1    3.293862533671201E-2
 5.788125365877954E5     9.440514607773041E-1    3.276912510820102E-2    5.651587402639821E-2   -3.407042892658561E-2    5.658386505108977E-2   -3.411894894080745E-2    9.439437331642393E-1    3.280506429364031E-2
 5.832287967401261E5     9.441724788933747E-1    3.263062820807815E-2    5.637937007166139E-2   -3.394992388012107E-2    5.644409796437672E-2   -3.399664331499829E-2    9.440568327035951E-1    3.268685588283726E-2
 5.876787523508312E5     9.443227126571968E-1    3.250339654298004E-2    5.624282085894498E-2   -3.382527835623958E-2    5.630660784587757E-2   -3.386912285959232E-2    9.441949953718582E-1    3.254343619104730E-2
 5.921626605116295E5     9.444611111845698E-1    3.236487504598144E-2    5.611162039879580E-2   -3.370890179977290E-2    5.617460880981809E-2   -3.375000970041762E-2    9.443123025895723E-1    3.241347435572654E-2
 5.966807802758140E5     9.445723590629297E-1    3.225314508561912E-2    5.598020956838209E-2   -3.358341295242023E-2    5.603819401759681E-2   -3.363013012583354E-2    9.444749872628495E-1    3.229510174579200E-2
 6.012333726732214E5     9.447006007617383E-1    3.211270017501910E-2    5.584419882145353E-2   -3.346347868087644E-2    5.590945301181637E-2   -3.351182701845384E-2    9.445835133454824E-1    3.215561020975408E-2
 6.058207007253073E5     9.448220529435803E-1    3.198870090806261E-2    5.570879362948687E-2   -3.333950139869329E-2    5.577497718791521E-2   -3.338585391131946E-2    9.446812474713627E-1    3.203082842140705E-2
 6.104430294603459E5     9.449643839201304E-1    3.184830451532041E-2    5.558063893106382E-2   -3.322229149045096E-2    5.564492194015880E-2   -3.326894227035696E-2    9.447963904930129E-1    3.190337762870690E-2
 6.151006259287392E5     9.451068390970758E-1    3.173475283575324E-2    5.544996089984286E-2   -3.310306226484078E-2    5.551092137861420E-2   -3.315175567768679E-2    9.449807670016458E-1    3.177942211657776E-2
 6.197937592184512E5     9.452243616928513E-1    3.160106512227843E-2    5.531909240870934E-2   -3.298365996837578E-2    5.537856056011998E-2   -3.303294510631582E-2    9.451001718145013E-1    3.163822554854202E-2
 6.245227004705463E5     9.453095364929868E-1    3.147943554744096E-2    5.518569515510739E-2   -3.286718714936016E-2    5.524731544003047E-2   -3.291374140344619E-2    9.452043458216649E-1    3.152571878728733E-2
 6.292877228948588E5     9.454841973148260E-1    3.135492807533377E-2    5.505842971478596E-2   -3.275339306652930E-2    5.511704708660470E-2   -3.279748629036517E-2    9.453325391355047E-1    3.139766971739124E-2
 6.340891017857760E5     9.456019704998885E-1    3.120704043630462E-2    5.493312174054646E-2   -3.263922529181211E-2    5.498802318372630E-2   -3.268093705062011E-2    9.454642810148899E-1    3.126770021449316E-2
 6.389271145381465E5     9.457064286977948E-1    3.109267574525448E-2    5.479913298302990E-2   -3.252027937455568E-2    5.485864888488338E-2   -3.256598265314856E-2    9.456302940193374E-1    3.114002933927568E-2
 6.438020406633007E5     9.458533257248776E-1    3.096623368344352E-2    5.467559362000033E-2   -3.241026272068746E-2    5.472578878220724E-2   -3.244917392773506E-2    9.457204124111399E-1    3.101711744353693E-2
 6.487141618052023E5     9.460000819322358E-1    3.084304161438349E-2    5.454826625199970E-2   -3.229467474151644E-2    5.460111999476189E-2   -3.233658146380964E-2    9.458481798951368E-1    3.090202837475137E-2
 6.536637617567203E5     9.460940083681252E-1    3.071578412161331E-2    5.441898991318066E-2   -3.217842971585795E-2    5.446946613720977E-2   -3.222014982372435E-2    9.460422293323647E-1    3.074194285352045E-2
 6.586511264760230E5     9.462345129531010E-1    3.059288051321293E-2    5.428689480454828E-2   -3.206539115756817E-2    5.434210620331087E-2   -3.210529402626906E-2    9.461418082197570E-1    3.064918740788636E-2
 6.636765441031042E5     9.463389288391582E-1    3.046630215164484E-2    5.415910538481256E-2   -3.195103829666683E-2    5.421139440270931E-2   -3.199456974724262E-2    9.462780863433021E-1    3.051132797795281E-2
 6.687403049764220E5     9.464338732363683E-1    3.035607910894717E-2    5.403301436373616E-2   -3.184224933546959E-2    5.408795488004536E-2   -3.188443122125957E-2    9.464184584605655E-1    3.038699398161711E-2
 6.738427016496789E5     9.465655064187644E-1    3.024441595558101E-2    5.390671386094407E-2   -3.172398521195161E-2    5.396263006554897E-2   -3.177200445310897E-2    9.465155113198670E-1    3.028542900632385E-2
 6.789840289087215E5     9.467186747875332E-1    3.010895202816489E-2    5.378049441616036E-2   -3.161660412827171E-2    5.383587962838452E-2   -3.166646708515661E-2    9.466288286168223E-1    3.016178203817136E-2
 6.841645837885707E5     9.468365892101600E-1    2.998393936624536E-2    5.365440208942492E-2   -3.150836069040942E-2    5.371040335963868E-2   -3.155303822285054E-2    9.467947629678410E-1    3.003250094390190E-2
 6.893846655905881E5     9.469993712600567E-1    2.985437442461754E-2    5.352993083149576E-2   -3.139523252830360E-2    5.358385702295897E-2   -3.144404070514727E-2    9.469113005272732E-1    2.990559206317767E-2
 6.946445758997592E5     9.470554326489833E-1    2.975061454690616E-2    5.340457061567440E-2   -3.128794474979556E-2    5.345662054294861E-2   -3.133323416481883E-2    9.470579706357626E-1    2.978531442935663E-2
 6.999446186021230E5     9.471873043192282E-1    2.961601142230954E-2    5.327465894371318E-2   -3.117749374347157E-2    5.332895992379427E-2   -3.122717504351665E-2    9.471628545989930E-1    2.966282184077949E-2
 7.052850999023273E5     9.472938235215339E-1    2.948863227790393E-2    5.315053806376620E-2   -3.106631626359939E-2    5.320663110026021E-2   -3.111231180257022E-2    9.472644296560175E-1    2.957134609249045E-2
 7.106663283413178E5     9.474312322971704E-1    2.939764163764715E-2    5.302827133851126E-2   -3.096507607751270E-2    5.307917713653244E-2   -3.100710489847155E-2    9.474334946783791E-1    2.944255954493845E-2
 7.160886148141696E5     9.475598073668943E-1    2.926651699551625E-2    5.289847634590791E-2   -3.085026503928025E-2    5.295509372938332E-2   -3.089971272047795E-2    9.474976154947180E-1    2.932338203758939E-2
 7.215522725880400E5     9.476832947483844E-1    2.914034870552091E-2    5.277288288778520E-2   -3.074694915884758E-2    5.282912003360354E-2   -3.079040007668774E-2    9.476061577107081E-1    2.921078213799314E-2
 7.270576173202734E5     9.478161855553522E-1    2.903343510575134E-2    5.264672886113475E-2   -3.063884335540068E-2    5.270195472906973E-2   -3.068713058491613E-2    9.477449962691721E-1    2.908889255524919E-2
 7.326049670766364E5     9.479308892439017E-1    2.891236673655366E-2    5.252374655566203E-2   -3.053099878095187E-2    5.257555827410765E-2   -3.058059255026356E-2    9.479381976440907E-1    2.894836789737662E-2
 7.381946423496918E5     9.480212511584852E-1    2.880930326240470E-2    5.240008844220103E-2   -3.042492476590772E-2    5.245115109809901E-2   -3.047227301844115E-2    9.480139472070566E-1    2.885101831478239E-2
 7.438269660773217E5     9.481591229727214E-1    2.867487964900897E-2    5.227575240716266E-2   -3.032234307643576E-2    5.232345445526024E-2   -3.036682456330825E-2    9.481196896213937E-1    2.874033832331018E-2
 7.495022636613748E5     9.482940389624636E-1    2.856125555960397E-2    5.215506010945197E-2   -3.021675230379814E-2    5.220012050564819E-2   -3.025949599022171E-2    9.482431933474658E-1    2.860523322403218E-2
 7.552208629864733E5     9.483822789850090E-1    2.845253861503071E-2    5.202968239836906E-2   -3.011065004171101E-2    5.207722712220202E-2   -3.015720075984397E-2    9.483907081554153E-1    2.848961845829639E-2
 7.609830944389519E5     9.485352742030070E-1    2.831971903670070E-2    5.190568003914608E-2   -3.000513698806304E-2    5.195144791417410E-2   -3.004906089121746E-2    9.484726259654140E-1    2.839269917510191E-2
 7.667892909259528E5     9.486927268450766E-1    2.818484436044513E-2    5.178328655760012E-2   -2.990134661456752E-2    5.182639008459898E-2   -2.994483098759370E-2    9.486229339210884E-1    2.825996791255960E-2
 7.726397878946491E5     9.487876081185032E-1    2.809241121778287E-2    5.165803832523004E-2   -2.979304964298730E-2    5.170379264396568E-2   -2.983959588035917E-2    9.487194314724349E-1    2.815984843463502E-2
 7.785349233516312E5     9.489598100626899E-1    2.795058344523802E-2    5.153354368308364E-2   -2.968815151887533E-2    5.157976585213502E-2   -2.973080497262240E-2    9.488317899610001E-1    2.805176811749343E-2
 7.844750378824320E5     9.490644330385083E-1    2.786471510978376E-2    5.141293223248296E-2   -2.958418695362208E-2    5.145338748915477E-2   -2.962583293264313E-2    9.489651009937702E-1    2.792957482391675E-2
 7.904604746712097E5     9.491683698283493E-1    2.775077179898875E-2    5.129026330584103E-2   -2.948029475682332E-2    5.133351373080799E-2   -2.952775073879951E-2    9.490828699465753E-1    2.782274751330423E-2
 7.964915795205662E5     9.493260682107928E-1    2.759190813228090E-2    5.116450618118932E-2   -2.937710748064051E-2    5.121320071118488E-2   -2.942259719052899E-2    9.492363314291535E-1    2.770780512069397E-2
 8.025687008715309E5     9.494196932146567E-1    2.745906948012928E-2    5.104001441499104E-2   -2.926743563980421E-2    5.108889904065327E-2   -2.931865322195476E-2    9.493659913237465E-1    2.757686303266067E-2
 8.086921898236905E5     9.495226448337560E-1    2.736064554803305E-2    5.092071208713445E-2   -2.916221851941803E-2    5.096434587087077E-2   -2.921030799583067E-2    9.494202286694675E-1    2.747780414818294E-2
 8.148624001554718E5     9.496464497598852E-1    2.723661424641707E-2    5.079790362233839E-2   -2.905728437809262E-2    5.084364583416956E-2   -2.910370201881429E-2    9.495712265788742E-1    2.733997301456945E-2
 8.210796883445872E5     9.497386970141029E-1    2.714684731855160E-2    5.067523826497382E-2   -2.895225413816698E-2    5.072172524278331E-2   -2.900270965069947E-2    9.496859274458656E-1    2.723998231831050E-2
 8.273444135886204E5     9.498476705073837E-1    2.702098001791518E-2    5.055581902836628E-2   -2.884949670821969E-2    5.060022044597420E-2   -2.889251588506885E-2    9.497973412528468E-1    2.711275566446910E-2
 8.336569378257846E5     9.499695302288518E-1    2.691402741736092E-2    5.043617810903930E-2   -2.874461242857392E-2    5.048287429069850E-2   -2.879215280620277E-2    9.499501074273385E-1    2.699324203374508E-2
 8.400176257558319E5     9.500837501330280E-1    2.677993445989310E-2    5.031510885379433E-2   -2.863675115288154E-2    5.035953183364473E-2   -2.868702588927920E-2    9.500746123749917E-1    2.685558586794997E-2
 8.464268448611222E5     9.502232978115464E-1    2.668570310243415E-2    5.019854258629465E-2   -2.853239279704867E-2    5.024142667296338E-2   -2.858314051025408E-2    9.501516032731264E-1    2.674391274799098E-2
 8.528849654278599E5     9.503768774491599E-1    2.655350091083316E-2    5.008026252262131E-2   -2.842684706899402E-2    5.012007065190947E-2   -2.848056456242044E-2    9.502757443599477E-1    2.663095018612796E-2
 8.593923605674774E5     9.504941916954002E-1    2.642629647236553E-2    4.996220198899983E-2   -2.832108756017054E-2    5.000179046936813E-2   -2.837122661289240E-2    9.503520107323304E-1    2.653116741259472E-2
 8.659494062381978E5     9.505778299898362E-1    2.630285069881503E-2    4.984645438873483E-2   -2.821759747088188E-2    4.988599079122837E-2   -2.826826116717981E-2    9.504967291355603E-1    2.640008845652620E-2
 8.725564812667536E5     9.506795441044837E-1    2.616235334872347E-2    4.973098551838111E-2   -2.811617377463205E-2    4.976851433469980E-2   -2.816165230511128E-2    9.505934059693877E-1    2.629687194581839E-2
 8.792139673702718E5     9.508107693744484E-1    2.606097022614446E-2    4.961639258892078E-2   -2.801202428784463E-2    4.965141860643726E-2   -2.805878109964016E-2    9.506885639122706E-1    2.620722840140083E-2
 8.859222491783336E5     9.509279243013806E-1    2.594152086256630E-2    4.949477245933229E-2   -2.790693614237250E-2    4.953383239013938E-2   -2.795539421483570E-2    9.508041525882184E-1    2.607151681925727E-2
 8.926817142551860E5     9.510629327213985E-1    2.582471227057740E-2    4.938487520743808E-2   -2.780461413121485E-2    4.942124090563959E-2   -2.785465890972240E-2    9.509427117952651E-1    2.591858183992495E-2
 8.994927531221397E5     9.511117339282975E-1    2.572109836781757E-2    4.926515088742934E-2   -2.769660148991460E-2    4.930437635355978E-2   -2.775133680864058E-2    9.510464725040512E-1    2.580993540894901E-2
 9.063557592801275E5     9.512270508250549E-1    2.559912198101216E-2    4.915438197854800E-2   -2.759603492163938E-2    4.919256710212865E-2   -2.764515771371873E-2    9.511644696274713E-1    2.570011085310581E-2
 9.132711292324457E5     9.513592579643986E-1    2.546426436601733E-2    4.904154410803790E-2   -2.749671698945362E-2    4.907934290311669E-2   -2.754565917787625E-2    9.513052562527028E-1    2.558691199525041E-2
 9.202392625076511E5     9.514501616261170E-1    2.534608189497139E-2    4.893180289680556E-2   -2.738674607888555E-2    4.896872151562489E-2   -2.744182026291431E-2    9.514091687310012E-1    2.549290297444245E-2
 9.272605616826499E5     9.515583026789705E-1    2.523658752047055E-2    4.881745256386232E-2   -2.728872375463056E-2    4.885599761205336E-2   -2.733887736844726E-2    9.515113708114895E-1    2.535861683539436E-2
 9.343354324059531E5     9.516819787821097E-1    2.512100776343441E-2    4.870981643979237E-2   -2.718505449414089E-2    4.874035583546982E-2   -2.723782304193215E-2    9.516088426413776E-1    2.522910075896568E-2
 9.414642834211199E5     9.517785161745612E-1    2.500569101787785E-2    4.859440883662283E-2   -2.708485793257883E-2    4.863086959995663E-2   -2.713997131376350E-2    9.517172493375083E-1    2.510878410166172E-2
 9.486475265903610E5     9.518730884407911E-1    2.490253565758781E-2    4.848529575936315E-2   -2.698472774982612E-2    4.851830679565554E-2   -2.703776590065051E-2    9.518468841990536E-1    2.499652466418689E-2
 9.558855769183410E5     9.520004403864293E-1    2.479235326367245E-2    4.837631498692165E-2   -2.688629371771010E-2    4.841101587861641E-2   -2.693355908630660E-2    9.519518104522815E-1    2.490083465162050E-2
 9.631788525761530E5     9.521065411880447E-1    2.466154843953171E-2    4.826875612021554E-2   -2.677832978579819E-2    4.830096818562633E-2   -2.683550233626997E-2    9.520519075161159E-1    2.478599403636696E-2
 9.705277749254764E5     9.521880186795094E-1    2.455524001391050E-2    4.815807303861061E-2   -2.668267127261069E-2    4.819289936161213E-2   -2.673802279366770E-2    9.521559532247144E-1    2.466782519191683E-2
 9.779327685429282E5     9.522784294269009E-1    2.443160978011460E-2    4.804952658175063E-2   -2.658626282111626E-2    4.808300978886149E-2   -2.663570112052073E-2    9.522588948770109E-1    2.455323487035177E-2
 9.853942612445805E5     9.524022080245522E-1    2.430802463094732E-2    4.794553644821683E-2   -2.648793830349028E-2    4.797483371487734E-2   -2.653597190139044E-2    9.523778107360555E-1    2.443589611921537E-2
 9.929126841106854E5     9.525112685627702E-1    2.422493491403746E-2    4.783794339535363E-2   -2.638834369470438E-2    4.786757444799792E-2   -2.644124940355532E-2    9.525240494519490E-1    2.429943201191140E-2
 1.000488471510578E6     9.525998772903260E-1    2.414750874615772E-2    4.772705418899802E-2   -2.628956021614784E-2    4.776293276065013E-2   -2.634579063224278E-2    9.525911676762242E-1    2.419382459646694E-2
 1.008122061127771E6     9.527005463827221E-1    2.401070718137361E-2    4.762285000414972E-2   -2.619521019420611E-2    4.765547176889276E-2   -2.624658938427925E-2    9.527042943950930E-1    2.406825498360756E-2
 1.015813893985245E6     9.528226785624175E-1    2.391474011164605E-2    4.751977185741427E-2   -2.610113324495111E-2    4.754791373644770E-2   -2.615165104530454E-2    9.527720786499884E-1    2.398951463203602E-2
 1.023564414470923E6     9.529406759922409E-1    2.379370440616324E-2    4.741634723933177E-2   -2.600144057201958E-2    4.744217105909451E-2   -2.605463154890098E-2    9.528586764227118E-1    2.386539650727067E-2
 1.031374070363347E6     9.530472940093974E-1    2.368796485225091E-2    4.730998367700062E-2   -2.590932427523573E-2    4.733742579639787E-2   -2.596128139429623E-2    9.529429719454148E-1    2.378286337505923E-2
 1.039243312857548E6     9.531574347395229E-1    2.355579172830349E-2    4.720552954222249E-2   -2.581577749259753E-2    4.723209750151966E-2   -2.586317081092717E-2    9.530722694728558E-1    2.369343623073476E-2
 1.047172596591111E6     9.532462532529395E-1    2.346476418613055E-2    4.709885684167843E-2   -2.572187659453217E-2    4.712337397074704E-2   -2.576903635100556E-2    9.531851931283096E-1    2.355450403286792E-2
 1.055162379670449E6     9.533423732793924E-1    2.334585189640208E-2    4.699087937379566E-2   -2.562282221198986E-2    4.702241439742193E-2   -2.567682377594911E-2    9.533005848833033E-1    2.345048427557348E-2
 1.063213123697260E6     9.534630007716902E-1    2.325224085354617E-2    4.688656450315531E-2   -2.553581632336805E-2    4.691204886327081E-2   -2.558418525415195E-2    9.533892985662107E-1    2.332272648806718E-2
 1.071325293795198E6     9.535712043792921E-1    2.316139778970042E-2    4.678430300402754E-2   -2.543745385524439E-2    4.681046787457039E-2   -2.549161391613579E-2    9.535148292649454E-1    2.320889283815626E-2
 1.079499358636750E6     9.536693984538710E-1    2.302760198898498E-2    4.667654415960809E-2   -2.534749304592689E-2    4.670477597733023E-2   -2.539787399172645E-2    9.536127146413308E-1    2.312503859994125E-2
 1.087735790470306E6     9.537698617517694E-1    2.293251875141176E-2    4.657508717419099E-2   -2.525178738867095E-2    4.659477128849170E-2   -2.530260447787622E-2    9.536970990245384E-1    2.301060477354640E-2
 1.096035065147453E6     9.538325775371566E-1    2.283180847894907E-2    4.646399019062327E-2   -2.516301675823644E-2    4.649370393037925E-2   -2.521092399554215E-2    9.537662153941244E-1    2.287887033755624E-2
 1.104397662150453E6     9.539544462626668E-1    2.271996680862041E-2    4.636533548107267E-2   -2.507205233334154E-2    4.638514725235763E-2   -2.512349536025180E-2    9.538928152838958E-1    2.277765316646872E-2
 1.112824064619953E6     9.540454113235918E-1    2.261575449599834E-2    4.626121223527535E-2   -2.498001256882414E-2    4.627910003177740E-2   -2.502954192474131E-2    9.539951746200567E-1    2.264571528773510E-2
 1.121314759382903E6     9.541501277637521E-1    2.249681165869695E-2    4.615670828023125E-2   -2.488872184752865E-2    4.617721204153351E-2   -2.493946963761362E-2    9.540711056604501E-1    2.253508212977826E-2
 1.129870236980669E6     9.542667098503544E-1    2.238353174328078E-2    4.604978811097876E-2   -2.479975438862331E-2    4.607022324068751E-2   -2.484622951647488E-2    9.541988029534938E-1    2.244794247706663E-2
 1.138490991697383E6     9.543436674427795E-1    2.228263057036928E-2    4.594724360715244E-2   -2.470795329847570E-2    4.596509036630417E-2   -2.475566234498336E-2    9.543173833805672E-1    2.234555239832272E-2
 1.147177521588496E6     9.544320208367320E-1    2.217386680818067E-2    4.584298835109538E-2   -2.461622065732792E-2    4.586595414400882E-2   -2.466419291882110E-2    9.544183215464687E-1    2.223151946909602E-2
 1.155930328509552E6     9.545455456618555E-1    2.208019333879025E-2    4.573810020525371E-2   -2.452534949329020E-2    4.575605702809548E-2   -2.457151903727155E-2    9.545137403405477E-1    2.212952817826935E-2
 1.164749918145190E6     9.546841966432849E-1    2.194924510803312E-2    4.563291996292158E-2   -2.443671367196601E-2    4.565516080421113E-2   -2.448277254268229E-2    9.546333955531843E-1    2.204005663441817E-2
 1.173636800038349E6     9.547516077567448E-1    2.182857394948749E-2    4.552652614109907E-2   -2.434583276412794E-2    4.555023686890387E-2   -2.439018228174766E-2    9.547250492280036E-1    2.189304070606692E-2
 1.182591487619709E6     9.548635581222258E-1    2.171134026187430E-2    4.542213886387728E-2   -2.425472364701577E-2    4.544571229591796E-2   -2.429925656725169E-2    9.547992224718890E-1    2.180530014330795E-2
 1.191614498237359E6     9.549593492503576E-1    2.160885299010243E-2    4.532143435058537E-2   -2.416349968730967E-2    4.533820547865428E-2   -2.420937628259629E-2    9.549197468873634E-1    2.168671726410275E-2
 1.200706353186678E6     9.550466668904060E-1    2.150480116777632E-2    4.521840743878457E-2   -2.406924670483045E-2    4.523588352663618E-2   -2.411955022029396E-2    9.550096059424017E-1    2.157170544379878E-2
 1.209867577740467E6     9.551471618033839E-1    2.141137276128250E-2    4.511127458557748E-2   -2.398282576206763E-2    4.513578212683977E-2   -2.402266649819463E-2    9.550930494477280E-1    2.149816000883337E-2
 1.219098701179276E6     9.552646566496173E-1    2.131064410682431E-2    4.501470492324266E-2   -2.389162928737085E-2    4.503145622008240E-2   -2.393403579420865E-2    9.552370720332766E-1    2.139957281386926E-2
 1.228400256821998E6     9.553474174198282E-1    2.118939835788372E-2    4.490900616187488E-2   -2.379922709963476E-2    4.492481968587730E-2   -2.384302734066590E-2    9.553317924390927E-1    2.127433593554220E-2
 1.237772782056674E6     9.554649375162680E-1    2.108254991834538E-2    4.480616303717176E-2   -2.370327786798761E-2    4.482231918598834E-2   -2.375516636325577E-2    9.554139829705223E-1    2.115380795676136E-2
 1.247216818371540E6     9.555690239016082E-1    2.097448608679114E-2    4.470767493958283E-2   -2.361608317219291E-2    4.472330329503235E-2   -2.366180621583664E-2    9.555395354318811E-1    2.106238206274469E-2
 1.256732911386322E6     9.556444404098796E-1    2.085542050925488E-2    4.460454894111210E-2   -2.352007704690457E-2    4.462261359600420E-2   -2.356855650429973E-2    9.556734319730841E-1    2.096303950702461E-2
 1.266321610883739E6     9.557557568301529E-1    2.077318025013426E-2    4.450413086918538E-2   -2.343552632641079E-2    4.452583799354086E-2   -2.347632756480404E-2    9.557459619587355E-1    2.085414946697600E-2
 1.275983470841281E6     9.558572087673960E-1    2.066143642573229E-2    4.440549177021780E-2   -2.333865335793392E-2    4.442060557235334E-2   -2.338374985420248E-2    9.558684035111635E-1    2.074261210233263E-2
 1.285719049463211E6     9.559561967128903E-1    2.056202899083777E-2    4.430773856063588E-2   -2.324837308341208E-2    4.432136780300586E-2   -2.329273876520593E-2    9.559389267807830E-1    2.063359927329056E-2
 1.295528909212810E6     9.560493397492218E-1    2.045139627637364E-2    4.420764398419458E-2   -2.315978438086451E-2    4.422448437226147E-2   -2.320401661327258E-2    9.560167461292784E-1    2.052827788709406E-2
 1.305413616844883E6     9.561381751976401E-1    2.034418650422628E-2    4.410813090757338E-2   -2.306727090362362E-2    4.412401831128789E-2   -2.310731697471492E-2    9.561330577773520E-1    2.042632494601383E-2
 1.315373743438491E6     9.562175686306992E-1    2.020670029991728E-2    4.401239215021792E-2   -2.297893198642985E-2    4.402943441733771E-2   -2.301724643922010E-2    9.562630832144299E-1    2.032257600171615E-2
 1.325409864429950E6     9.563420683545922E-1    2.018248906348281E-2    4.391765166772661E-2   -2.288198766325405E-2    4.392538091825902E-2   -2.292827245383523E-2    9.563053481871445E-1    2.019301037148014E-2
 1.335522559646084E6     9.564336369858547E-1    2.003716313370489E-2    4.381955361336622E-2   -2.279619428108627E-2    4.383230119753374E-2   -2.283380602303141E-2    9.564103067213507E-1    2.007661045612096E-2
 1.345712413337699E6     9.565294590984780E-1    1.994171321941454E-2    4.372280702440207E-2   -2.270523118199629E-2    4.373893163406285E-2   -2.274444991032378E-2    9.564695611658846E-1    1.998769004188951E-2
 1.355980014213373E6     9.565931073291647E-1    1.985419034420077E-2    4.362501130153110E-2   -2.261630722437015E-2    4.364247830302691E-2   -2.265220852130185E-2    9.566032168422374E-1    1.987731530236548E-2
 1.366325955473440E6     9.566961725898047E-1    1.971783078137612E-2    4.353486999838285E-2   -2.252530214069454E-2    4.354549308255910E-2   -2.256367934506212E-2    9.566898522133920E-1    1.977215008629915E-2
 1.376750834844268E6     9.567763858126536E-1    1.958499627215621E-2    4.343758843998015E-2   -2.243622893508408E-2    4.345294628744826E-2   -2.247352783129955E-2    9.567748646086434E-1    1.964418883842922E-2
 1.387255254612807E6     9.568651941086040E-1    1.946853645960532E-2    4.334427187282372E-2   -2.234681454150153E-2    4.336378271298506E-2   -2.238235610860021E-2    9.568832347952402E-1    1.954364513331036E-2
 1.397839821661363E6     9.569337381531869E-1    1.937825567255985E-2    4.325337855563530E-2   -2.225582183953329E-2    4.326434090510481E-2   -2.229453164083235E-2    9.570030850864393E-1    1.945048397317758E-2
 1.408505147502673E6     9.570662904998293E-1    1.928870529092789E-2    4.316152615160054E-2   -2.216743131661441E-2    4.317092992444114E-2   -2.220471598582688E-2    9.570366681105327E-1    1.932860817955049E-2
 1.419251848315235E6     9.571482443994980E-1    1.916311585753827E-2    4.306539091246384E-2   -2.207992287109159E-2    4.307864717389012E-2   -2.211761984075914E-2    9.571605475990352E-1    1.924082650063753E-2
 1.430080544978898E6     9.572469292629949E-1    1.907951558954978E-2    4.297793799247406E-2   -2.198937588640060E-2    4.298757811911082E-2   -2.202873378017508E-2    9.572403267103338E-1    1.911690017399812E-2
 1.440991863110751E6     9.573090063379605E-1    1.895644644981671E-2    4.288522495460528E-2   -2.190865107631205E-2    4.289916992211078E-2   -2.194423196318726E-2    9.573305552598137E-1    1.898828415644816E-2
 1.451986433101243E6     9.573779252167711E-1    1.881778289774216E-2    4.279431457706879E-2   -2.181923506975819E-2    4.280807335721357E-2   -2.185727113452214E-2    9.574152530216610E-1    1.888292998882499E-2
 1.463064890150622E6     9.574813491079682E-1    1.872860656162605E-2    4.270102035130043E-2   -2.173235631108173E-2    4.271246893305007E-2   -2.177089017211861E-2    9.575088252060873E-1    1.880109419347295E-2
 1.474227874305625E6     9.575546480358563E-1    1.863750055109865E-2    4.261405579458924E-2   -2.164593449303091E-2    4.262527587993064E-2   -2.168320285508817E-2    9.575931309572263E-1    1.869014481401177E-2
 1.485476030496454E6     9.576300673547889E-1    1.850088869783151E-2    4.252301976862766E-2   -2.156236130720062E-2    4.253159710759348E-2   -2.159915727890948E-2    9.576820114057046E-1    1.857615555899293E-2
 1.496810008574050E6     9.577484102822474E-1    1.841865670435783E-2    4.243220354928395E-2   -2.147972337707388E-2    4.244404369194840E-2   -2.151309247554062E-2    9.577477770511088E-1    1.847248252367001E-2
 1.508230463347619E6     9.578227960746576E-1    1.828986549732170E-2    4.234500145058362E-2   -2.139800514625698E-2    4.235361044006426E-2   -2.142740527859923E-2    9.578074263273004E-1    1.836346527809956E-2
 1.519738054622472E6     9.579425325184723E-1    1.822669335374056E-2    4.225638826318431E-2   -2.130970964232323E-2    4.226491357257617E-2   -2.134777295728656E-2    9.578875087524401E-1    1.824770306076017E-2
 1.531333447238147E6     9.580145364778019E-1    1.810972335021300E-2    4.216496372828691E-2   -2.122583065901492E-2    4.217139141275168E-2   -2.125954071177396E-2    9.579927955495554E-1    1.814563565964337E-2
 1.543017311106810E6     9.581095544623879E-1    1.799218600928161E-2    4.207670872696585E-2   -2.114343784606069E-2    4.208379822514275E-2   -2.117607266319914E-2    9.580719910640648E-1    1.805637580269656E-2
 1.554790321251977E6     9.581933275505339E-1    1.790626266201913E-2    4.198855412744448E-2   -2.106057483807178E-2    4.199593281988380E-2   -2.109280325513214E-2    9.582241906547774E-1    1.797187217857189E-2
 1.566653157847488E6     9.582748200784563E-1    1.778484297024486E-2    4.189733457564868E-2   -2.097949513052637E-2    4.190260636267196E-2   -2.101218597626147E-2    9.582897509409654E-1    1.785282185367208E-2
 1.578606506256824E6     9.583714707404111E-1    1.766723617157790E-2    4.180524681382067E-2   -2.089643952284803E-2    4.181405460169890E-2   -2.092634063071539E-2    9.583519458598997E-1    1.775917693259298E-2
 1.590651057072690E6     9.584734233140254E-1    1.757861402762180E-2    4.171827179972010E-2   -2.081126926657392E-2    4.172343627751491E-2   -2.084302867342332E-2    9.584774181998340E-1    1.766406044325660E-2
 1.602787506156919E6     9.585554399361251E-1    1.748405074052662E-2    4.162617915960935E-2   -2.073114195818009E-2    4.163240697473369E-2   -2.075948495967268E-2    9.585672374991892E-1    1.756663298977520E-2
 1.615016554680682E6     9.586226632687026E-1    1.739515413808990E-2    4.153331290774565E-2   -2.064365480817535E-2    4.154517676892636E-2   -2.067674818981514E-2    9.586268563728938E-1    1.745390222322506E-2
 1.627338909164981E6     9.587404759084409E-1    1.729352347581747E-2    4.144744894052549E-2   -2.056393144829067E-2    4.145656023188965E-2   -2.059427983479665E-2    9.587379577902826E-1    1.737011234142529E-2
 1.639755281521474E6     9.588127113023535E-1    1.718573141965788E-2    4.135754904496985E-2   -2.048097736241919E-2    4.136538130251107E-2   -2.051444995769953E-2    9.588399990400948E-1    1.724181661473450E-2
 1.652266389093622E6     9.588927496625403E-1    1.706314164434215E-2    4.126776258659689E-2   -2.040005945464363E-2    4.127652098152679E-2   -2.043058026243923E-2    9.589426615412630E-1    1.716292291040102E-2
 1.664872954698102E6     9.589577850674493E-1    1.696324198050288E-2    4.118060654383055E-2   -2.031693041465772E-2    4.118400365928106E-2   -2.034679836732743E-2    9.590059474897359E-1    1.703439324191513E-2
 1.677575706666590E6     9.590534779373537E-1    1.685444665786980E-2    4.108960767313443E-2   -2.023625824988253E-2    4.109530157127038E-2   -2.026173755035223E-2    9.590628885172148E-1    1.691299819947151E-2
 1.690375378887833E6     9.591408594781996E-1    1.673621945721297E-2    4.099834855903544E-2   -2.015519484636718E-2    4.100825419882782E-2   -2.017907077888770E-2    9.591494576744030E-1    1.681251816626458E-2
 1.703272710850043E6     9.592266271662875E-1    1.664532784907285E-2    4.090988172763700E-2   -2.006989458199630E-2    4.091914521238658E-2   -2.009955461443287E-2    9.592397543185276E-1    1.671593141488359E-2
 1.716268447683636E6     9.593293047049373E-1    1.654685716178001E-2    4.082400690202672E-2   -1.998443787478828E-2    4.083039736857277E-2   -2.001451296953392E-2    9.593172697919482E-1    1.660307918981479E-2
 1.729363340204262E6     9.594130204703785E-1    1.644722565780449E-2    4.073425886647817E-2   -1.990130027263427E-2    4.074259976423942E-2   -1.993218436571504E-2    9.594093801996860E-1    1.648114214851100E-2
 1.742558144956193E6     9.595037342231805E-1    1.633497571072557E-2    4.064724740255406E-2   -1.981880624521483E-2    4.065568270333569E-2   -1.984760039410317E-2    9.595035519331869E-1    1.638577224236281E-2
 1.755853624256030E6     9.595350182314591E-1    1.620885725843720E-2    4.056256619405554E-2   -1.973637684928273E-2    4.057221168574621E-2   -1.976302007295532E-2    9.595874432286088E-1    1.628765409517819E-2
 1.769250546236744E6     9.596421226350361E-1    1.610882621048009E-2    4.047770696174863E-2   -1.965205660881771E-2    4.048649646225048E-2   -1.968104115586709E-2    9.596846013666992E-1    1.617752948053392E-2
 1.782749684892061E6     9.597130603612065E-1    1.599306520970678E-2    4.038843466070082E-2   -1.957269730392673E-2    4.039948235028624E-2   -1.959474405030060E-2    9.597836941855993E-1    1.606299583264442E-2
 1.796351820121167E6     9.597946548026262E-1    1.589809425774806E-2    4.030360819175896E-2   -1.948791278395133E-2    4.031449535779617E-2   -1.951177818031412E-2    9.598434125694106E-1    1.595108419099031E-2
 1.810057737773773E6     9.598556356889577E-1    1.577995181930726E-2    4.021419610196496E-2   -1.940282851662979E-2    4.022593968505257E-2   -1.943236012376808E-2    9.599069972951154E-1    1.584571874472530E-2
 1.823868229695514E6     9.599892707539435E-1    1.568189800151876E-2    4.013178987866663E-2   -1.932035462474975E-2    4.014095552196019E-2   -1.934730783628255E-2    9.599583232658291E-1    1.571843179474574E-2
 1.837784093773698E6     9.600391887832013E-1    1.556446222222477E-2    4.005037991927368E-2   -1.923987389462197E-2    4.006142982804059E-2   -1.926312266014945E-2    9.600802675046811E-1    1.562405436708688E-2
 1.851806133983411E6     9.601362505698726E-1    1.546535550418152E-2    3.996772586654396E-2   -1.915752070900276E-2    3.997626049450206E-2   -1.918170073053496E-2    9.601999551167653E-1    1.553108778133072E-2
 1.865935160433950E6     9.602003885661472E-1    1.535073966321169E-2    3.988188956865573E-2   -1.907320966436925E-2    3.988912802826910E-2   -1.909671801814783E-2    9.602536539825668E-1    1.542855608426525E-2
 1.880171989415638E6     9.602663024768398E-1    1.524739695267938E-2    3.980102205627586E-2   -1.899285897142543E-2    3.981128655966405E-2   -1.901515986359817E-2    9.603349651809001E-1    1.531149569039382E-2
 1.894517443446981E6     9.603594321791793E-1    1.514685924571303E-2    3.971736859424718E-2   -1.890942855941436E-2    3.972680736109901E-2   -1.893333161637907E-2    9.603764589662697E-1    1.520689389248307E-2
 1.908972351322182E6     9.604371567137252E-1    1.502260141425725E-2    3.963803311210551E-2   -1.882738477632384E-2    3.964475856786422E-2   -1.884787056103357E-2    9.604637844075641E-1    1.510107362546569E-2
 1.923537548159045E6     9.604940195154477E-1    1.491431083905778E-2    3.956231008887959E-2   -1.874837517912630E-2    3.956476967296507E-2   -1.876759814220994E-2    9.605061480394476E-1    1.498818383390925E-2
 1.938213875447196E6     9.605627576140300E-1    1.479570259035810E-2    3.948008638011435E-2   -1.866796859493335E-2    3.948263976519202E-2   -1.868776779060219E-2    9.606080731500642E-1    1.487528145357780E-2
 1.953002181096708E6     9.606219169956196E-1    1.469257140121500E-2    3.939781628006998E-2   -1.858661685401013E-2    3.940453169765770E-2   -1.860645367102284E-2    9.607122194879850E-1    1.477619917287607E-2
 1.967903319487111E6     9.607020130378424E-1    1.458884386514380E-2    3.931524744827551E-2   -1.850801175429205E-2    3.932804780401027E-2   -1.852549940449506E-2    9.607721644903056E-1    1.467047791161219E-2
 1.982918151516703E6     9.607920510110303E-1    1.449102171040544E-2    3.923422493721686E-2   -1.842571699219395E-2    3.924708525076009E-2   -1.844458654755985E-2    9.608607736842988E-1    1.456765505795406E-2
 1.998047544652348E6     9.608744148133463E-1    1.437790712941444E-2    3.915773511731888E-2   -1.834782498882641E-2    3.916652329616310E-2   -1.836399286058734E-2    9.609155410628534E-1    1.445029773081546E-2
 2.013292372979546E6     9.609234954859406E-1    1.426896984490061E-2    3.907751010667784E-2   -1.827056725118054E-2    3.908659117317637E-2   -1.828657886070525E-2    9.609993366179482E-1    1.433923313989264E-2
 2.028653517252947E6     9.610013352953344E-1    1.415684638518727E-2    3.899945527804519E-2   -1.819178944557829E-2    3.900923301364529E-2   -1.820875986505393E-2    9.610906160697620E-1    1.424453536247006E-2
 2.044131864947255E6     9.610554600486866E-1    1.405078564250239E-2    3.891891139795645E-2   -1.811225917517188E-2    3.892723842898993E-2   -1.812845805135775E-2    9.611639460688045E-1    1.412942035606394E-2
 2.059728310308467E6     9.611216676004578E-1    1.394662851273224E-2    3.883959526826185E-2   -1.802941361870122E-2    3.885142659584465E-2   -1.804875500798342E-2    9.612689721001932E-1    1.401923749438122E-2
 2.075443754405562E6     9.612068469699458E-1    1.384807135582099E-2    3.876183452477817E-2   -1.795795900887568E-2    3.877332775570901E-2   -1.797115345928922E-2    9.613419333687804E-1    1.392246854416707E-2
 2.091279105182548E6     9.612981587480404E-1    1.374543674944973E-2    3.868612157782346E-2   -1.787893462875078E-2    3.869409699909043E-2   -1.789398008101650E-2    9.613911457385175E-1    1.381098698726971E-2
 2.107235277510921E6     9.613776040947853E-1    1.364422076846357E-2    3.861160834617636E-2   -1.780289687453702E-2    3.861077188826199E-2   -1.781837094070154E-2    9.614578832887216E-1    1.371804073195673E-2
 2.123313193242529E6     9.614558424802824E-1    1.353779255080676E-2    3.852898077772261E-2   -1.772540607488411E-2    3.853283162939267E-2   -1.773929114569408E-2    9.615488884520554E-1    1.360226568251136E-2
 2.139513781262815E6     9.614953998633814E-1    1.343835883527370E-2    3.845200408929852E-2   -1.764813121925593E-2    3.845514872413724E-2   -1.765939923493102E-2    9.616355226464489E-1    1.350632847563271E-2
 2.155837977544490E6     9.616387631387852E-1    1.332829646253888E-2    3.837200927338760E-2   -1.756982896949214E-2    3.837293901001829E-2   -1.757954919155093E-2    9.616640781615140E-1    1.341211485256967E-2
 2.172286725201612E6     9.617108246264466E-1    1.322873610648397E-2    3.829138389281762E-2   -1.749013602004839E-2    3.829255085762929E-2   -1.750488550136384E-2    9.617242004047361E-1    1.330899736838926E-2
 2.188860974544063E6     9.617750201532951E-1    1.312650322826470E-2    3.821400929163499E-2   -1.741495868505864E-2    3.821750421637204E-2   -1.742571605679073E-2    9.618327353157928E-1    1.318441499036764E-2
 2.205561683132472E6     9.618402390273132E-1    1.302928705304734E-2    3.813028003456122E-2   -1.734083768325904E-2    3.813969348566842E-2   -1.735171351166488E-2    9.619353983318240E-1    1.307256836400280E-2
 2.222389815833514E6     9.618857737510118E-1    1.290754069229598E-2    3.805531550331031E-2   -1.726362199970333E-2    3.806061994638481E-2   -1.726907699669418E-2    9.620229869793256E-1    1.296130116496988E-2
 2.239346344875663E6     9.619865671410804E-1    1.281065303280610E-2    3.797602655518392E-2   -1.718805364093701E-2    3.798188907755371E-2   -1.719084873818695E-2    9.620647096505118E-1    1.285951972433629E-2
 2.256432249905369E6     9.620746694415665E-1    1.272132169723282E-2    3.789849177816623E-2   -1.710880179950533E-2    3.789811509277114E-2   -1.710878538799604E-2    9.621105259742181E-1    1.274907121359297E-2
 2.273648518043640E6     9.621279329977868E-1    1.261527501640722E-2    3.781836667211284E-2   -1.703134258519510E-2    3.782255799202051E-2   -1.702906616729336E-2    9.621774847151986E-1    1.265368829501387E-2
 2.290996143943099E6     9.622026680774451E-1    1.250593567730344E-2    3.774075686678942E-2   -1.695225905300116E-2    3.774638119788619E-2   -1.694772374109657E-2    9.622139147289208E-1    1.254001732251536E-2
 2.308476129845417E6     9.623156508657554E-1    1.241173198658805E-2    3.766542097629128E-2   -1.687897838874266E-2    3.766975666861668E-2   -1.686818486387414E-2    9.623306698003893E-1    1.243780069905112E-2
 2.326089485639235E6     9.623674427604325E-1    1.230328538013631E-2    3.759112571783697E-2   -1.679932688173763E-2    3.759521077993211E-2   -1.679052777096211E-2    9.624047521432835E-1    1.233808949909695E-2
 2.343837228918507E6     9.624832027650072E-1    1.219495658391773E-2    3.751070574635635E-2   -1.672045348213654E-2    3.752229733318755E-2   -1.670717592580998E-2    9.624865970770768E-1    1.222605971609056E-2
 2.361720385041283E6     9.625083768725072E-1    1.206812306831220E-2    3.743119240236131E-2   -1.664224050876250E-2    3.744622115719892E-2   -1.663104896413145E-2    9.625482624600495E-1    1.211178152074079E-2
 2.379739987188969E6     9.625911214438921E-1    1.197843533543396E-2    3.735706902660661E-2   -1.656256860349295E-2    3.737190180672507E-2   -1.654975884044635E-2    9.625893578770445E-1    1.201256687670029E-2
 2.397897076425990E6     9.626878602483813E-1    1.184766177519012E-2    3.727989561975917E-2   -1.648792641820015E-2    3.730035525800211E-2   -1.647087934780645E-2    9.626834242650577E-1    1.188818891605460E-2
 2.416192701759947E6     9.627255181898717E-1    1.175450026264031E-2    3.720714250710851E-2   -1.640509719148487E-2    3.722738000222607E-2   -1.639236443190632E-2    9.627831580667749E-1    1.177640900580382E-2
 2.434627920202243E6     9.628202278183082E-1    1.162700777349531E-2    3.713186037118781E-2   -1.632917407761792E-2    3.715623411278277E-2   -1.631218748072328E-2    9.628327075947263E-1    1.167226022599927E-2
 2.453203796829114E6     9.629135020202788E-1    1.151801261739757E-2    3.705620217682380E-2   -1.624889977031721E-2    3.708355581534092E-2   -1.623817288093501E-2    9.629098616405967E-1    1.154040484607117E-2
 2.471921404843189E6     9.629838466973575E-1    1.142069264633874E-2    3.698372581726367E-2   -1.617049225393482E-2    3.701085809014720E-2   -1.616043875255764E-2    9.629755674502102E-1    1.145327345607326E-2
 2.490781825635486E6     9.630558410991457E-1    1.129595024300165E-2    3.691370966117170E-2   -1.609286415729515E-2    3.694125713375662E-2   -1.608507975158968E-2    9.630513699604304E-1    1.133425337403579E-2
 2.509786148847881E6     9.632042516150854E-1    1.028915532739353E-2    3.708963932103513E-2   -1.582377027546033E-2    3.687007615275534E-2   -1.630029969756448E-2    9.632646316627795E-1    1.121536367591724E-2
 2.528935472436085E6     9.632440649494094E-1    1.026442363763226E-2    3.702126775923471E-2   -1.572048531263560E-2    3.677606445803795E-2   -1.625614414054320E-2    9.633064086918045E-1    1.094941400840497E-2
 2.548230902733043E6     9.634040245287994E-1    1.050461656298035E-2    3.694994263627573E-2   -1.563850898705836E-2    3.670363710964383E-2   -1.618339389183454E-2    9.634226694069049E-1    1.099948819980593E-2
 2.567673554512876E6     9.634230833202877E-1    1.010493687294345E-2    3.688085347707118E-2   -1.556740088673644E-2    3.663130024997717E-2   -1.610028268027944E-2    9.634734768419440E-1    1.094891507631777E-2
 2.587264551055275E6     9.634987383999515E-1    9.917694840548989E-3    3.680923784488290E-2   -1.548307244172689E-2    3.656806921971959E-2   -1.601748788998612E-2    9.635055349826053E-1    1.066063075174906E-2
 2.607005024210399E6     9.635217085756447E-1    9.706633848274006E-3    3.674176895177633E-2   -1.540971885649477E-2    3.650921927920872E-2   -1.592054638909644E-2    9.636107768660792E-1    1.071738356623371E-2
 2.626896114464281E6     9.636737081369204E-1    9.650709271638037E-3    3.667094253997491E-2   -1.534079807607555E-2    3.645097819859639E-2   -1.584608824786093E-2    9.637195184322851E-1    1.081113186747623E-2
 2.646938971004693E6     9.636649112408709E-1    9.358380809206854E-3    3.660010799275970E-2   -1.526362619315566E-2    3.638230762300367E-2   -1.577281575570876E-2    9.637857106756497E-1    1.060056156360348E-2
 2.667134751787555E6     9.637406690283653E-1    9.400466396527266E-3    3.652233480116444E-2   -1.519654663621654E-2    3.631944149897440E-2   -1.568022624008066E-2    9.638495120623211E-1    1.049850256746921E-2
 2.687484623603833E6     9.637828381515815E-1    9.096670717726003E-3    3.646007455470976E-2   -1.511733732547658E-2    3.625027194618798E-2   -1.560558155834057E-2    9.639592223054064E-1    1.039933304570845E-2
 2.707989762146940E6     9.638550700905745E-1    9.078156018775178E-3    3.638565860518425E-2   -1.504790815179461E-2    3.618262974946674E-2   -1.553269151266639E-2    9.639750911703312E-1    1.013305949845267E-2
 2.728651352080688E6     9.638974233400603E-1    9.024464624635176E-3    3.632135906412298E-2   -1.496325232794399E-2    3.612844476279442E-2   -1.544485929941430E-2    9.640581099758124E-1    1.021303192491610E-2
 2.749470587107692E6     9.640128675679968E-1    8.942366000045497E-3    3.625183020278905E-2   -1.489366726263230E-2    3.606093745626779E-2   -1.536599034433263E-2    9.640578924987714E-1    9.805996668950531E-3
 2.770448670038360E6     9.640596120951629E-1    8.746247991934308E-3    3.617230446139082E-2   -1.482855721488984E-2    3.599410561214001E-2   -1.528754534578152E-2    9.641290947545503E-1    9.709316817545824E-3
 2.791586812860380E6     9.640763643971326E-1    8.611008507754319E-3    3.610368080802195E-2   -1.475009661451357E-2    3.592639833290003E-2   -1.520544600358330E-2    9.641785603922379E-1    9.589757850967443E-3
 2.812886236808732E6     9.642332013621832E-1    8.659557157465836E-3    3.604119342568457E-2   -1.466769097089501E-2    3.586146789162829E-2   -1.512810310106264E-2    9.643067703144154E-1    9.520313104008872E-3
 2.834348172436268E6     9.642587640983914E-1    8.386466258065193E-3    3.596535076442212E-2   -1.460433217108906E-2    3.579731848354577E-2   -1.504078903576587E-2    9.644040103231202E-1    9.585297686692458E-3
 2.855973859684773E6     9.643316137563346E-1    8.210663740993262E-3    3.589487285108955E-2   -1.453265949082672E-2    3.573100203947722E-2   -1.496793143667325E-2    9.644312420012308E-1    9.360413291315390E-3
 2.877764547956619E6     9.643665674727481E-1    8.004715011898190E-3    3.583622967831642E-2   -1.444442117604824E-2    3.566086817506954E-2   -1.489866861426873E-2    9.644571216035837E-1    9.088777707861500E-3
 2.899721496186967E6     9.644767671643941E-1    8.113873807999411E-3    3.576797382468565E-2   -1.437949504639455E-2    3.560421731565401E-2   -1.480998959862465E-2    9.645813184757962E-1    9.139177517185439E-3
 2.921845972916440E6     9.645840581583077E-1    7.975696701496957E-3    3.570027802764999E-2   -1.429558218268962E-2    3.554044589747019E-2   -1.473289825901805E-2    9.646080958327676E-1    8.938096625690208E-3
 2.944139256364495E6     9.647182130865387E-1    8.170418337864962E-3    3.563786050599093E-2   -1.421665672148862E-2    3.547790373958208E-2   -1.465391553466647E-2    9.647188076071059E-1    8.959337458805994E-3
 2.966602634503201E6     9.647549282839393E-1    7.888538102275867E-3    3.555487174899103E-2   -1.415356129211127E-2    3.540916895645477E-2   -1.457692432345175E-2    9.648210254469708E-1    8.836206214881175E-3
 2.989237405131679E6     9.648037017990136E-1    7.787384165852744E-3    3.548847739285763E-2   -1.408000018425741E-2    3.533966780650167E-2   -1.449810142539413E-2    9.649139810688667E-1    8.933492586167399E-3
 3.012044875951098E6     9.647254457023395E-1    7.869925452211230E-3    3.543921528404186E-2   -1.408944228521398E-2    3.534392239075586E-2   -1.426744904344168E-2    9.650190113349159E-1    8.705840078349514E-3
 3.035026364640187E6     9.649003637372240E-1    7.901069829850334E-3    3.538103905888597E-2   -1.400620841361712E-2    3.527211119480300E-2   -1.419923311974362E-2    9.650389745689808E-1    8.607482675696830E-3
 3.058183198931389E6     9.649232909169826E-1    7.684094376492941E-3    3.531095966366612E-2   -1.393045640440437E-2    3.520613731204653E-2   -1.412238851138812E-2    9.650993136777336E-1    8.366217606702432E-3
 3.081516716687564E6     9.648809605787529E-1    7.390192211405366E-3    3.524766691933925E-2   -1.385307396321025E-2    3.514458401085722E-2   -1.404086831835086E-2    9.651778107061197E-1    8.342581645362342E-3
 3.105028265979277E6     9.650437910659934E-1    7.557480912445916E-3    3.517921584995928E-2   -1.378444227469010E-2    3.508551486495954E-2   -1.396820795530389E-2    9.651492836116056E-1    8.030934022506474E-3
 3.128719205162701E6     9.650352756236316E-1    7.205278291879065E-3    3.511152558957688E-2   -1.370986156307201E-2    3.501765772930259E-2   -1.389057423808285E-2    9.652668365543577E-1    7.946201172207628E-3
 3.152590902958065E6     9.650325396992814E-1    6.885303774953565E-3    3.504189751144939E-2   -1.364027314898583E-2    3.495332586906882E-2   -1.381810927698708E-2    9.653088248260706E-1    7.870405021568378E-3
 3.176644738528751E6     9.651742053544881E-1    6.960946060995817E-3    3.498643571569689E-2   -1.356101569140431E-2    3.489560549311795E-2   -1.373939313595611E-2    9.653466070457798E-1    7.623277318481410E-3
 3.200882101560967E6     9.652248384090222E-1    6.856769620247280E-3    3.492704282372553E-2   -1.347880443811825E-2    3.482973908486170E-2   -1.366412194965670E-2    9.654257673490622E-1    7.512934540089103E-3
 3.225304392344028E6     9.653668820712377E-1    6.981520140350015E-3    3.486653849442414E-2   -1.340087127954429E-2    3.476773726522524E-2   -1.358503818508858E-2    9.655003217119575E-1    7.408570190581342E-3
 3.249913021851289E6     9.654294325904005E-1    6.772908315072820E-3    3.480121148728654E-2   -1.332450747149091E-2    3.470430467635988E-2   -1.350934106406028E-2    9.656162193265354E-1    7.574795597883760E-3
 3.274709411821612E6     9.654170803027921E-1    6.354436501690795E-3    3.473622860068036E-2   -1.326507143644186E-2    3.464965072301396E-2   -1.343096794846308E-2    9.656019581812737E-1    7.205064357183192E-3
 3.299694994841541E6     9.654824282942507E-1    6.391035082317952E-3    3.467466800361520E-2   -1.317973389627822E-2    3.458533572513188E-2   -1.336320034542334E-2    9.656390843477048E-1    6.987053095044425E-3
 3.324871214428060E6     9.656165154031440E-1    6.248130738012150E-3    3.461248317017243E-2   -1.308423561038150E-2    3.449900652687252E-2   -1.332207719398801E-2    9.657045965997824E-1    6.902128576621088E-3
 3.350239525111979E6     9.656299671641589E-1    6.132895992823217E-3    3.455208011621113E-2   -1.300815993136803E-2    3.444384541782312E-2   -1.324013792107797E-2    9.657971118480704E-1    6.834669092977503E-3
 3.375801392522001E6     9.656955858656502E-1    6.040297847731085E-3    3.448777315816043E-2   -1.294108125649432E-2    3.437975090327116E-2   -1.316856207190034E-2    9.657795148660133E-1    6.576200200477043E-3
 3.401558293469354E6     9.657448279404611E-1    5.815306537728731E-3    3.442340232793861E-2   -1.289480259960940E-2    3.433177804285514E-2   -1.306928363102233E-2    9.658021110843343E-1    6.378066754238056E-3
 3.427511716033138E6     9.658424100259019E-1    5.856815380102800E-3    3.436303462471429E-2   -1.281702490282093E-2    3.427497100425844E-2   -1.299338609045203E-2    9.657874472644784E-1    6.113874119121088E-3
 3.453663159646295E6     9.659125996873550E-1    5.519255103697863E-3    3.430025787816746E-2   -1.275018275427169E-2    3.421174280072301E-2   -1.292311270787150E-2    9.659409692510983E-1    6.134193520953875E-3
 3.480014135182226E6     9.659246496377571E-1    5.368890315860456E-3    3.423643015267500E-2   -1.267141314914679E-2    3.414372886978171E-2   -1.285873136248715E-2    9.659819068308073E-1    5.951801241083940E-3
 3.506566165042107E6     9.660438876742766E-1    5.579399077715273E-3    3.418149285543489E-2   -1.261827656155748E-2    3.410925813494765E-2   -1.275243723423622E-2    9.661328754420394E-1    6.001283476823599E-3
 3.533320783242811E6     9.661293902216219E-1    5.535838449136609E-3    3.411702939938129E-2   -1.253761147011627E-2    3.404379655503201E-2   -1.268287824082861E-2    9.662686546271202E-1    6.105389201941851E-3
 3.560279535505542E6     9.661339204422879E-1    5.338662584307586E-3    3.406139199628420E-2   -1.246440756716522E-2    3.398707793043120E-2   -1.261015901794837E-2    9.662582245161661E-1    5.857664571699391E-3
 3.587443979345170E6     9.661665144843201E-1    5.159004137974888E-3    3.399938679642805E-2   -1.239276038504249E-2    3.393274239561667E-2   -1.252739352708665E-2    9.662670687938365E-1    5.668981215618597E-3
 3.614815684160168E6     9.662398660507129E-1    4.798786332737066E-3    3.393168152743004E-2   -1.232306748144223E-2    3.386981732344939E-2   -1.245590998415520E-2    9.663031404386511E-1    5.390325484677362E-3
 3.642396231323309E6     9.663031646647944E-1    4.706044764813008E-3    3.387773000741912E-2   -1.224995729550306E-2    3.380395762608666E-2   -1.239090955599829E-2    9.662851030822204E-1    5.093954523715026E-3
 3.670187214273024E6     9.664534120632119E-1    4.653564745092596E-3    3.380331769395367E-2   -1.206656406817095E-2    3.368345709774870E-2   -1.246998241597078E-2    9.663774918011396E-1    5.245514307055821E-3
 3.698190238605455E6     9.665044557486741E-1    4.377110654006303E-3    3.374268659398252E-2   -1.199148207726922E-2    3.361351677099848E-2   -1.240052221751903E-2    9.663617312564081E-1    4.965034826632620E-3
 3.726406922167240E6     9.665869445122895E-1    4.270064422935245E-3    3.369011575955003E-2   -1.191900010084918E-2    3.356060480886185E-2   -1.232811566350946E-2    9.664579966235439E-1    4.846031851499305E-3
 3.754838895148946E6     9.666414925500255E-1    4.117554655551135E-3    3.362717723408297E-2   -1.184573359267070E-2    3.350259349106351E-2   -1.224765676953743E-2    9.666010628876549E-1    4.893555578815187E-3
 3.783487800179276E6     9.666686302661064E-1    4.150349622934355E-3    3.357394122107118E-2   -1.179402700332854E-2    3.345343269086944E-2   -1.211550647162874E-2    9.665769235334425E-1    4.622888714265310E-3
 3.812355292419964E6     9.667401536473968E-1    4.046233313066755E-3    3.352486410303985E-2   -1.171968317128894E-2    3.339323881737431E-2   -1.204847021470490E-2    9.666577530552906E-1    4.499028231979333E-3
 3.841443039661395E6     9.667765926110023E-1    3.831780237664985E-3    3.346223216123496E-2   -1.165169603519610E-2    3.333674049509380E-2   -1.197141577909229E-2    9.667695199701737E-1    4.564033237434024E-3
 3.870752722418987E6     9.668294553376849E-1    3.733983242069876E-3    3.339783500568656E-2   -1.157685673291849E-2    3.327809218169107E-2   -1.189862323930365E-2    9.667830392573041E-1    4.408965317935212E-3
 3.900286034030236E6     9.668435017391934E-1    3.743860769778942E-3    3.334497160620355E-2   -1.150097929944621E-2    3.321800328703468E-2   -1.183045048392371E-2    9.668871082735533E-1    4.256877465212382E-3
 3.930044680752580E6     9.669040351779946E-1    3.532875949826289E-3    3.328955045261676E-2   -1.142137947055840E-2    3.315562414951816E-2   -1.175797308322311E-2    9.667694430474372E-1    3.807219407109193E-3
 3.960030381861967E6     9.670142848663765E-1    3.304293930298520E-3    3.323000035767505E-2   -1.135749506840267E-2    3.310350018663610E-2   -1.168466478671091E-2    9.668515413288560E-1    3.566375087681692E-3
 3.990244869752173E6     9.670253707470632E-1    3.226402861339125E-3    3.316963250235484E-2   -1.127843368780043E-2    3.304409664169115E-2   -1.161499293080501E-2    9.669935077523963E-1    3.775679256810512E-3
 4.020689890034929E6     9.670367948953418E-1    3.271210825106371E-3    3.312338646166813E-2   -1.125702702890486E-2    3.302720267196115E-2   -1.145574396955437E-2    9.670135813221491E-1    3.416106427194036E-3
 4.051367201640718E6     9.671417091488285E-1    3.352679850888513E-3    3.306776139797088E-2   -1.118950503324456E-2    3.296267209248878E-2   -1.138304799140928E-2    9.670173279053248E-1    3.312893227663151E-3
 4.082278576920427E6     9.671842862221941E-1    3.095040997954281E-3    3.301199250486552E-2   -1.111135596655408E-2    3.291497763857248E-2   -1.130312498776751E-2    9.671759401831068E-1    3.367423778379494E-3
 4.113425801747740E6     9.672557121641222E-1    3.013096421337246E-3    3.295570671013491E-2   -1.103347605310149E-2    3.286112996858948E-2   -1.123434091024612E-2    9.672055630923078E-1    3.208327317272337E-3
 4.144810675622302E6     9.672772635576765E-1    2.931954961006380E-3    3.289638724181133E-2   -1.096258856721071E-2    3.280447018706716E-2   -1.116073318760935E-2    9.672430544011377E-1    2.990014082936510E-3
 4.176435011773718E6     9.673222218486280E-1    2.868741793339464E-3    3.284208813673618E-2   -1.088628669153155E-2    3.275132269585195E-2   -1.108453515413025E-2    9.672905735127609E-1    2.895966550699105E-3
 4.208300637266261E6     9.673858558031189E-1    2.586512399790018E-3    3.278122403572035E-2   -1.081807203820259E-2    3.269416951271401E-2   -1.101021107352688E-2    9.673583076616108E-1    2.767772578462224E-3
 4.240409393104453E6     9.674076862966751E-1    2.470630079427797E-3    3.272339392541083E-2   -1.074378422376821E-2    3.264393098567913E-2   -1.093137857490617E-2    9.674691601516968E-1    2.749864197619335E-3
 4.272763134339464E6     9.675121418799627E-1    2.346712087492514E-3    3.268011673147001E-2   -1.066340572886390E-2    3.258528323119709E-2   -1.085775012244340E-2    9.674931243031308E-1    2.581338389353560E-3
 4.305363730176185E6     9.675785632538643E-1    2.160803397605604E-3    3.262746338051375E-2   -1.060349535453987E-2    3.252775686928074E-2   -1.079020749438819E-2    9.675265105394565E-1    2.414232531874825E-3
 4.338213064081349E6     9.676559734256706E-1    2.039334691433795E-3    3.256336812953350E-2   -1.050092304454454E-2    3.246063690664891E-2   -1.073318102070689E-2    9.676565658097964E-1    2.423259298655181E-3
 4.371313033892244E6     9.676797606960699E-1    1.819660985527136E-3    3.250327460824434E-2   -1.042986944668616E-2    3.240407582586038E-2   -1.066502753222533E-2    9.676901084506342E-1    2.262711307133865E-3
 4.404665551926396E6     9.677449228926656E-1    1.802088460784320E-3    3.244756243527256E-2   -1.036178395612279E-2    3.234515375060100E-2   -1.059470458159281E-2    9.677126269768656E-1    2.045734192410289E-3
 4.438272545092077E6     9.678417060466001E-1    1.621739726900804E-3    3.239095196452751E-2   -1.028722408745864E-2    3.229320540574889E-2   -1.052808500406397E-2    9.678177107071829E-1    1.987541930077625E-3
 4.472135954999580E6     9.678590545312602E-1    1.499622839619982E-3    3.233475171472429E-2   -1.022097753157431E-2    3.224226639785024E-2   -1.044099353297436E-2    9.679421200900404E-1    1.993157033053505E-3
 4.506257738073424E6     9.679038329684106E-1    1.399464496409422E-3    3.227915898812634E-2   -1.014458505210857E-2    3.218907656915344E-2   -1.037208707213285E-2    9.680168801285872E-1    1.936176656723592E-3
 4.540639865665382E6     9.679628229838055E-1    1.360148705171152E-3    3.223494800969293E-2   -1.008687833647336E-2    3.215166031374018E-2   -1.026909668450438E-2    9.680515035411743E-1    1.679889999909064E-3
 4.575284324168356E6     9.680603186067031E-1    1.185648278937914E-3    3.218222295073224E-2   -1.002008921953988E-2    3.209869755677564E-2   -1.019256019368056E-2    9.681095544861131E-1    1.587945000626640E-3
 4.610193115131186E6     9.680964758240802E-1    9.800605750255045E-4    3.211371188897619E-2   -9.885199195372276E-3    3.200454398325876E-2   -1.021895163287158E-2    9.681176797534725E-1    1.253476744481390E-3
 4.645368255374223E6     9.681235792091297E-1    7.868507172829748E-4    3.205890687795288E-2   -9.807808345625427E-3    3.194626133669783E-2   -1.014641921750340E-2    9.680242453857812E-1    8.799443597446695E-4
 4.680811777105891E6     9.681627849936336E-1    6.470515253048369E-4    3.200738678539627E-2   -9.732795658669975E-3    3.189275993417092E-2   -1.007152763157962E-2    9.681191847788576E-1    6.748003765344093E-4
 4.716525728040087E6     9.682526125048496E-1    4.858079176283111E-4    3.195300691777613E-2   -9.670674570857839E-3    3.184673924675167E-2   -9.997962057294280E-3    9.682248675016544E-1    7.465647609499401E-4
 4.752512171514469E6     9.683268173837921E-1    3.508831437741914E-4    3.190656024033895E-2   -9.582619589952754E-3    3.179171253432077E-2   -9.921034507944773E-3    9.683532146790103E-1    1.045474903086025E-3
 4.788773186609713E6     9.683120023883434E-1    2.021823852810037E-4    3.184840905072094E-2   -9.512178443326328E-3    3.174390706808129E-2   -9.847619343915448E-3    9.683734704579693E-1    6.854605802890454E-4
 4.825310868269563E6     9.684227224351354E-1   -1.715684353751812E-5    3.178529410189247E-2   -9.422700123329183E-3    3.168376334409277E-2   -9.837493284651912E-3    9.684421852488900E-1    6.732499571951297E-4
 4.862127327421905E6     9.684893044309869E-1   -1.211433495099827E-4    3.173874133241193E-2   -9.336699494222179E-3    3.163752962233510E-2   -9.758275406020325E-3    9.685813129757553E-1    6.458038507485643E-4
 4.899224691100715E6     9.685328405165897E-1   -2.569589882695080E-4    3.168950325519040E-2   -9.257878444409999E-3    3.158288625721553E-2   -9.683811890026836E-3    9.686220534316072E-1    4.614610098220798E-4
 4.936605102568937E6     9.685569619105624E-1   -3.939819041017520E-4    3.162962724728354E-2   -9.193054417460985E-3    3.153778486148975E-2   -9.600589877715501E-3    9.686311497143359E-1    4.661122132282213E-4
 4.974270721442348E6     9.685757790941256E-1   -5.132978825057255E-4    3.158096953182978E-2   -9.114439910106431E-3    3.148519244244331E-2   -9.529788656851388E-3    9.687323008857404E-1    3.148919179441293E-4
 5.012223723814265E6     9.686716757195865E-1   -6.253906775399668E-4    3.153350890030061E-2   -9.038633776713059E-3    3.143041833871154E-2   -9.462042996157905E-3    9.687115044727455E-1   -4.639528805323979E-5
 5.050466302381308E6     9.687009315233265E-1   -7.783049792711422E-4    3.147784079950639E-2   -8.959485156823505E-3    3.137673585122565E-2   -9.390471279260092E-3    9.687732622706178E-1   -1.452343387754924E-4
 5.089000666570071E6     9.687018971317970E-1   -9.583707294916852E-4    3.142848250461940E-2   -8.887743727262093E-3    3.133363164440149E-2   -9.311214529664808E-3    9.688330020941697E-1   -2.235063720894638E-4
 5.127829042664761E6     9.687664840855100E-1   -1.088042392080170E-3    3.138457768158718E-2   -8.809738854697439E-3    3.128512100578634E-2   -9.240661889888226E-3    9.688928720123641E-1   -5.070400293424634E-4
 5.166953673935857E6     9.688410549067037E-1   -1.249251365727218E-3    3.133413101653408E-2   -8.730708516845228E-3    3.123566333742915E-2   -9.164320128550632E-3    9.689337417428011E-1   -6.439476716936220E-4
 5.206376820769652E6     9.688975494082250E-1   -1.353356823445799E-3    3.127924527385319E-2   -8.659677739610117E-3    3.118343471729432E-2   -9.092244488415502E-3    9.689881822199888E-1   -7.533814312020603E-4
 5.246100760798878E6     9.689652334638499E-1   -1.506561324082221E-3    3.122652687556661E-2   -8.592419265717010E-3    3.112908805782476E-2   -9.025827943330560E-3    9.690251715178674E-1   -8.180846814116835E-4
 5.286127789034322E6     9.690451716790246E-1   -1.657864671745330E-3    3.118033992534902E-2   -8.506538852287115E-3    3.107811092465131E-2   -8.949016287150228E-3    9.690863838682904E-1   -7.383548077011339E-4
 5.326460217997355E6     9.690388216116308E-1   -1.464780082520367E-3    3.115708128512688E-2   -8.553174488723746E-3    3.110873727875190E-2   -8.683007787411396E-3    9.691320246085563E-1   -1.252589990482505E-3
 5.367100377853584E6     9.690607037443399E-1   -1.617896045115566E-3    3.110036742983364E-2   -8.479692718805245E-3    3.105750729594374E-2   -8.609691984636783E-3    9.691469781693196E-1   -1.524792791724346E-3
 5.408050616547454E6     9.690938828940833E-1   -1.762760588150210E-3    3.105471336043811E-2   -8.401942959120978E-3    3.100946253413494E-2   -8.530606879154173E-3    9.693084889352249E-1   -1.392545045310046E-3
 5.449313299937895E6     9.691465978431819E-1   -1.941588718444766E-3    3.101089710049738E-2   -8.324170811959936E-3    3.096057623832261E-2   -8.455834817567901E-3    9.692504901179804E-1   -1.653303291761745E-3
 5.490890811935049E6     9.691899049803610E-1   -2.351354094137784E-3    3.093206763383282E-2   -8.137552349856152E-3    3.084028797150707E-2   -8.577901856279622E-3    9.693146406574129E-1   -1.825541764720976E-3
 5.532785554637930E6     9.692247784755733E-1   -2.531191778491459E-3    3.088047494026949E-2   -8.061473419603589E-3    3.079133724435312E-2   -8.497689442975031E-3    9.693561906204543E-1   -1.808230586497962E-3
 5.574999948473252E6     9.692769494429334E-1   -2.377539675278996E-3    3.085990914153085E-2   -8.100822034021822E-3    3.081167600730704E-2   -8.237514900265390E-3    9.693698358972750E-1   -2.237564093891007E-3
 5.617536432335250E6     9.692689249002761E-1   -2.513314331345527E-3    3.081102450965830E-2   -8.025216489602206E-3    3.076778965759139E-2   -8.155348539510649E-3    9.694078816130351E-1   -2.366733212784744E-3
 5.660397463726575E6     9.693251863561229E-1   -2.652201568184328E-3    3.076393037829469E-2   -7.948830385104461E-3    3.072408007453976E-2   -8.082770805420636E-3    9.694559405912977E-1   -2.580808991744904E-3
 5.703585518900323E6     9.694517745546204E-1   -3.123186529922395E-3    3.068999744447529E-2   -7.756540821260102E-3    3.060621263949089E-2   -8.198735503580955E-3    9.695584510249813E-1   -2.641504150751147E-3
 5.747103093003022E6     9.695061228995550E-1   -3.261947147907120E-3    3.064447386935844E-2   -7.684591878362152E-3    3.055793341479917E-2   -8.127367240802822E-3    9.696155345465953E-1   -2.791521444255316E-3
 5.790952700218840E6     9.695432550285968E-1   -3.418199261859409E-3    3.059378860943614E-2   -7.607628450723760E-3    3.050902827514901E-2   -8.049720294219976E-3    9.696338303311416E-1   -3.027434746053029E-3
 5.835136873914825E6     9.695670468780494E-1   -3.251673591064552E-3    3.057846625690421E-2   -7.649337019175834E-3    3.053114366177065E-2   -7.782541196096684E-3    9.696947477645192E-1   -3.209591190033531E-3
 5.879658166787256E6     9.696189756241912E-1   -3.414552618505234E-3    3.052695614187904E-2   -7.572803800618156E-3    3.048641159726713E-2   -7.701472377363592E-3    9.696961601717269E-1   -3.309722282783956E-3
 5.924519151009166E6     9.696262169203911E-1   -3.558857515856891E-3    3.048126732259477E-2   -7.497592404222768E-3    3.044084735591497E-2   -7.621609150291089E-3    9.698207792780553E-1   -3.422175724435278E-3
 5.969722418378883E6     9.696561845743804E-1   -3.720446253410033E-3    3.043470940397956E-2   -7.419220378223942E-3    3.039784151791522E-2   -7.545954056576220E-3    9.698829265802531E-1   -3.434816125162006E-3
 6.015270580469812E6     9.697320824121014E-1   -3.863460672923184E-3    3.038681207333854E-2   -7.349958919491080E-3    3.034994451195847E-2   -7.470532723143909E-3    9.698578387958959E-1   -3.697529011113761E-3
 6.061166268781302E6     9.697411806717606E-1   -4.005913747892003E-3    3.034029190552764E-2   -7.269556297686676E-3    3.030262433250024E-2   -7.396676742845816E-3    9.699708629705778E-1   -3.897487588719795E-3
 6.107412134890671E6     9.697631396215062E-1   -4.216382014032862E-3    3.029817793093368E-2   -7.179010161599516E-3    3.024323246874751E-2   -7.325888624486100E-3    9.700114949624868E-1   -4.150460522877008E-3
 6.154010850606443E6     9.698465185025223E-1   -4.367936696668286E-3    3.025025859479285E-2   -7.097314937202373E-3    3.019575516718640E-2   -7.242929832347245E-3    9.700365912203597E-1   -4.164947960458789E-3
 6.200965108122637E6     9.699127469185453E-1   -4.555675996524418E-3    3.020583164004293E-2   -7.024426479433969E-3    3.015161677052579E-2   -7.168718047604530E-3    9.700527929623017E-1   -4.430843013702325E-3
 6.248277620174343E6     9.699577704604450E-1   -4.715265751411567E-3    3.015901417566216E-2   -6.949940369314423E-3    3.010793732281593E-2   -7.091693533924893E-3    9.700862218580735E-1   -4.651201437264932E-3
 6.295951120194497E6     9.699843253417489E-1   -4.824073344993371E-3    3.011082897629903E-2   -6.868652623834806E-3    3.006147532010879E-2   -7.016262255697037E-3    9.701123640170768E-1   -4.844264674150269E-3
 6.343988362471664E6     9.700087089437895E-1   -4.978683576715829E-3    3.006479169907665E-2   -6.809209656986077E-3    3.003028496308734E-2   -6.927917725088687E-3    9.701299732297211E-1   -5.052721438320602E-3
 6.392392122309345E6     9.700639716745271E-1   -5.149122142253586E-3    3.002680418029230E-2   -6.730584935285408E-3    2.999157032447000E-2   -6.846169731779622E-3    9.701827009862501E-1   -5.215073426612265E-3
 6.441165196186168E6     9.701268687237214E-1   -5.310408649011751E-3    2.998030807120229E-2   -6.650985853447550E-3    2.994574990027601E-2   -6.768851912507217E-3    9.702449643588232E-1   -5.245528589444972E-3
 6.490310401917514E6     9.701565473658036E-1   -5.471277615264072E-3    2.993746735153247E-2   -6.572368080134974E-3    2.990078619218154E-2   -6.691814383718387E-3    9.702626746164860E-1   -5.401272850205775E-3
 6.539830578818345E6     9.702192540134735E-1   -5.625420452622110E-3    2.989040372441281E-2   -6.500160793397543E-3    2.985651466894618E-2   -6.610989187032030E-3    9.703309325111177E-1   -5.438598143308387E-3
 6.589728587867169E6     9.702401220733948E-1   -5.792233757131784E-3    2.984195343026823E-2   -6.423850891186788E-3    2.981430468778974E-2   -6.534585600656809E-3    9.704121292835829E-1   -5.607749121062917E-3
 6.640007311871376E6     9.702861048371628E-1   -5.969340375877951E-3    2.980151285523314E-2   -6.344208496435987E-3    2.976717648660554E-2   -6.457345684207178E-3    9.704273169196380E-1   -5.794321681044722E-3
 6.690669655633785E6     9.703224160494718E-1   -6.134969537697264E-3    2.975998311470625E-2   -6.272469666896889E-3    2.972695957234949E-2   -6.377962416916546E-3    9.704905055671960E-1   -5.859676581146552E-3
 6.741718546120445E6     9.703526360340392E-1   -6.286291961928469E-3    2.971542803092237E-2   -6.183697932696358E-3    2.968360519035152E-2   -6.299549301835215E-3    9.705249900139259E-1   -6.038832146933832E-3
 6.793156932629797E6     9.704026237871579E-1   -6.478450262808280E-3    2.967351300442199E-2   -6.107063027250824E-3    2.964226531896226E-2   -6.220698416751162E-3    9.705654667397682E-1   -6.229644609607867E-3
 6.844987786962981E6     9.703470387455445E-1   -6.624255490040333E-3    2.962911929114161E-2   -6.031186098703742E-3    2.959864772358598E-2   -6.145314321148890E-3    9.706155075533567E-1   -6.410838807921803E-3
 6.897214103595586E6     9.704275202301891E-1   -6.895096602303866E-3    2.958249610064615E-2   -5.916131060639608E-3    2.952186519698604E-2   -6.099472448689288E-3    9.706482861956702E-1   -6.563188526575369E-3
 6.949838899850640E6     9.704182475042814E-1   -7.037222002190148E-3    2.953858067392499E-2   -5.836587611590913E-3    2.947819021233685E-2   -6.023575290420376E-3    9.707000400131526E-1   -6.697474778837258E-3
 7.002865216072913E6     9.704771657111221E-1   -7.411007211209204E-3    2.947612574616238E-2   -5.702692479455694E-3    2.940132275771513E-2   -6.050893324254659E-3    9.707309230921809E-1   -6.835497445771446E-3
 7.056296115804635E6     9.705203069233540E-1   -7.600881558599613E-3    2.943398115234624E-2   -5.624274586032089E-3    2.936152154855306E-2   -5.973916763844085E-3    9.707436252195809E-1   -7.033776163903695E-3
 7.110134685962399E6     9.705824743387415E-1   -7.789109729563306E-3    2.939296366347682E-2   -5.541123399847363E-3    2.932076437898605E-2   -5.894190713828347E-3    9.707703744212423E-1   -7.191533877662006E-3
 7.164384037015557E6     9.706934175157729E-1   -8.008137554026830E-3    2.934773142057930E-2   -5.463397035755164E-3    2.927795378479429E-2   -5.814376393744587E-3    9.707930100565111E-1   -7.375450016355791E-3
 7.219047303165923E6     9.707157448369272E-1   -8.220177445028488E-3    2.930879536445644E-2   -5.381197998300353E-3    2.923726990056066E-2   -5.732552956709744E-3    9.708144664796734E-1   -7.568461307639361E-3
 7.274127642528819E6     9.707547889456593E-1   -8.327082217895337E-3    2.926392603409765E-2   -5.297545287248636E-3    2.919764468168485E-2   -5.653887427493316E-3    9.708943926988086E-1   -7.704471282618738E-3
 7.329628237315600E6     9.708125949289550E-1   -8.623748548934803E-3    2.921265627812532E-2   -5.196328443386640E-3    2.915627491082071E-2   -5.641656762687370E-3    9.709836001864672E-1   -7.876867839871775E-3
 7.385552294017412E6     9.708507125352707E-1   -8.785747929332439E-3    2.917119922897989E-2   -5.116673477837128E-3    2.911470214798143E-2   -5.563087438674461E-3    9.709833839829957E-1   -8.084857815634826E-3
 7.441903043590503E6     9.708286356001132E-1   -8.641864233777070E-3    2.916353613509204E-2   -5.129937868721588E-3    2.912098849553980E-2   -5.278100461795191E-3    9.710441512510398E-1   -8.328179740325792E-3
 7.498683741642874E6     9.709197697236793E-1   -8.830532569178077E-3    2.912772477786868E-2   -5.047954563079323E-3    2.908102418476630E-2   -5.195284369936882E-3    9.710845742397384E-1   -8.505551752265507E-3
 7.555897668622349E6     9.709499169268064E-1   -9.236111180139494E-3    2.906193449487335E-2   -4.894874117593131E-3    2.899368760077818E-2   -5.252712014364577E-3    9.710772854419952E-1   -8.669437449928123E-3
 7.613548130006171E6     9.709962700647786E-1   -9.444187367423399E-3    2.901999223777958E-2   -4.808406230355743E-3    2.895641999000787E-2   -5.171875023234533E-3    9.711780667735643E-1   -8.846701512221880E-3
 7.671638456491867E6     9.711667920239881E-1   -9.812708374521360E-3    2.894272069927136E-2   -4.681929345595879E-3    2.894422059959293E-2   -5.263335162987331E-3    9.712045899780717E-1   -8.990205177239464E-3
 7.730172004189732E6     9.711763991871798E-1   -1.000243452427316E-2    2.890216073864044E-2   -4.600014355208214E-3    2.890656381072032E-2   -5.182900241999012E-3    9.712311630099926E-1   -9.190255221615580E-3
 7.789152154816771E6     9.712744486633278E-1   -1.018690955091708E-2    2.886224440375462E-2   -4.517778379281775E-3    2.886982614071479E-2   -5.098636224424516E-3    9.712260550764830E-1   -9.359486007875135E-3
 7.848582315891974E6     9.711386788274098E-1   -1.017800019672245E-2    2.885933357015063E-2   -4.481767299206425E-3    2.879705315409864E-2   -4.843282844195235E-3    9.713290202231957E-1   -9.564816580476081E-3
 7.908465920933248E6     9.711524768306714E-1   -1.039523929373471E-2    2.881831344541536E-2   -4.397496073602561E-3    2.875793401355754E-2   -4.765735322741159E-3    9.713613651090847E-1   -9.759899681166240E-3
 7.968806429655775E6     9.712208400165139E-1   -1.057669328060892E-2    2.877901137790411E-2   -4.316221523545894E-3    2.872101611776608E-2   -4.681934529832285E-3    9.714212830223607E-1   -9.941368064492214E-3
 8.029607328171868E6     9.712699703958979E-1   -1.077749030982199E-2    2.873708355140126E-2   -4.232557468014339E-3    2.867813533910977E-2   -4.598265357518457E-3    9.714444053262830E-1   -1.012576134159463E-2
 8.090872129192449E6     9.713272488400092E-1   -1.095275749944056E-2    2.869940494418639E-2   -4.149334130282344E-3    2.864154869811487E-2   -4.514189673714909E-3    9.714355874908825E-1   -1.033044174826069E-2
 8.152604372229892E6     9.713126541637471E-1   -1.115021010020011E-2    2.865894415756229E-2   -4.066933524168278E-3    2.860262202320383E-2   -4.433541298352912E-3    9.714678272069739E-1   -1.054576989624509E-2
 8.214807623802581E6     9.714086160140458E-1   -1.137374354436179E-2    2.862136710648270E-2   -3.982322219962890E-3    2.856661959816992E-2   -4.346319304514245E-3    9.715050098789575E-1   -1.070339300938821E-2
 8.277485477640945E6     9.714110901656938E-1   -1.154974776135112E-2    2.858036134828985E-2   -3.897912311400195E-3    2.852827556641335E-2   -4.267262309125256E-3    9.714913675549919E-1   -1.093350688814076E-2
 8.340641554895067E6     9.714298415888784E-1   -1.176866742800083E-2    2.854452844775921E-2   -3.811314859461206E-3    2.849163374474110E-2   -4.182227667799640E-3    9.716035734035474E-1   -1.110838795587954E-2
 8.404279504343957E6     9.714989536604213E-1   -1.194757248100095E-2    2.850712716130911E-2   -3.727808725315731E-3    2.845733029595054E-2   -4.099323505532752E-3    9.716213999015818E-1   -1.130731798800504E-2
 8.468403002606256E6     9.714698504330475E-1   -1.215056379084293E-2    2.846388713307813E-2   -3.643025022557063E-3    2.841748886398580E-2   -4.016020174326732E-3    9.716789073443656E-1   -1.152593436163637E-2
 8.533015754352720E6     9.715246879432647E-1   -1.227212603468613E-2    2.844694379540982E-2   -3.589654041980653E-3    2.839323326397101E-2   -3.856211588474750E-3    9.717045755925113E-1   -1.175546540200691E-2
 8.598121492520234E6     9.715428592458176E-1   -1.246475700357162E-2    2.840668608060169E-2   -3.501798618766271E-3    2.835520937348873E-2   -3.771843652727318E-3    9.717665146177437E-1   -1.192305605395412E-2
 8.663723978527457E6     9.717463268522011E-1   -1.296348834575338E-2    2.831752030627840E-2   -3.345499335954162E-3    2.835222189301030E-2   -3.944382019612707E-3    9.717637880504625E-1   -1.209444723755025E-2
 8.729827002492212E6     9.718119351735497E-1   -1.316125494205939E-2    2.827814078344314E-2   -3.259994936129359E-3    2.831301884349533E-2   -3.859792014047529E-3    9.717820110548196E-1   -1.231246120057219E-2
 8.796434383450346E6     9.718002336800637E-1   -1.337472751405614E-2    2.824124857724218E-2   -3.173750875280715E-3    2.827961395286187E-2   -3.775750130254002E-3    9.718353534647020E-1   -1.253091966403053E-2
 8.863549969576446E6     9.718254701355444E-1   -1.348570734496269E-2    2.822805914871250E-2   -3.108061183769677E-3    2.820500829785059E-2   -3.584907228029304E-3    9.718358430776792E-1   -1.273378847729694E-2
 8.931177638406139E6     9.718160134090099E-1   -1.369589655387981E-2    2.819016303970817E-2   -3.019571702675641E-3    2.817113676350817E-2   -3.500115394420747E-3    9.719427043293160E-1   -1.292598725434700E-2
 8.999321297060097E6     9.718501415071615E-1   -1.390721483305282E-2    2.815524078195174E-2   -2.935866774775342E-3    2.813487501029539E-2   -3.413126868189498E-3    9.718992466972372E-1   -1.314666977079428E-2
 9.067984882469844E6     9.718890264321807E-1   -1.410920961223316E-2    2.811953445499041E-2   -2.844762927429440E-3    2.809831942146290E-2   -3.326660948444988E-3    9.719655260710642E-1   -1.336641335667509E-2
 9.137172361605095E6     9.719104906113225E-1   -1.432421101838586E-2    2.808413862839854E-2   -2.756397296917683E-3    2.806322001802220E-2   -3.240601214445075E-3    9.719803189845956E-1   -1.357107432585031E-2
 9.206887731702998E6     9.719026233461040E-1   -1.426948934285967E-2    2.808828201196573E-2   -2.738373979305252E-3    2.804437470212733E-2   -2.955722656157521E-3    9.720531110940992E-1   -1.382744614952252E-2
 9.277135020499127E6     9.719701009776207E-1   -1.451296659673331E-2    2.805549126257843E-2   -2.651856782275436E-3    2.801026576207261E-2   -2.870777075931284E-3    9.721037930401817E-1   -1.404089096589386E-2
 9.347918286460072E6     9.720262157333844E-1   -1.470706889054324E-2    2.801657685296016E-2   -2.562883043458231E-3    2.797571017893461E-2   -2.781884129956855E-3    9.721093430425364E-1   -1.422912483848379E-2
 9.419241619017981E6     9.720386084974210E-1   -1.493411135783652E-2    2.798117911710194E-2   -2.472411477045823E-3    2.794053625539995E-2   -2.694330508315541E-3    9.722218235247049E-1   -1.446749403822663E-2
 9.491109138806809E6     9.720173030093627E-1   -1.515923901983165E-2    2.794885546645743E-2   -2.386572690006750E-3    2.790583463407874E-2   -2.606349217969460E-3    9.722110139890889E-1   -1.468492600510893E-2
 9.563524997900363E6     9.720639306417184E-1   -1.539173347999594E-2    2.791176874975607E-2   -2.300685858930907E-3    2.787134717677658E-2   -2.518951123636468E-3    9.721922408666911E-1   -1.489338643866082E-2
 9.636493380052259E6     9.720997383092705E-1   -1.556244844666384E-2    2.787822458047823E-2   -2.211429803965941E-3    2.783790947593234E-2   -2.431574114101657E-3    9.723183762001232E-1   -1.514729344849565E-2
 9.710018500937525E6     9.721197067705999E-1   -1.581278580255683E-2    2.784374176058857E-2   -2.125673405247274E-3    2.780250279983184E-2   -2.340852327428018E-3    9.723101284386160E-1   -1.537157706682051E-2
 9.784104608396223E6     9.721743909151794E-1   -1.624287925814701E-2    2.778143761708406E-2   -1.989800326518972E-3    2.774951004047932E-2   -2.378188100329322E-3    9.723756411486917E-1   -1.553016341923132E-2
 9.858755982678859E6     9.722283888271427E-1   -1.644816071410772E-2    2.774637110769246E-2   -1.903013089458213E-3    2.771529175670181E-2   -2.290543522242173E-3    9.723364288188449E-1   -1.574402760137762E-2
 9.933976936693633E6     9.722324554580671E-1   -1.664695296997772E-2    2.771023617408831E-2   -1.810091813721610E-3    2.768216005731525E-2   -2.199661130842512E-3    9.723906503930183E-1   -1.595622883897115E-2
 1.000977181625571E7     9.722936834869029E-1   -1.692388915948315E-2    2.767776713477576E-2   -1.723658736546225E-3    2.765023458405911E-2   -2.111024612757996E-3    9.724501984867250E-1   -1.617880862375962E-2
 1.008614500033817E7     9.723298806994409E-1   -1.713270038996148E-2    2.764439305550452E-2   -1.630355442121064E-3    2.761566528212742E-2   -2.019913682503218E-3    9.724501342282066E-1   -1.640582394352770E-2
 1.016310090132507E7     9.723492343208469E-1   -1.736274470253820E-2    2.760860703938622E-2   -1.542049124494013E-3    2.758378336218086E-2   -1.931178209680723E-3    9.724725323504192E-1   -1.664838837778757E-2
 1.024064396526634E7     9.723284784788448E-1   -1.741104015347980E-2    2.760455979619609E-2   -1.499159111397716E-3    2.757078479592983E-2   -1.714659950645527E-3    9.725180087074848E-1   -1.692787292789388E-2
 1.031877867213467E7     9.723933171838894E-1   -1.765522652689695E-2    2.757168417482185E-2   -1.408440828991623E-3    2.753756371683017E-2   -1.622755821001616E-3    9.725125842861546E-1   -1.717641433521273E-2
 1.039750953608436E7     9.724367408130034E-1   -1.787468592325651E-2    2.753706394701984E-2   -1.316832109179310E-3    2.750767161152790E-2   -1.531100462212075E-3    9.725942901780756E-1   -1.738695112557628E-2
 1.047684110571204E7     9.724430242427312E-1   -1.809938435137322E-2    2.750513172322004E-2   -1.226423037842876E-3    2.747498237835426E-2   -1.438093743189356E-3    9.726076225705810E-1   -1.762188921294065E-2
 1.055677796431950E7     9.724348282847877E-1   -1.835659112040485E-2    2.747721913856352E-2   -1.135093278113094E-3    2.744302319496379E-2   -1.346694105396347E-3    9.726385143998509E-1   -1.785203600657682E-2
 1.063732473017859E7     9.726432550869063E-1   -1.892098695264925E-2    2.737062533226948E-2   -9.640916252315374E-4    2.745276042099171E-2   -1.569287876496729E-3    9.726336050800952E-1   -1.805326806435922E-2
 1.071848605679777E7     9.726578059095492E-1   -1.920177890435974E-2    2.733836596463096E-2   -8.732415807111418E-4    2.742231628246783E-2   -1.477685683191927E-3    9.726555069576707E-1   -1.828898876826531E-2
 1.080026663319129E7     9.726323155528338E-1   -1.933482989974467E-2    2.733102858720792E-2   -7.972011764256234E-4    2.734518057106374E-2   -1.271798778361259E-3    9.727527470599470E-1   -1.850909004154227E-2
 1.088267118414987E7     9.726724563689193E-1   -1.959824587159910E-2    2.729827032195910E-2   -7.030032415678598E-4    2.731604170577721E-2   -1.179002265314230E-3    9.728096803366824E-1   -1.875276263164979E-2
 1.096570447051370E7     9.727789412682913E-1   -1.990832743086736E-2    2.724112464076859E-2   -5.930025089611815E-4    2.733343733108875E-2   -1.198279133826446E-3    9.727578582032991E-1   -1.900586408236956E-2
 1.104937128944762E7     9.727968683378500E-1   -2.014726740508671E-2    2.721169157883320E-2   -4.986697398268596E-4    2.730635111025912E-2   -1.105734629032735E-3    9.728188814647888E-1   -1.923984183128334E-2
 1.113367647471805E7     9.728481756004007E-1   -2.040282206508685E-2    2.718337867739605E-2   -4.026620185303811E-4    2.727597726660251E-2   -1.012446302367027E-3    9.728305115226511E-1   -1.949608549507909E-2
 1.121862489697252E7     9.727167866632574E-1   -2.022004064815900E-2    2.724181791393413E-2   -4.282505451376122E-4    2.723892229582963E-2   -5.196873561984860E-4    9.728721663774093E-1   -1.981797845366463E-2
 1.130422146402085E7     9.727143008007465E-1   -2.044684397168182E-2    2.721278878485408E-2   -3.297250107911692E-4    2.720474201310139E-2   -4.253328391123908E-4    9.728431173519890E-1   -2.010611922048820E-2
 1.139047112111875E7     9.727591379670137E-1   -2.068879078441133E-2    2.718243155608678E-2   -2.292565462070493E-4    2.717562233713655E-2   -3.264665378138509E-4    9.728760338341910E-1   -2.033728345838435E-2
 1.147737885125368E7     9.727832089423705E-1   -2.094198876385773E-2    2.715107311792152E-2   -1.302919399333923E-4    2.714697325193274E-2   -2.287197681740036E-4    9.729684045861997E-1   -2.058083825029040E-2
 1.156494967543242E7     9.728429044913168E-1   -2.120138956792737E-2    2.712380278214713E-2   -3.131337515393281E-5    2.711673833580225E-2   -1.304068164805731E-4    9.729590759709967E-1   -2.085594704904064E-2
 1.165318865297152E7     9.728432600939259E-1   -2.151958489962577E-2    2.708573798272456E-2    8.225277158062805E-5    2.707611977869693E-2   -4.687408974071239E-5    9.729802138701200E-1   -2.105986400149413E-2
 1.174210088178934E7     9.730191698264736E-1   -2.215166547489858E-2    2.696696836976099E-2    2.856282498390123E-4    2.707735764850846E-2   -3.368642293969389E-4    9.730118053930213E-1   -2.123039456472419E-2
 1.183169149870061E7     9.730421661494089E-1   -2.243279649077311E-2    2.693815006091771E-2    3.818600596086582E-4    2.705129712190354E-2   -2.403764238673716E-4    9.730372094901217E-1   -2.148884408938793E-2
 1.192196567971337E7     9.730574228256461E-1   -2.268179717798682E-2    2.690897740763624E-2    4.834291186597816E-4    2.702601592204847E-2   -1.440548402362592E-4    9.730548207976829E-1   -2.176404722158544E-2
 1.201292864032780E7     9.731431052376142E-1   -2.294632387922757E-2    2.687759983047134E-2    5.812334783901157E-4    2.699894630427986E-2   -4.478200112384206E-5    9.731070468520135E-1   -2.200235699151830E-2
 1.210458563583766E7     9.731701870836222E-1   -2.322171192893301E-2    2.685147745860638E-2    6.793939071942204E-4    2.697167153125164E-2    5.043392484994588E-5    9.730944301827367E-1   -2.230128641592281E-2
 1.219694196163385E7     9.731579151968568E-1   -2.348257547986092E-2    2.682291080621502E-2    7.786543327885522E-4    2.694386561576226E-2    1.511428367598197E-4    9.730985625803233E-1   -2.257110107066583E-2
 1.229000295351040E7     9.730474615954423E-1   -2.349019961116272E-2    2.685675835483693E-2    8.291311141967528E-4    2.684243904637413E-2    5.351188454986492E-4    9.731560507515373E-1   -2.285622877744277E-2
 1.238377398797275E7     9.730959192589891E-1   -2.376033666000555E-2    2.683093466925714E-2    9.293888302175967E-4    2.681537202261870E-2    6.367282441195191E-4    9.731901739535986E-1   -2.312682746278162E-2
 1.247826048254829E7     9.730877147862163E-1   -2.405340875603277E-2    2.680172950651601E-2    1.031283057185494E-3    2.678695949635169E-2    7.375598395298261E-4    9.732005914979721E-1   -2.339269808846619E-2
 1.257346789609938E7     9.731813312875590E-1   -2.409239924478112E-2    2.681790930376313E-2    1.052902819629792E-3    2.681739690905756E-2    9.746369274603251E-4    9.731898955799445E-1   -2.374336701896105E-2
 1.266940172913885E7     9.731759190596613E-1   -2.436851340566340E-2    2.679058602901667E-2    1.155362796409832E-3    2.679158186302355E-2    1.076734260546883E-3    9.732375094050281E-1   -2.403963848567093E-2
 1.276606752414753E7     9.731925672485039E-1   -2.463727553870829E-2    2.676309600553611E-2    1.257297940717667E-3    2.676650062118250E-2    1.180298380224528E-3    9.732665166967874E-1   -2.429553932493293E-2
 1.286347086589479E7     9.732231038964094E-1   -2.493483151333292E-2    2.673532714613075E-2    1.356620874216426E-3    2.673820769071062E-2    1.283552073682226E-3    9.732361984456509E-1   -2.459836756825268E-2
 1.296161738176090E7     9.732458040648136E-1   -2.523734017685928E-2    2.671047257163816E-2    1.459433789874750E-3    2.671270698809621E-2    1.386930593676961E-3    9.732663419651547E-1   -2.486708259843090E-2
 1.306051274206230E7     9.732352917016185E-1   -2.551060739846126E-2    2.668098249078563E-2    1.561846020978759E-3    2.668677779212811E-2    1.489101084549600E-3    9.733233848382714E-1   -2.515470245734718E-2
 1.316016266037924E7     9.732483915310147E-1   -2.578134305562431E-2    2.665789285678037E-2    1.662804618702338E-3    2.666104765455198E-2    1.594862398740060E-3    9.733320873106491E-1   -2.541028230946443E-2
 1.326057289388563E7     9.732776656249287E-1   -2.615617878826010E-2    2.661755870960975E-2    1.794036167868407E-3    2.661648475650193E-2    1.674596625810512E-3    9.733897411863365E-1   -2.566636278909705E-2
 1.336174924368203E7     9.732742918168893E-1   -2.643831410226855E-2    2.659586215283201E-2    1.897225192046567E-3    2.658650645996167E-2    1.778606080326846E-3    9.733867691786863E-1   -2.594336893998894E-2
 1.346369755513046E7     9.732919291970932E-1   -2.669644714528064E-2    2.657855424779832E-2    1.972226720251448E-3    2.658666872166672E-2    1.910397887282431E-3    9.733929114602312E-1   -2.625860622581518E-2
 1.356642371819227E7     9.733434132064906E-1   -2.698419553366970E-2    2.655474750415688E-2    2.076702473357369E-3    2.656186587842927E-2    2.016271371505569E-3    9.734057635059246E-1   -2.655720384179737E-2
 1.366993366776852E7     9.733876476056975E-1   -2.729795519445780E-2    2.652925772586245E-2    2.181996930344249E-3    2.653590303532012E-2    2.123382237419658E-3    9.734055250579619E-1   -2.688471417975446E-2
 1.377423338404255E7     9.733912489931681E-1   -2.756388291747381E-2    2.650588130197851E-2    2.290532582672756E-3    2.650952600394027E-2    2.230524533283875E-3    9.734141459804224E-1   -2.716351198687921E-2
 1.387932889282586E7     9.733721484427686E-1   -2.818175757365431E-2    2.641090320487207E-2    2.488086720130080E-3    2.643983077567851E-2    2.100486590196990E-3    9.734742677686323E-1   -2.737180388450040E-2
 1.398522626590596E7     9.735555864665263E-1   -2.867034884536469E-2    2.634087519989308E-2    2.616868497671579E-3    2.651061822251148E-2    2.008354353704912E-3    9.735085154505436E-1   -2.764864205769353E-2
 1.409193162139728E7     9.735921522249664E-1   -2.896762116335870E-2    2.631594993552050E-2    2.722866111160493E-3    2.648847671767254E-2    2.116331452722052E-3    9.735255022891786E-1   -2.793945286864936E-2
 1.419945112409473E7     9.734816241332007E-1   -2.913056572000359E-2    2.633716200829218E-2    2.813102054681642E-3    2.637453154982244E-2    2.420997585404701E-3    9.735632609114848E-1   -2.825635817798997E-2
 1.430779098582953E7     9.735088758796631E-1   -2.941906780885566E-2    2.631283516735747E-2    2.922441209234647E-3    2.635029998259633E-2    2.531610052580086E-3    9.735857679349313E-1   -2.857941377883739E-2
 1.441695746582855E7     9.735104167681603E-1   -2.973956118110983E-2    2.628851612054963E-2    3.031600139738935E-3    2.632793654930904E-2    2.640324145790980E-3    9.736277475280436E-1   -2.886890649354372E-2
 1.452695687107559E7     9.735435761861512E-1   -3.004460728682010E-2    2.626385628224323E-2    3.141077096647501E-3    2.630726429191995E-2    2.750734688926789E-3    9.736260250431450E-1   -2.916467638271531E-2
 1.463779555667585E7     9.736203398634911E-1   -3.035100223143621E-2    2.624236314066328E-2    3.251975211097834E-3    2.628411704563548E-2    2.860906212653947E-3    9.736472626393141E-1   -2.946579470678522E-2
 1.474947992622320E7     9.735863867965669E-1   -3.064145533857553E-2    2.621690799832553E-2    3.361540126939056E-3    2.626225551290725E-2    2.972456679093649E-3    9.736899673767554E-1   -2.977476924851009E-2
 1.486201643216998E7     9.735618980343523E-1   -3.084381725208945E-2    2.623324064898879E-2    3.439431919050057E-3    2.623732489976894E-2    3.235767684593471E-3    9.736979782884111E-1   -3.012329147849963E-2
 1.497541157619987E7     9.736122593036858E-1   -3.131251069845194E-2    2.617202231233898E-2    3.579313264236246E-3    2.621908085044991E-2    3.195204381104075E-3    9.737080502458993E-1   -3.039863644669223E-2
 1.508967190960350E7     9.736127066495960E-1   -3.167010843069892E-2    2.615022689350333E-2    3.687576449542696E-3    2.619996830354127E-2    3.307473263326271E-3    9.737074742508331E-1   -3.074264074264881E-2
 1.520480403365694E7     9.736237515138880E-1   -3.200454328174801E-2    2.612625337004008E-2    3.796261299727812E-3    2.617889742936350E-2    3.420492384114234E-3    9.737440157172150E-1   -3.104364343982684E-2
 1.532081460000315E7     9.736180395691035E-1   -3.237198069086817E-2    2.610469037853875E-2    3.902283283371193E-3    2.615912704807724E-2    3.532555203754948E-3    9.737572541259968E-1   -3.137558464172040E-2
 1.543771031103615E7     9.737342326234115E-1   -3.270741339046029E-2    2.608419088763807E-2    4.014236038525517E-3    2.613763617959902E-2    3.646267878424782E-3    9.737806366753697E-1   -3.171731132535664E-2
 1.555549792028828E7     9.736949117867917E-1   -3.306898906868734E-2    2.606045484774591E-2    4.123741270356065E-3    2.611975687716317E-2    3.761495266985463E-3    9.738084914029902E-1   -3.201482166720467E-2
 1.567418423282054E7     9.736679753272042E-1   -3.331790827131944E-2    2.607846143159064E-2    4.203590751570376E-3    2.608945787375237E-2    4.031412060240339E-3    9.737972868268112E-1   -3.237622065582097E-2
 1.579377610561541E7     9.736917371001061E-1   -3.371952921139986E-2    2.605813977766521E-2    4.326751034809004E-3    2.606865003636833E-2    4.149597012327266E-3    9.737755685327744E-1   -3.274142612463980E-2
 1.591428044797338E7     9.737132793558205E-1   -3.404053969327430E-2    2.603946646149137E-2    4.455085835038260E-3    2.604966236516543E-2    4.266086369295438E-3    9.737895061866626E-1   -3.307735282917323E-2
 1.603570422191187E7     9.736974622419263E-1   -3.441416121795520E-2    2.601868766425885E-2    4.570397431647193E-3    2.603032191810714E-2    4.382634217799986E-3    9.738150942739406E-1   -3.340853902800571E-2
 1.615805444256752E7     9.737409234023430E-1   -3.475452330331484E-2    2.599701687441057E-2    4.688934725350885E-3    2.600946226269350E-2    4.502464878617426E-3    9.738459295928559E-1   -3.372960025616138E-2
 1.628133817860163E7     9.737073754430047E-1   -3.509826384973457E-2    2.597714840097224E-2    4.809045903504539E-3    2.599133023733220E-2    4.621075903975971E-3    9.738634788596845E-1   -3.406589168121723E-2
 1.640556255260818E7     9.737267881757519E-1   -3.551081264657872E-2    2.594039699377163E-2    4.943539556481577E-3    2.596943858820554E-2    4.680823840661424E-3    9.738857865375642E-1   -3.441499255796835E-2
 1.653073474152580E7     9.737577299094732E-1   -3.586964489142882E-2    2.592380945707197E-2    5.061826340071777E-3    2.595279824803015E-2    4.800427088893277E-3    9.738983465019891E-1   -3.475829613508660E-2
 1.665686197705204E7     9.738146827674701E-1   -3.621086773773990E-2    2.590507807745048E-2    5.181846446108873E-3    2.593473938322959E-2    4.921035849542567E-3    9.738782699249219E-1   -3.509621449999799E-2
 1.678395154606132E7     9.738054420941351E-1   -3.655722827116347E-2    2.588540771314968E-2    5.305846779554836E-3    2.591602033201697E-2    5.040608195085956E-3    9.738674416193592E-1   -3.547282594316187E-2
 1.691201079102603E7     9.738266925082174E-1   -3.700497790178152E-2    2.584274294120693E-2    5.446107833192196E-3    2.591814004435324E-2    5.063116200631326E-3    9.739011980946338E-1   -3.579573036911438E-2
 1.704104711044038E7     9.738294127898444E-1   -3.737898850518676E-2    2.582330612065214E-2    5.567367007606808E-3    2.590146255470232E-2    5.186026582301615E-3    9.739020907000540E-1   -3.612080664632786E-2
 1.717106795924834E7     9.738381986472870E-1   -3.770797258888049E-2    2.580512610982529E-2    5.690259648436348E-3    2.588489972706667E-2    5.308892283585852E-3    9.739550115694220E-1   -3.650233309727814E-2
 1.730208084927390E7     9.739896324925301E-1   -3.823326846567155E-2    2.574161356752799E-2    5.821119825758306E-3    2.599765055570337E-2    5.226862201349085E-3    9.739527866437332E-1   -3.683163145708230E-2
 1.743409334965526E7     9.738718508241170E-1   -3.848085437788157E-2    2.577070498878561E-2    5.937984194748395E-3    2.585447384556928E-2    5.553876924444240E-3    9.739547960006294E-1   -3.720718280053526E-2
 1.756711308728221E7     9.738818956162246E-1   -3.886062396792542E-2    2.575288631594114E-2    6.063726061894829E-3    2.583866526480026E-2    5.678316296005823E-3    9.739481096871916E-1   -3.758453400830241E-2
 1.770114774723655E7     9.738926244823342E-1   -3.919309310807743E-2    2.573589560490444E-2    6.188472306369672E-3    2.582336105514638E-2    5.804387488647031E-3    9.739819595518775E-1   -3.793170136576283E-2
 1.783620507323623E7     9.738915094136343E-1   -3.931104521696376E-2    2.580327957595441E-2    6.241668655317668E-3    2.581674310160615E-2    6.200232216044482E-3    9.739409962079545E-1   -3.840261723016461E-2
 1.797229286808272E7     9.738533319186460E-1   -3.976512835886245E-2    2.576910629349178E-2    6.392351463420098E-3    2.578347004625210E-2    6.295288823570180E-3    9.739935567551957E-1   -3.872779320398930E-2
 1.810941899411174E7     9.738546943675130E-1   -4.008049472618457E-2    2.577056235225851E-2    6.499680500449973E-3    2.578414362184661E-2    6.457845217984385E-3    9.739705701975120E-1   -3.914761039164984E-2
 1.824759137364766E7     9.739010799232602E-1   -4.048437974267165E-2    2.575683730484499E-2    6.626554811796683E-3    2.576923633074074E-2    6.585035588945535E-3    9.739585997778528E-1   -3.954425633428325E-2
 1.838681798946100E7     9.739257051141318E-1   -4.083113580397098E-2    2.573977018385076E-2    6.755700381161208E-3    2.575417991102185E-2    6.715454006784752E-3    9.739797335943584E-1   -3.989546337499058E-2
 1.852710688522972E7     9.739444360491383E-1   -4.159089578666215E-2    2.561897447887979E-2    6.957305611595510E-3    2.578123644724294E-2    6.484076304104899E-3    9.740281521022559E-1   -4.013986470099517E-2
 1.866846616600409E7     9.738884607089896E-1   -4.190696092437457E-2    2.562309137678206E-2    7.082382440858445E-3    2.572507729607802E-2    6.699457808235804E-3    9.740256881718865E-1   -4.056279542878123E-2
 1.881090399867451E7     9.739149747180812E-1   -4.204153420841055E-2    2.568600550553409E-2    7.156261424344431E-3    2.570136814900117E-2    7.091600480767945E-3    9.740007849664030E-1   -4.103596687479633E-2
 1.895442861244394E7     9.739057112223531E-1   -4.246681887153794E-2    2.567222015879557E-2    7.287906187205428E-3    2.568792324818534E-2    7.223221503901145E-3    9.739893000582839E-1   -4.144779199531017E-2
 1.909904829930285E7     9.739128696019863E-1   -4.285887489981949E-2    2.565890226900840E-2    7.420772148003243E-3    2.567410201413214E-2    7.357895086890097E-3    9.740286049902949E-1   -4.178866468244209E-2
 1.924477141450845E7     9.739193418118869E-1   -4.327674652294428E-2    2.564578290279437E-2    7.554456026554195E-3    2.566160332965595E-2    7.493796273900203E-3    9.740408627919263E-1   -4.221349227686365E-2
 1.939160637706759E7     9.738824919043061E-1   -4.367452568993856E-2    2.563035358268540E-2    7.685951923691300E-3    2.564804114379125E-2    7.626710657584634E-3    9.740206464181238E-1   -4.261155504743291E-2
 1.953956167022271E7     9.739132828695640E-1   -4.409179371198634E-2    2.561594755912501E-2    7.821672513504026E-3    2.563671876474496E-2    7.761919712406835E-3    9.740371213551705E-1   -4.299760893668148E-2
 1.968864584194249E7     9.739175418203926E-1   -4.454386982299563E-2    2.559169702911600E-2    7.964476822818079E-3    2.561436116430407E-2    7.874614633632307E-3    9.740119208421765E-1   -4.341934301105741E-2
 1.983886750541528E7     9.739543000361628E-1   -4.523477046364615E-2    2.548699836018936E-2    8.140668485162834E-3    2.567891293182545E-2    7.676091006483323E-3    9.740504368878269E-1   -4.373457366003435E-2
 1.999023533954688E7     9.739378569975611E-1   -4.566511285955199E-2    2.547408840326595E-2    8.268060939015146E-3    2.566885858975036E-2    7.812248354974139E-3    9.740592129202466E-1   -4.415092362107383E-2
 2.014275808946211E7     9.739426590236280E-1   -4.609123890244664E-2    2.545884798825220E-2    8.396285805678850E-3    2.565907641786740E-2    7.947180289120897E-3    9.740609081937810E-1   -4.458912430311719E-2
 2.029644456700960E7     9.739215202741422E-1   -4.656973881259974E-2    2.544505420281026E-2    8.520776548693232E-3    2.565154220535568E-2    8.086035323660997E-3    9.740862542103156E-1   -4.496464859602992E-2
 2.045130365127147E7     9.739376560847673E-1   -4.701270807881981E-2    2.543177616445967E-2    8.640513079553873E-3    2.564201961556324E-2    8.223631627983733E-3    9.740921664671320E-1   -4.539069658385088E-2
 2.060734428907584E7     9.739364126220279E-1   -4.750221132169698E-2    2.541618976046812E-2    8.753992492326491E-3    2.563281287067083E-2    8.363787519928622E-3    9.740563040666855E-1   -4.578698249569621E-2
 2.076457549551392E7     9.739013043704774E-1   -4.798350325628717E-2    2.540040443973860E-2    8.871407738835518E-3    2.562586408648255E-2    8.502918846826852E-3    9.740533761286893E-1   -4.621792169464126E-2
 2.092300635446098E7     9.738697356108506E-1   -4.845234845258282E-2    2.538429788845206E-2    8.988168661479640E-3    2.561790323728891E-2    8.642964362693994E-3    9.740519778003326E-1   -4.665258574315180E-2
 2.108264601910070E7     9.738771094482319E-1   -4.895873666506549E-2    2.536928116932135E-2    9.107096302790309E-3    2.561162119536566E-2    8.786290599603595E-3    9.740674683472053E-1   -4.705680873264884E-2
 2.124350371245464E7     9.738702457816583E-1   -4.908108963618209E-2    2.546717573849645E-2    9.170953716827236E-3    2.552585223998411E-2    9.313971551155379E-3    9.740382346621794E-1   -4.759791723338702E-2
 2.140558872791451E7     9.738346734933324E-1   -4.957356508559735E-2    2.545404736241976E-2    9.292919361670962E-3    2.551684000663863E-2    9.460562576526530E-3    9.740625984187291E-1   -4.802288034201949E-2
 2.156891042977939E7     9.737941281462860E-1   -5.021482212002414E-2    2.537391588780121E-2    9.469687928929485E-3    2.549888319203693E-2    9.414916791852948E-3    9.740795660564853E-1   -4.839550534198808E-2
 2.173347825379676E7     9.738222036882741E-1   -5.071704233814547E-2    2.536096833314468E-2    9.600999013228065E-3    2.549295701411699E-2    9.559330653474011E-3    9.740678727949865E-1   -4.884000399912635E-2
 2.189930170770744E7     9.737631209310507E-1   -5.119000690083359E-2    2.534732701836245E-2    9.734664585068265E-3    2.548493718374608E-2    9.705389038234162E-3    9.740663091101642E-1   -4.930378467672340E-2
 2.206639037179505E7     9.737517382133334E-1   -5.167788020991221E-2    2.533735826563861E-2    9.872878779971048E-3    2.547803950540609E-2    9.853110929947497E-3    9.740408873002433E-1   -4.974075159820391E-2
 2.223475389943947E7     9.737897647677869E-1   -5.194993170414026E-2    2.539710535168196E-2    9.963079963252309E-3    2.547826060750248E-2    1.019285591363776E-2    9.740234521372796E-1   -5.027024565520852E-2
 2.240440201767448E7     9.738059846979149E-1   -5.245888056402986E-2    2.538775423010769E-2    1.010127301905998E-2    2.547126148213090E-2    1.034216582808917E-2    9.740110735800022E-1   -5.071593426115482E-2
 2.257534452774993E7     9.737685597563713E-1   -5.292647623833573E-2    2.537752324380782E-2    1.024355953318897E-2    2.546471636864599E-2    1.049452268446359E-2    9.739933810334058E-1   -5.117473559660328E-2
 2.274759130569773E7     9.737575347729494E-1   -5.345299923883298E-2    2.536900015725487E-2    1.038282866973335E-2    2.545872793329565E-2    1.064434098862501E-2    9.740107256356401E-1   -5.160224944122058E-2
 2.292115230290256E7     9.737208429018794E-1   -5.395380328236819E-2    2.535831650798503E-2    1.052417574772116E-2    2.545363927831165E-2    1.079621769519434E-2    9.740044560279926E-1   -5.207935594304040E-2
 2.309603754667697E7     9.736915805874088E-1   -5.447244746511195E-2    2.534720868529262E-2    1.066607363103840E-2    2.544974851812483E-2    1.095049881447729E-2    9.739906649760380E-1   -5.255814510964820E-2
 2.327225714084021E7     9.736677706461965E-1   -5.502580126340455E-2    2.533859961293404E-2    1.081212396526833E-2    2.544473040413670E-2    1.110282714712730E-2    9.739801468644637E-1   -5.303448926918148E-2
 2.344982126630262E7     9.736256509955419E-1   -5.565482692558733E-2    2.527819289357033E-2    1.099800629812678E-2    2.542488304855407E-2    1.112856317825701E-2    9.740316352901689E-1   -5.341677384378619E-2
 2.362874018165328E7     9.735833758277981E-1   -5.615567051096843E-2    2.526939382049409E-2    1.115472904783593E-2    2.542222437096170E-2    1.128346482098536E-2    9.739849202631784E-1   -5.390395089347989E-2
 2.380902422375290E7     9.736064244041042E-1   -5.672604475462419E-2    2.522100078625670E-2    1.132314650887510E-2    2.548269314444446E-2    1.126044716379920E-2    9.739954490535651E-1   -5.437805776871728E-2
 2.399068380833123E7     9.735901464542944E-1   -5.725510479367307E-2    2.521449859953112E-2    1.148701531079246E-2    2.547839307759878E-2    1.141590726753924E-2    9.739758231569090E-1   -5.485544361041790E-2
 2.417372943058824E7     9.735657354584911E-1   -5.757144950651573E-2    2.525224216064464E-2    1.164766779527294E-2    2.541104198472847E-2    1.175185925493319E-2    9.739879092801387E-1   -5.533228941251160E-2
 2.435817166580120E7     9.735531734124302E-1   -5.799484238748143E-2    2.524652075819565E-2    1.182041947679379E-2    2.540834155964296E-2    1.191153167052569E-2    9.739778080061530E-1   -5.583635096131637E-2
 2.454402116993507E7     9.735455064107498E-1   -5.860617884610576E-2    2.519765199960649E-2    1.201287381817941E-2    2.547498695817465E-2    1.188724760087744E-2    9.739341054079348E-1   -5.632622073557626E-2
 2.473128868025839E7     9.735078123792119E-1   -5.907317056703675E-2    2.519100907051835E-2    1.219348923571818E-2    2.547268627988787E-2    1.204614693546227E-2    9.739202482939486E-1   -5.681058926673782E-2
 2.491998501596375E7     9.734902413591509E-1   -5.954236760349414E-2    2.518430613844780E-2    1.237695548009698E-2    2.547227618625694E-2    1.220784791749036E-2    9.739141368025218E-1   -5.731174143159667E-2
 2.511012107879237E7     9.734891867987788E-1   -5.975195691830606E-2    2.527761881566840E-2    1.251881762495711E-2    2.540532940039520E-2    1.268828402472479E-2    9.738303004184042E-1   -5.792622212760456E-2
 2.530170785366461E7     9.734933744709352E-1   -6.020724022144153E-2    2.527527711124658E-2    1.270647935100266E-2    2.540224172446819E-2    1.285294267564411E-2    9.738179245176926E-1   -5.843558161425576E-2
 2.549475640931404E7     9.735224088746351E-1   -6.064671829590542E-2    2.527529507777987E-2    1.289774780623121E-2    2.539811296325341E-2    1.301816435982272E-2    9.737962114135311E-1   -5.894472915169487E-2
 2.568927789892715E7     9.735129429234278E-1   -6.113711229445954E-2    2.527972611779501E-2    1.309299268266931E-2    2.539517151665234E-2    1.318546046637515E-2    9.738005075149088E-1   -5.946190537540919E-2
 2.588528356078789E7     9.734774357286975E-1   -6.159440315964788E-2    2.526491962738005E-2    1.330863237754043E-2    2.537912413723783E-2    1.330930294223290E-2    9.737890478652739E-1   -5.994458520445518E-2
 2.608278471892660E7     9.735058019908633E-1   -6.205229500517997E-2    2.530529938478350E-2    1.348811596503192E-2    2.538906782697166E-2    1.353498617916580E-2    9.737447930870192E-1   -6.048175592459885E-2
 2.628179278377446E7     9.735272648150559E-1   -6.249655860591952E-2    2.532573714349055E-2    1.367886425329574E-2    2.539190248481441E-2    1.371192218562083E-2    9.737130556304409E-1   -6.101122765773988E-2
 2.648231925282269E7     9.734951400372045E-1   -6.312401526088428E-2    2.528635878012626E-2    1.390249187186269E-2    2.539998839188893E-2    1.374629769832251E-2    9.737223178829519E-1   -6.145455402775082E-2
 2.668437571128672E7     9.734536370364548E-1   -6.365037763733290E-2    2.529951661370778E-2    1.408716962548990E-2    2.540921282529969E-2    1.391778992735448E-2    9.737289494822102E-1   -6.199396250678291E-2
 2.688797383277575E7     9.734459111098653E-1   -6.418606087102448E-2    2.530946353814958E-2    1.427589094879947E-2    2.541585105595333E-2    1.408879138949589E-2    9.736987480808847E-1   -6.254664766647437E-2
 2.709312537996687E7     9.734373602455275E-1   -6.466160810305653E-2    2.535056859710890E-2    1.445161734920944E-2    2.541060207813115E-2    1.435524652761608E-2    9.736932042347644E-1   -6.310717801629201E-2
 2.729984220528475E7     9.734133548712850E-1   -6.516255255822680E-2    2.536037452470726E-2    1.463770440584421E-2    2.541772442956988E-2    1.453092041793593E-2    9.736633508688743E-1   -6.366443942184982E-2
 2.750813625158667E7     9.733984181831632E-1   -6.573012820186303E-2    2.537215459562800E-2    1.481947672552982E-2    2.542543812387696E-2    1.470824080369153E-2    9.736485984499302E-1   -6.419751015822682E-2
 2.771801955285188E7     9.733939705855118E-1   -6.653464017592180E-2    2.529031092414932E-2    1.500871195761811E-2    2.561132122653094E-2    1.450850039995339E-2    9.736402852554275E-1   -6.466668568022998E-2
 2.792950423487763E7     9.733276423691110E-1   -6.696179021075750E-2    2.533800448816401E-2    1.519329668230782E-2    2.547750222413093E-2    1.489096828888054E-2    9.736123507945438E-1   -6.524541452279385E-2
 2.814260251597910E7     9.733282659571018E-1   -6.755443329535582E-2    2.534712407426952E-2    1.537858886243066E-2    2.548551190205016E-2    1.506723720516844E-2    9.735885931047050E-1   -6.582829599097709E-2
 2.835732670769557E7     9.732958807986816E-1   -6.816589639437108E-2    2.535621315725096E-2    1.555410876581912E-2    2.549463631451706E-2    1.524639727052713E-2    9.735657845999138E-1   -6.637137288719779E-2
 2.857368921550186E7     9.732874455337968E-1   -6.856745072932149E-2    2.544576417337818E-2    1.571544854249678E-2    2.546968917972148E-2    1.564576574937026E-2    9.735013448554400E-1   -6.703450300473075E-2
 2.879170253952448E7     9.732536182774262E-1   -6.915671637896090E-2    2.545447908718489E-2    1.589294614988888E-2    2.547883600683944E-2    1.582775985769189E-2    9.734438240356286E-1   -6.762024137368139E-2
 2.901137927526460E7     9.732282106556054E-1   -6.971784206991749E-2    2.546132000690346E-2    1.607706134199199E-2    2.548779338938721E-2    1.601095270938688E-2    9.734368970164128E-1   -6.819040651892463E-2
 2.923273211432508E7     9.732144247584057E-1   -7.033246320422311E-2    2.546915044188366E-2    1.626030672469540E-2    2.549727114589998E-2    1.619432553227635E-2    9.733906508237912E-1   -6.877075127556787E-2
 2.945577384514398E7     9.731769131602898E-1   -7.093185552984119E-2    2.547995208068214E-2    1.645100751214588E-2    2.550568608274949E-2    1.637976036457692E-2    9.733676426244913E-1   -6.937881800812751E-2
 2.968051735373363E7     9.731418039660450E-1   -7.149932344113621E-2    2.548841925943312E-2    1.663647370225878E-2    2.551510774300576E-2    1.656312212592022E-2    9.733389601442568E-1   -6.998236279813071E-2
 2.990697562442441E7     9.730694335362370E-1   -7.224145033190588E-2    2.545476687480517E-2    1.684036611107090E-2    2.552354504911175E-2    1.665562831669507E-2    9.733193482918545E-1   -7.051967648799004E-2
 3.013516174061584E7     9.730367967804180E-1   -7.278769632305944E-2    2.548076826310866E-2    1.702129573802351E-2    2.552996917646011E-2    1.688721961937560E-2    9.732976804748443E-1   -7.113274004672528E-2
 3.036508888553168E7     9.729681830730296E-1   -7.343203842518721E-2    2.547414434844682E-2    1.721667929581287E-2    2.554667112346669E-2    1.703412132266333E-2    9.732557583270659E-1   -7.171330508067088E-2
 3.059677034298190E7     9.729454268061655E-1   -7.407043089149515E-2    2.548606804205123E-2    1.740924378419379E-2    2.555941335308021E-2    1.722471134386010E-2    9.732375536606178E-1   -7.232936344487849E-2
 3.083021949813037E7     9.729291961684973E-1   -7.502650348762198E-2    2.541532184335147E-2    1.758020295072408E-2    2.596131199323787E-2    1.696390341688003E-2    9.731892170078735E-1   -7.287021659726028E-2
 3.106544983826748E7     9.729223622066177E-1   -7.563736759826377E-2    2.542904738676740E-2    1.777107343722367E-2    2.598071754081016E-2    1.715515822339751E-2    9.731492097039464E-1   -7.348089013957299E-2
 3.130247495359022E7     9.728851288062651E-1   -7.586898054989422E-2    2.556636953283625E-2    1.797066651677308E-2    2.559713530338571E-2    1.790047392174789E-2    9.730839877196880E-1   -7.421740993157369E-2
 3.154130853798668E7     9.728257564157609E-1   -7.651590343109918E-2    2.558164456069077E-2    1.816975047920037E-2    2.561365347566602E-2    1.809771891015462E-2    9.730356596439756E-1   -7.482700055394864E-2
 3.178196438982744E7     9.727856253116933E-1   -7.716763577657251E-2    2.559651655104373E-2    1.836808243337537E-2    2.562745182546732E-2    1.829371343470534E-2    9.730008951265573E-1   -7.547783324650703E-2
 3.202445641276293E7     9.727031264554561E-1   -7.783475607892743E-2    2.558337956885008E-2    1.857867539892845E-2    2.563935645149294E-2    1.843447789942495E-2    9.729743365827865E-1   -7.608224171326546E-2
 3.226879861652631E7     9.727111817268955E-1   -7.844480167865354E-2    2.562689755852846E-2    1.877028652932333E-2    2.565784243578891E-2    1.869051029369499E-2    9.729047260604756E-1   -7.677086407019024E-2
 3.251500511774320E7     9.725685150942943E-1   -7.943327959127358E-2    2.553138295828991E-2    1.897869023590914E-2    2.591161067055573E-2    1.843894235514952E-2    9.729305251739787E-1   -7.729028247667212E-2
 3.276309014074709E7     9.725178050023623E-1   -8.008703273028771E-2    2.554626024310780E-2    1.917949870682450E-2    2.592928575708251E-2    1.863769002046530E-2    9.728699938157709E-1   -7.792997655018001E-2
 3.301306801840112E7     9.724709902995322E-1   -8.079336458678991E-2    2.556408763164024E-2    1.937887742242615E-2    2.595136424598410E-2    1.883737435519069E-2    9.728369038132684E-1   -7.857336368394204E-2
 3.326495319292643E7     9.724447437938961E-1   -8.145245208799326E-2    2.558042800859558E-2    1.958309460190863E-2    2.597058233929370E-2    1.903985848123140E-2    9.727875570570459E-1   -7.924904917601092E-2
 3.351876021673609E7     9.724756180647481E-1   -8.185276988011224E-2    2.570999921174116E-2    1.978633876063734E-2    2.574167776053217E-2    1.970062272957177E-2    9.726860605976957E-1   -8.003101998711187E-2
 3.377450375327612E7     9.724312253397938E-1   -8.249183915525866E-2    2.572809526912469E-2    1.999285755376523E-2    2.575701658216348E-2    1.990570220446289E-2    9.726447582994924E-1   -8.070404356950762E-2
 3.403219857787284E7     9.723213560832242E-1   -8.326731623434190E-2    2.569355842797262E-2    2.021230748147513E-2    2.578029622676980E-2    2.000796767085541E-2    9.726275453007915E-1   -8.132357434945973E-2
 3.429185957858586E7     9.722597332470478E-1   -8.396631490818796E-2    2.571013985009092E-2    2.041905636577499E-2    2.579547855165516E-2    2.021568214155409E-2    9.725727574532170E-1   -8.201230409017143E-2
 3.455350175706909E7     9.721904685291856E-1   -8.466487335293815E-2    2.572327093397084E-2    2.062853873335286E-2    2.581124288805436E-2    2.042484708632621E-2    9.725214716035211E-1   -8.267990693285016E-2
 3.481714022943672E7     9.720844462943491E-1   -8.562131449433226E-2    2.567190156787512E-2    2.082262882444133E-2    2.608677459223155E-2    2.027564758431244E-2    9.724766235620398E-1   -8.333273707673827E-2
 3.508279022713681E7     9.720030956124583E-1   -8.636821335733916E-2    2.567828827883524E-2    2.103608849245427E-2    2.610053502166563E-2    2.048652510055358E-2    9.724046820934948E-1   -8.401282504715452E-2
 3.535046709783159E7     9.719421642406118E-1   -8.704460542642518E-2    2.568429083112988E-2    2.126213283614744E-2    2.611449380690977E-2    2.070262271994857E-2    9.723370081265091E-1   -8.471000994118516E-2
 3.562018630628331E7     9.718451472867226E-1   -8.776629293483798E-2    2.568646560869782E-2    2.149654642529413E-2    2.612034225583621E-2    2.092774779093448E-2    9.722603578540130E-1   -8.540455243277995E-2
 3.589196343524875E7     9.717614683345261E-1   -8.844976705256763E-2    2.569429438630938E-2    2.174642431070366E-2    2.612786641769077E-2    2.117185719942625E-2    9.721688588093581E-1   -8.608553347715124E-2
 3.616581418637872E7     9.716980852432376E-1   -8.913073430059805E-2    2.572701541825509E-2    2.200299870809628E-2    2.616006838973501E-2    2.143196138430948E-2    9.721298057520941E-1   -8.673839622178039E-2
 3.644175438112541E7     9.716655519342204E-1   -8.984940450189684E-2    2.578321829510916E-2    2.224786183034144E-2    2.621602208990792E-2    2.167996439815144E-2    9.720941456678216E-1   -8.745721214665211E-2
 3.671979996165685E7     9.716547716833058E-1   -9.042296540664101E-2    2.586429991818896E-2    2.249576747159726E-2    2.605850122380697E-2    2.212392325294529E-2    9.720503425507721E-1   -8.820228577839917E-2
 3.699996699177712E7     9.715940754820956E-1   -9.114747720737509E-2    2.591069322817774E-2    2.271629181030811E-2    2.610480353213029E-2    2.234431794511455E-2    9.720064267335305E-1   -8.894725000384683E-2
 3.728227165785540E7     9.715476986951203E-1   -9.191662976752801E-2    2.594859483121119E-2    2.293514330137740E-2    2.614529437382008E-2    2.256420597765854E-2    9.719565428450420E-1   -8.966996689806937E-2
 3.756673026976037E7     9.714850112270322E-1   -9.266642808884989E-2    2.598415009545261E-2    2.315612655326275E-2    2.618348114140974E-2    2.278540519738725E-2    9.718953905946122E-1   -9.040047160130124E-2
 3.785335926180276E7     9.715236429138426E-1   -9.326882542683620E-2    2.610142879654889E-2    2.337420638123332E-2    2.613011936847912E-2    2.327290487639676E-2    9.717628505217103E-1   -9.125605052459601E-2
 3.814217519368506E7     9.714895452834215E-1   -9.405484397853608E-2    2.613501634764758E-2    2.360078728805323E-2    2.616577588217616E-2    2.350060159403469E-2    9.717053146109347E-1   -9.199773673924197E-2
 3.843319475145779E7     9.714121086056865E-1   -9.482399587761400E-2    2.617002928431345E-2    2.383469693897966E-2    2.619913898940128E-2    2.373082047905143E-2    9.716280154234170E-1   -9.275303017131145E-2
 3.872643474848381E7     9.713527038487000E-1   -9.558735497604040E-2    2.620450695708916E-2    2.406729141507915E-2    2.623460694659146E-2    2.396534145869771E-2    9.715690941889231E-1   -9.351646513351419E-2
 3.902191212640966E7     9.712777017384780E-1   -9.638255819560324E-2    2.623927746674836E-2    2.430152080995352E-2    2.627081177546002E-2    2.419908826406239E-2    9.715015407292183E-1   -9.427690950271167E-2
 3.931964395614420E7     9.712102363945392E-1   -9.719724300029291E-2    2.627446580931058E-2    2.453462639996166E-2    2.630647562014075E-2    2.443434748320825E-2    9.714298784472130E-1   -9.502080824281994E-2
 3.961964743884522E7     9.710968087488678E-1   -9.799764077972220E-2    2.627760930675525E-2    2.478004659233354E-2    2.634829623409437E-2    2.460616763112291E-2    9.713950100395156E-1   -9.578114931828478E-2
 3.992193990691278E7     9.710041385330778E-1   -9.882398426655191E-2    2.631398651465214E-2    2.501806836229146E-2    2.638776478194496E-2    2.484404672423831E-2    9.713134536291584E-1   -9.655717649475866E-2
 4.022653882499073E7     9.708566811580638E-1   -9.976149977828958E-2    2.630123706898418E-2    2.525739172530365E-2    2.651845187240856E-2    2.488001108626458E-2    9.712748688508357E-1   -9.726533919844178E-2
 4.053346179097611E7     9.707696640539271E-1   -1.005757085285621E-1    2.633801073269957E-2    2.550103161555815E-2    2.656280035727355E-2    2.512016208981169E-2    9.712037062802733E-1   -9.811443688304677E-2
 4.084272653703488E7     9.706993817541559E-1   -1.014003666501484E-1    2.637656522657771E-2    2.574211801133681E-2    2.660195725364839E-2    2.536234291187691E-2    9.711285262117946E-1   -9.890409886475930E-2
 4.115435093062763E7     9.705768555100180E-1   -1.023423813449970E-1    2.639970576220732E-2    2.597489762834307E-2    2.676602549596866E-2    2.547569649167129E-2    9.710489902209805E-1   -9.968076262035293E-2
 4.146835297554084E7     9.704959475863905E-1   -1.031809502300032E-1    2.644181218222022E-2    2.622297132013967E-2    2.681076710181504E-2    2.572089674872810E-2    9.709669054863609E-1   -1.005123033937420E-1
 4.178475081292742E7     9.704262639271420E-1   -1.042542289668331E-1    2.648032946808845E-2    2.645912618685124E-2    2.723107057264065E-2    2.578202201774074E-2    9.708813268774849E-1   -1.013054016150923E-1
 4.210356272235513E7     9.703309607624166E-1   -1.051138611553136E-1    2.652063330885490E-2    2.670855755976672E-2    2.727904336545730E-2    2.602960097457149E-2    9.707837684906664E-1   -1.021097533742056E-1
 4.242480712286174E7     9.702354372079007E-1   -1.059445469318440E-1    2.656466795343128E-2    2.696314186257885E-2    2.733019735680248E-2    2.628017198465422E-2    9.706965460098971E-1   -1.029561557851728E-1
 4.274850257402029E7     9.701590509751407E-1   -1.068449589672988E-1    2.660826315022092E-2    2.721831790592859E-2    2.738126370587279E-2    2.653339618280752E-2    9.706197572110552E-1   -1.038055753381943E-1
 4.307466777701053E7     9.702137533025122E-1   -1.071300560901319E-1    2.675106731725424E-2    2.749931529471054E-2    2.679663275227532E-2    2.739136279103959E-2    9.704480664540299E-1   -1.047610876802446E-1
 4.340332157569963E7     9.699605732633177E-1   -1.085944520368452E-1    2.669974857678066E-2    2.773058500483808E-2    2.748296735111150E-2    2.704786740111586E-2    9.704330901753847E-1   -1.054797045469800E-1
 4.373448295773120E7     9.698588550200286E-1   -1.094350695038709E-1    2.674477600932492E-2    2.799325852177428E-2    2.753817334082274E-2    2.730609162294294E-2    9.703355384329057E-1   -1.063306370433170E-1
 4.406817105562137E7     9.697453749602400E-1   -1.100953854875464E-1    2.679084851012386E-2    2.826909634308907E-2    2.719382119020677E-2    2.774994584164457E-2    9.702385038658722E-1   -1.072048337688121E-1
 4.440440514786536E7     9.696358196574323E-1   -1.109714367563597E-1    2.684032660107010E-2    2.853274135737953E-2    2.724427168030120E-2    2.801042938320900E-2    9.701493978343492E-1   -1.080924283652541E-1
 4.474320466005030E7     9.695358640683385E-1   -1.118769691180268E-1    2.688736634385549E-2    2.879526327034630E-2    2.729794203699155E-2    2.827606848741591E-2    9.700467915763094E-1   -1.089389288956290E-1
 4.508458916597787E7     9.695054883356614E-1   -1.125788721176627E-1    2.696596159071748E-2    2.907686026778055E-2    2.715117380965373E-2    2.876789554469006E-2    9.699326245109177E-1   -1.098722987392038E-1
 4.542857838879555E7     9.694021983494752E-1   -1.135051570188131E-1    2.701779529487897E-2    2.934948448692274E-2    2.720424732097016E-2    2.903627063288695E-2    9.698268173877088E-1   -1.107491192105354E-1
 4.577519220213508E7     9.692813220981553E-1   -1.144246381647811E-1    2.706923945316187E-2    2.962224164080863E-2    2.726091308768466E-2    2.930678114121560E-2    9.697266973743415E-1   -1.116315094263440E-1
 4.612445063126191E7     9.691786258105588E-1   -1.153256050157846E-1    2.712095387529608E-2    2.989515106778058E-2    2.731635058578561E-2    2.957683253899077E-2    9.696165266914905E-1   -1.125617318650003E-1
 4.647637385423118E7     9.690586610940446E-1   -1.162515330616714E-1    2.717281403459492E-2    3.016984420725429E-2    2.736990437406262E-2    2.985287625533250E-2    9.695083118587186E-1   -1.134490318676926E-1
 4.683098220305377E7     9.689306448066990E-1   -1.171933627563771E-1    2.722651536819227E-2    3.044619995914116E-2    2.742715666852220E-2    3.012784051865137E-2    9.693885354496794E-1   -1.143646018013610E-1
 4.718829616487134E7     9.688198499053930E-1   -1.181282433051312E-1    2.728250932638174E-2    3.072624277049453E-2    2.748443714508525E-2    3.040640532587730E-2    9.692873806345965E-1   -1.153091707014795E-1
 4.754833638313931E7     9.686065183434480E-1   -1.192749692132932E-1    2.730863989021133E-2    3.099376811130408E-2    2.775647514802582E-2    3.045589602611338E-2    9.691869331483598E-1   -1.161864096447978E-1
 4.791112365881994E7     9.684908813679575E-1   -1.202428803629345E-1    2.736394054233047E-2    3.128067029868053E-2    2.782024136459761E-2    3.073824955843517E-2    9.690577983768629E-1   -1.171109356197726E-1
 4.827667895158397E7     9.683601880206235E-1   -1.212043374022693E-1    2.742220036862271E-2    3.157266443389871E-2    2.788077903289669E-2    3.102402888328840E-2    9.689269698823666E-1   -1.180308530982915E-1
 4.864502338102144E7     9.682353855146471E-1   -1.221595505676944E-1    2.748197672470496E-2    3.186152394469448E-2    2.794423026002274E-2    3.131162433489241E-2    9.688043794759024E-1   -1.189943857649113E-1
 4.901617822786229E7     9.681034166101561E-1   -1.231217607317876E-1    2.754204274556357E-2    3.215588905508110E-2    2.801338880481785E-2    3.160317127851422E-2    9.686714718549330E-1   -1.199264845476591E-1
 4.939016493520518E7     9.679717981652478E-1   -1.240862942141106E-1    2.760876794075250E-2    3.244866554179595E-2    2.808313346936775E-2    3.189540578644961E-2    9.685423130733698E-1   -1.208924677853238E-1
 4.976700510975666E7     9.678323744130510E-1   -1.250774352044347E-1    2.767670581783324E-2    3.274847212912696E-2    2.815093248886332E-2    3.218967623956750E-2    9.684088738941460E-1   -1.218576016234214E-1
 5.014672052307993E7     9.677206954210731E-1   -1.260900823776726E-1    2.774324011212325E-2    3.304733583224832E-2    2.822306811356009E-2    3.248821136382402E-2    9.682803495756700E-1   -1.228184289099873E-1
 5.052933311285146E7     9.675786166069842E-1   -1.270982053113031E-1    2.781275115027539E-2    3.334767874416274E-2    2.829852318350482E-2    3.278519781794906E-2    9.681607573974498E-1   -1.238092422514162E-1
 5.091486498412994E7     9.674330685205480E-1   -1.280903025353709E-1    2.788548643932395E-2    3.365093464991992E-2    2.837713199664910E-2    3.308673470665485E-2    9.680096803220822E-1   -1.247882295239641E-1
 5.130333841063219E7     9.672874637372803E-1   -1.291034263754442E-1    2.795737320359372E-2    3.395298800659888E-2    2.846065135856924E-2    3.338759126111537E-2    9.678614146211639E-1   -1.257898540986636E-1
 5.169477583602042E7     9.671731394997206E-1   -1.301494626054276E-1    2.803225545139251E-2    3.425943172238433E-2    2.854271306447133E-2    3.368989817389066E-2    9.677403195876569E-1   -1.267860717699449E-1
 5.208919987519933E7     9.670337330951101E-1   -1.311650909699969E-1    2.810955601079333E-2    3.456816709891782E-2    2.862475223966956E-2    3.399661105890681E-2    9.675851545246771E-1   -1.277853568869674E-1
 5.248663331562151E7     9.668564007801779E-1   -1.322406867411120E-1    2.818817071317373E-2    3.487648587269102E-2    2.870383952569390E-2    3.430136400578931E-2    9.674389237866938E-1   -1.287931689443117E-1
 5.288709911860541E7     9.667352451485672E-1   -1.332783353564800E-1    2.826524196335889E-2    3.518620600113093E-2    2.878745396684253E-2    3.460782983505223E-2    9.672947321427118E-1   -1.298091475999153E-1
 5.329062042066076E7     9.665720497187842E-1   -1.343156008908407E-1    2.834365849786636E-2    3.549712567785426E-2    2.887570112373995E-2    3.491858321436688E-2    9.671367540080190E-1   -1.308339354721672E-1
 5.369722053482568E7     9.664205729765274E-1   -1.353808597131848E-1    2.842389270432075E-2    3.581182033729362E-2    2.896488566155828E-2    3.522912958481127E-2    9.669891398168293E-1   -1.318845780157701E-1
 5.410692295201402E7     9.662472026662665E-1   -1.364629398994314E-1    2.850424555075655E-2    3.612644796680196E-2    2.905006549289143E-2    3.554256817738469E-2    9.668461069428352E-1   -1.329362482207953E-1
 5.451975134237129E7     9.660883287203101E-1   -1.375425163267120E-1    2.858999287141864E-2    3.644768641831260E-2    2.913807166866840E-2    3.585896543896875E-2    9.666755094454789E-1   -1.339946755603153E-1
 5.493572955664375E7     9.659107018167644E-1   -1.386584417266882E-1    2.867347177972627E-2    3.676860683734937E-2    2.922995466281670E-2    3.617601829627125E-2    9.665205178209549E-1   -1.350547339075802E-1
 5.535488162755510E7     9.657581646246609E-1   -1.397371814280663E-1    2.875773137773330E-2    3.709004505509598E-2    2.932170265105777E-2    3.649751840398360E-2    9.663571578783080E-1   -1.361175607402512E-1
 5.577723177119546E7     9.655653690638436E-1   -1.408291666924726E-1    2.884167100260654E-2    3.741540496901757E-2    2.941608112985576E-2    3.681971361254521E-2    9.661815489382712E-1   -1.371941592441898E-1
 5.620280438842070E7     9.653910044204026E-1   -1.419541777163943E-1    2.892980766980355E-2    3.774447086301596E-2    2.951021128711676E-2    3.714466006903892E-2    9.660098569285397E-1   -1.382825171125223E-1
 5.663162406626155E7     9.652184397842088E-1   -1.430624611554898E-1    2.901880113921005E-2    3.807772452965055E-2    2.960715269810450E-2    3.747347775395039E-2    9.658213767333881E-1   -1.394042046940677E-1
 5.706371557934452E7     9.650285998000944E-1   -1.442046553600554E-1    2.911151808358005E-2    3.841108042836413E-2    2.970661747473396E-2    3.780399704507417E-2    9.656572217462215E-1   -1.404899441860941E-1
 5.749910389132310E7     9.648409390038404E-1   -1.453451003626109E-1    2.920540847382572E-2    3.874706079586977E-2    2.980738415489509E-2    3.813650938610520E-2    9.654857695150272E-1   -1.416305219141991E-1
 5.793781415631992E7     9.646588682638513E-1   -1.464970931308472E-1    2.929629556206749E-2    3.908508134323443E-2    2.990725836324358E-2    3.847140905960938E-2    9.652989509280103E-1   -1.427388552951914E-1
 5.837987172038046E7     9.647064770311207E-1   -1.471864246374634E-1    2.952554448227550E-2    3.942846588570093E-2    2.962399385287645E-2    3.930240557568146E-2    9.650278252728748E-1   -1.439794036126722E-1
 5.882530212293670E7     9.644888835347495E-1   -1.483623449202399E-1    2.962386270823660E-2    3.976750244451781E-2    2.972472345209528E-2    3.964790743657715E-2    9.648203751501029E-1   -1.451239869143311E-1
 5.927413109828297E7     9.642724162680386E-1   -1.494883394682441E-1    2.972456588842569E-2    4.011426782772197E-2    2.982858642248730E-2    3.999286408126002E-2    9.646230837036225E-1   -1.462689503380710E-1
 5.972638457706322E7     9.640684746013138E-1   -1.506419340773595E-1    2.982966748340854E-2    4.046425208268445E-2    2.993392129663863E-2    4.034102286607295E-2    9.644469809924074E-1   -1.474225239937275E-1
 6.018208868776779E7     9.638851620315806E-1   -1.518427625059780E-1    2.993584293153369E-2    4.081442638502628E-2    3.004072593202684E-2    4.069327728585581E-2    9.642399481890450E-1   -1.485611878546183E-1
 6.064126975824468E7     9.636754753879101E-1   -1.529996299537315E-1    3.004170119752175E-2    4.116574807841630E-2    3.015313339006798E-2    4.104347149241425E-2    9.640305916835573E-1   -1.497604484448084E-1
 6.110395431721926E7     9.634537207579640E-1   -1.542215724684803E-1    3.015173847207806E-2    4.151969170733950E-2    3.026565177118537E-2    4.139979916194749E-2    9.638180034608198E-1   -1.509036275899224E-1
 6.157016909582742E7     9.632423989532720E-1   -1.554160385254704E-1    3.026328558728581E-2    4.187765821801828E-2    3.037796688621509E-2    4.175540171843884E-2    9.636072504709601E-1   -1.521066013203518E-1
 6.203994102916045E7     9.630036187519944E-1   -1.566205125015446E-1    3.037741519529740E-2    4.223628699130329E-2    3.049371100591986E-2    4.211516664366778E-2    9.633865989600937E-1   -1.533116693525767E-1
 6.251329725781982E7     9.627717705376821E-1   -1.578454473466284E-1    3.049147390847543E-2    4.259980611099382E-2    3.060909376026480E-2    4.247390934775343E-2    9.631514197248564E-1   -1.545160772604601E-1
 6.299026512948693E7     9.625321139913572E-1   -1.590837486611163E-1    3.060684776185008E-2    4.296031288585322E-2    3.072972626309244E-2    4.284103829205353E-2    9.629563141694524E-1   -1.557289616338007E-1
 6.347087220050172E7     9.622928523286727E-1   -1.603230233886751E-1    3.072490492280582E-2    4.332248294160329E-2    3.085143955682591E-2    4.320601125588429E-2    9.627338869250444E-1   -1.569528577640747E-1
 6.395514623745525E7     9.620874556841106E-1   -1.615882237846442E-1    3.084477946931249E-2    4.369399522494448E-2    3.097119989804049E-2    4.357506062084435E-2    9.624970771422852E-1   -1.581874349949997E-1
 6.444311521879433E7     9.618519945716814E-1   -1.628471361731993E-1    3.096422225913765E-2    4.406609672155094E-2    3.109548155683989E-2    4.394741820834544E-2    9.622696172891549E-1   -1.594328975772155E-1
 6.493480733643661E7     9.615962041259850E-1   -1.641177688615464E-1    3.108848530635768E-2    4.443947310917959E-2    3.121999193207546E-2    4.432055103112768E-2    9.619943051930945E-1   -1.606724506866951E-1
 6.543025099740107E7     9.613345179942397E-1   -1.654053489957096E-1    3.121277669589287E-2    4.481802466987122E-2    3.134581217861002E-2    4.469774188309359E-2    9.617673213309051E-1   -1.619446071604757E-1
 6.592947482544785E7     9.609936774318594E-1   -1.676093988164311E-1    3.107700570659154E-2    4.523328138237706E-2    3.247181130062337E-2    4.437853694230479E-2    9.615934070865667E-1   -1.630744197508959E-1
 6.643250766273243E7     9.607585221685312E-1   -1.689467382912362E-1    3.120438564062214E-2    4.562104715959139E-2    3.262759076938696E-2    4.475509988828612E-2    9.613512444900981E-1   -1.643470236234695E-1
 6.693937857147253E7     9.604924307144707E-1   -1.702418973730393E-1    3.132497777524627E-2    4.600713514093907E-2    3.277102267247228E-2    4.513978647870123E-2    9.611052509311152E-1   -1.656094093016819E-1
 6.745011683562562E7     9.602361068206859E-1   -1.716116455608500E-1    3.144529540100699E-2    4.640567103260929E-2    3.291261861612673E-2    4.552941487323970E-2    9.608359694028392E-1   -1.669090677890721E-1
 6.796475196258274E7     9.599728594184198E-1   -1.728963428781473E-1    3.157114825734982E-2    4.681481641421651E-2    3.305699718055181E-2    4.593585339568489E-2    9.605717178159248E-1   -1.682146587468275E-1
 6.848331368487169E7     9.597047647851316E-1   -1.741954888193922E-1    3.170599548829046E-2    4.723123096555411E-2    3.320980107470286E-2    4.634992943941497E-2    9.603033598720142E-1   -1.694878332214783E-1
 6.900583196187538E7     9.592844913190633E-1   -1.751023459402903E-1    3.192543425480185E-2    4.763305826667472E-2    3.274503466080762E-2    4.692743299976541E-2    9.600492282073940E-1   -1.707953128511602E-1
 6.953233698156311E7     9.589992465352023E-1   -1.764187420096328E-1    3.206825105651175E-2    4.804286807696437E-2    3.291779678531838E-2    4.732186992315143E-2    9.597431770458387E-1   -1.722035343064168E-1
 7.006285916223384E7     9.587031487047396E-1   -1.777714825500809E-1    3.221011943377161E-2    4.845383552298897E-2    3.308807099582380E-2    4.771883323520436E-2    9.594550353281919E-1   -1.735951074373450E-1
 7.059742915427396E7     9.583740933232231E-1   -1.792849949610150E-1    3.236020893960902E-2    4.886422531664399E-2    3.324981032242209E-2    4.812165877608701E-2    9.591650342419724E-1   -1.749102485296152E-1
 7.113607784192866E7     9.580930217962659E-1   -1.806529828320393E-1    3.251797997315536E-2    4.927359894859572E-2    3.341785429327158E-2    4.852939629922060E-2    9.588859885376769E-1   -1.762954727513374E-1
 7.167883634508467E7     9.578056461334006E-1   -1.820103755841721E-1    3.267969126438986E-2    4.968779224306111E-2    3.358685777969378E-2    4.894257733916640E-2    9.585887157095655E-1   -1.776669426119647E-1
 7.222573602107021E7     9.575183915759391E-1   -1.834232337285594E-1    3.283631836316186E-2    5.010202204602784E-2    3.374694594329947E-2    4.935832860441761E-2    9.582970367113769E-1   -1.790178038143007E-1
 7.277680846646504E7     9.571736781175916E-1   -1.848202771146208E-1    3.298491481790364E-2    5.052053209719472E-2    3.390692756858685E-2    4.977894677097595E-2    9.579916587724021E-1   -1.804248026630434E-1
 7.333208551892644E7     9.568727336887966E-1   -1.862185171448139E-1    3.313241893344780E-2    5.095814071974328E-2    3.407842773202936E-2    5.020265351712028E-2    9.576469871337556E-1   -1.819385039921996E-1
 7.389159925902925E7     9.565441371009107E-1   -1.877384565232132E-1    3.329574966460254E-2    5.139914989938896E-2    3.426711507207569E-2    5.062305395956521E-2    9.573151658261383E-1   -1.833904608659135E-1
 7.445538201211768E7     9.562145812085595E-1   -1.892535110157081E-1    3.346745368884993E-2    5.183773470285478E-2    3.445157830304030E-2    5.105406436744792E-2    9.569995122428709E-1   -1.847656039409847E-1
 7.502346635017487E7     9.558961107924910E-1   -1.907184449339707E-1    3.364799183338163E-2    5.226842017010935E-2    3.463316027226179E-2    5.149127638244406E-2    9.566870534486105E-1   -1.861729629141216E-1
 7.559588509370317E7     9.555724365477413E-1   -1.921651587268085E-1    3.382779085320268E-2    5.270231598436454E-2    3.481848739625509E-2    5.192696797995625E-2    9.563450016344494E-1   -1.876248054626478E-1
 7.617267131362079E7     9.552558302336436E-1   -1.936199030781822E-1    3.400658376270813E-2    5.314241979710177E-2    3.499852340185688E-2    5.236743948572391E-2    9.560282795248292E-1   -1.890693815500981E-1
 7.675385833317320E7     9.549067627207952E-1   -1.950918921301583E-1    3.417948128819738E-2    5.358747431631004E-2    3.518435832881806E-2    5.281232307385379E-2    9.556719614435033E-1   -1.905610721988013E-1
 7.733947972985649E7     9.545572643595400E-1   -1.966035521129477E-1    3.435119638099296E-2    5.404409724786963E-2    3.538547419898162E-2    5.325237511963436E-2    9.552801549601985E-1   -1.921029623725770E-1
 7.792956933735959E7     9.541637683943256E-1   -1.981468537802156E-1    3.452821281766287E-2    5.450489503836217E-2    3.559466291989759E-2    5.369947730367631E-2    9.549360686176410E-1   -1.936222838400385E-1
 7.852416124751715E7     9.537771592651374E-1   -1.997614438529194E-1    3.471678644002493E-2    5.496314239769208E-2    3.579899856352003E-2    5.415464742233064E-2    9.545463629427081E-1   -1.950887000756222E-1
 7.912328981227988E7     9.534336656175882E-1   -2.012221169770945E-1    3.490994752239574E-2    5.542169428967508E-2    3.599970025112341E-2    5.461526466190936E-2    9.541816277024113E-1   -1.965874449324825E-1
 7.972698964569975E7     9.530532988188579E-1   -2.027446893840162E-1    3.510142867816944E-2    5.588553614979645E-2    3.620049968773081E-2    5.508147441283417E-2    9.538134155635493E-1   -1.981347172365311E-1
 8.033529562592810E7     9.526905657705084E-1   -2.043054820870825E-1    3.529612186890718E-2    5.635940604466882E-2    3.641765116355929E-2    5.555124380563910E-2    9.534342963125371E-1   -1.996590302104226E-1
 8.094824289723292E7     9.522816835597432E-1   -2.058892114936731E-1    3.549869203178049E-2    5.683944014389006E-2    3.664026319847133E-2    5.602429531391687E-2    9.530295202156032E-1   -2.011920880903248E-1
 8.156586687202743E7     9.518665131573408E-1   -2.074714597093133E-1    3.570712093827715E-2    5.732118923475003E-2    3.686433375374720E-2    5.650149447888346E-2    9.526464897356621E-1   -2.027588862335287E-1
 8.218820323291673E7     9.514535173229930E-1   -2.090649777435383E-1    3.592202216360581E-2    5.780175714553545E-2    3.709304586135229E-2    5.698046266252581E-2    9.522971956143724E-1   -2.043534836759408E-1
 8.281528793475981E7     9.510439658375809E-1   -2.106383467550814E-1    3.613898824839308E-2    5.829198989752200E-2    3.732020595326224E-2    5.745974847525035E-2    9.518891087289262E-1   -2.059378065127806E-1
 8.344715720674579E7     9.506599762796013E-1   -2.122593800603181E-1    3.636261076274507E-2    5.878432407793639E-2    3.755834039713627E-2    5.794630906027191E-2    9.514631909496052E-1   -2.075438582553537E-1
 8.408384755448765E7     9.502734369480671E-1   -2.138990190960425E-1    3.658916292087309E-2    5.928116365592090E-2    3.779085367254106E-2    5.843663596794071E-2    9.510749067125586E-1   -2.091696001639487E-1
 8.472539576213124E7     9.498204259195855E-1   -2.155343535139729E-1    3.681312821685605E-2    5.978037667964416E-2    3.802728618919728E-2    5.893070906962108E-2    9.506505742263437E-1   -2.108014712521990E-1
 8.537183889448020E7     9.493726738181818E-1   -2.171623827122089E-1    3.704201490970681E-2    6.029410321679950E-2    3.826562428544088E-2    5.944168113657882E-2    9.502044778857975E-1   -2.124082706314012E-1
 8.602321429913802E7     9.489395779504173E-1   -2.188065373647202E-1    3.729122728359242E-2    6.081513934100857E-2    3.853087858864837E-2    5.995746192757685E-2    9.497943185773172E-1   -2.140590833424161E-1
 8.667955960866481E7     9.485194028846025E-1   -2.204756491677747E-1    3.754520706016319E-2    6.132440176110326E-2    3.879705463788454E-2    6.046621201333922E-2    9.493818184240442E-1   -2.157205136817956E-1
 8.734091274275188E7     9.480659490378325E-1   -2.221672799775534E-1    3.779082336094829E-2    6.183291618075969E-2    3.905698427262940E-2    6.097467944490986E-2    9.489427898089038E-1   -2.174020415889174E-1
 8.800731191041334E7     9.476121847997194E-1   -2.238591144970810E-1    3.804491693674251E-2    6.236192778310831E-2    3.932633587313000E-2    6.149872994489010E-2    9.484678406274540E-1   -2.190814748953940E-1
 8.867879561219153E7     9.471172428366016E-1   -2.255352382737285E-1    3.830823822260962E-2    6.289416873780178E-2    3.960459689922279E-2    6.202763985896644E-2    9.480340227474747E-1   -2.207790902328629E-1
 8.935540264238395E7     9.466624952985843E-1   -2.272627929448460E-1    3.859136020328057E-2    6.343091138399708E-2    3.989863600475386E-2    6.255473776156559E-2    9.475982908513230E-1   -2.224816676166881E-1
 9.003717209128250E7     9.461687581728490E-1   -2.289718808182039E-1    3.885995004404527E-2    6.394513900220640E-2    4.017138613961490E-2    6.307007216376863E-2    9.471449181112551E-1   -2.241837428687098E-1
 9.072414334743266E7     9.457026795341754E-1   -2.307115292561189E-1    3.914882858825416E-2    6.447489969697853E-2    4.047473881972827E-2    6.359506421310207E-2    9.467175127081324E-1   -2.259433920906109E-1
 9.141635609990983E7     9.451916013824290E-1   -2.325014184316411E-1    3.943631349878240E-2    6.500737666587024E-2    4.077509510440222E-2    6.412266340365179E-2    9.462238973784266E-1   -2.277114694596205E-1
 9.211385034061028E7     9.447453713250200E-1   -2.342876556757441E-1    3.973461722488011E-2    6.555328591620191E-2    4.108279107182592E-2    6.466074411719444E-2    9.457281298586570E-1   -2.294765982162093E-1
 9.281666636656430E7     9.441969541828792E-1   -2.360521781821429E-1    4.004487714544820E-2    6.609550694760398E-2    4.140398119260214E-2    6.520129057562429E-2    9.452548469178830E-1   -2.312704089562286E-1
 9.352484478226222E7     9.437134544723368E-1   -2.378781089059518E-1    4.036222690749569E-2    6.663135813513825E-2    4.172698524005788E-2    6.573246176970390E-2    9.447417227491629E-1   -2.330648146501392E-1
 9.423842650200106E7     9.432129269873708E-1   -2.397188731809525E-1    4.067534564661435E-2    6.716518927292169E-2    4.205261497360837E-2    6.626323361176178E-2    9.442329462578911E-1   -2.348836755941294E-1
 9.495745275224906E7     9.426616320105216E-1   -2.415328897561255E-1    4.098839934086786E-2    6.770079926097816E-2    4.238147651737595E-2    6.679815596348934E-2    9.437270456387374E-1   -2.367354218120978E-1
 9.568196507402541E7     9.420663760474969E-1   -2.433954253695719E-1    4.130620162871022E-2    6.824570686778016E-2    4.270963541526328E-2    6.733696572587904E-2    9.431624507476555E-1   -2.385640035825234E-1
 9.641200532530291E7     9.414911433588710E-1   -2.452771016686861E-1    4.162855879337481E-2    6.879766580493647E-2    4.303942804744505E-2    6.787947948809067E-2    9.426102204646486E-1   -2.404279844635207E-1
 9.714761568342420E7     9.409513006877546E-1   -2.471494640563227E-1    4.195324783967053E-2    6.935735675246907E-2    4.336990274245055E-2    6.843133910682783E-2    9.420326402328337E-1   -2.422878632590997E-1
 9.788883864753923E7     9.403114631454066E-1   -2.490461340361315E-1    4.228409105037760E-2    6.991860288764042E-2    4.371284227445604E-2    6.899050623090693E-2    9.414463845618010E-1   -2.441659749847139E-1
 9.863571704106140E7     9.397071606815960E-1   -2.509583401773525E-1    4.262082087614054E-2    7.048636317365248E-2    4.405844666411324E-2    6.955207862293587E-2    9.408493928820493E-1   -2.460521882098186E-1
 9.938829401413949E7     9.390863067535776E-1   -2.528714101774165E-1    4.295978726665038E-2    7.105934163852833E-2    4.440691974347629E-2    7.012018354658522E-2    9.402368500873712E-1   -2.479579584691500E-1
 1.001466130461536E8     9.384459425889710E-1   -2.548293761083585E-1    4.330764846361356E-2    7.164754500917397E-2    4.476403068904241E-2    7.070269931084273E-2    9.396038645543726E-1   -2.498699182919394E-1
 1.009107179482240E8     9.377868054114942E-1   -2.567687837713535E-1    4.366797548058876E-2    7.224365534470503E-2    4.513461464672171E-2    7.129315132267594E-2    9.389808618335673E-1   -2.517884688198033E-1
 1.016806528657447E8     9.370898942158450E-1   -2.587298212525179E-1    4.404582307889448E-2    7.284226059696532E-2    4.551970794485575E-2    7.188317150828935E-2    9.383678303759702E-1   -2.537153244814044E-1
 1.024564622809335E8     9.363754002188055E-1   -2.607135622306619E-1    4.443221974483981E-2    7.344416093337566E-2    4.591502668345908E-2    7.247543326506986E-2    9.377428697744892E-1   -2.556786112887508E-1
 1.032381910153997E8     9.356878338627598E-1   -2.627056073924525E-1    4.483374090203727E-2    7.404829406142152E-2    4.632354762920802E-2    7.306934965902238E-2    9.370702780155219E-1   -2.576413515596622E-1
 1.040258842327368E8     9.349875172033011E-1   -2.647172342297345E-1    4.525680503234984E-2    7.464172651279774E-2    4.674780487244230E-2    7.365136438531503E-2    9.364033000151817E-1   -2.596054904232535E-1
 1.048195874411304E8     9.342562675511563E-1   -2.667372148544306E-1    4.567338576459277E-2    7.522535282134900E-2    4.717188131725702E-2    7.422451509713066E-2    9.356875213331363E-1   -2.615818659112842E-1
 1.056193464959857E8     9.334866137498816E-1   -2.687396437882154E-1    4.608862042465661E-2    7.581060302358697E-2    4.758945117346938E-2    7.479833738590785E-2    9.350304480131481E-1   -2.635985148877771E-1
 1.064252076025801E8     9.327218652391971E-1   -2.707525676980050E-1    4.649629665038111E-2    7.639907082841522E-2    4.800172666949478E-2    7.537397966627751E-2    9.343596987678643E-1   -2.656181838808081E-1
 1.072372173187304E8     9.319481156260954E-1   -2.727833388810296E-1    4.690703514815586E-2    7.700635747288137E-2    4.841377665506930E-2    7.597407300457087E-2    9.336459752640637E-1   -2.676698330418184E-1
 1.080554225574824E8     9.311407310253870E-1   -2.748765587668620E-1    4.734012132616553E-2    7.762378315134737E-2    4.884224989094815E-2    7.658031231322279E-2    9.329460967027274E-1   -2.697227752688331E-1
 1.088798705898232E8     9.303050942817521E-1   -2.769224334051208E-1    4.777806274919114E-2    7.824612206692688E-2    4.928512953325707E-2    7.719113770368299E-2    9.322236725824752E-1   -2.718136276242045E-1
 1.097106090474096E8     9.294751052032468E-1   -2.789681489222366E-1    4.824251557599180E-2    7.887341712522138E-2    4.973977233858152E-2    7.780544412432977E-2    9.314652176633722E-1   -2.739133865613721E-1
 1.105476859253232E8     9.286245770180768E-1   -2.810238277726834E-1    4.872271332751476E-2    7.948740754290605E-2    5.021470960032407E-2    7.840534781382411E-2    9.307296985821414E-1   -2.760207746039705E-1
 1.113911495848395E8     9.278296425938068E-1   -2.831076049260556E-1    4.919787556059563E-2    8.009132562089251E-2    5.067896488668392E-2    7.899871492730486E-2    9.299444717328996E-1   -2.781508548380757E-1
 1.122410487562254E8     9.270394415269801E-1   -2.852181059169902E-1    4.966820138147473E-2    8.070465868040973E-2    5.113719402787565E-2    7.960029293610175E-2    9.291551088955128E-1   -2.803109452121070E-1
 1.130974325415529E8     9.262253626920348E-1   -2.873680211631316E-1    5.014049076981005E-2    8.132579367458402E-2    5.159985433464244E-2    8.022453729459818E-2    9.283443435024591E-1   -2.824759422822001E-1
 1.139603504175348E8     9.254066098184325E-1   -2.895573262539684E-1    5.062561665028800E-2    8.195756711805641E-2    5.208868547130490E-2    8.085348403651811E-2    9.275130304028901E-1   -2.846335918059181E-1
 1.148298522383858E8     9.245443873378332E-1   -2.917673083735873E-1    5.112353912703364E-2    8.259200180844141E-2    5.258051687393125E-2    8.147607373024024E-2    9.266794177985394E-1   -2.868181191499778E-1
 1.157059882387014E8     9.236891271793810E-1   -2.939913776872874E-1    5.162251943223332E-2    8.323319730464561E-2    5.307125027859385E-2    8.209819857733516E-2    9.258127187836440E-1   -2.890198716022478E-1
 1.165888090363587E8     9.227883690515092E-1   -2.962514848059180E-1    5.213477337989223E-2    8.387282288802214E-2    5.356805587054242E-2    8.272358345024701E-2    9.249631812926952E-1   -2.912543807148504E-1
 1.174783656354443E8     9.218471621463437E-1   -2.985198629849559E-1    5.265751395200882E-2    8.451326638219565E-2    5.406520136513528E-2    8.334702894277776E-2    9.240975650226438E-1   -2.934859197413236E-1
 1.183747094291968E8     9.208965586010319E-1   -3.007568007595319E-1    5.318236410715042E-2    8.514027046979035E-2    5.454946042671262E-2    8.398257513441164E-2    9.232444318483617E-1   -2.957483098340163E-1
 1.192778922029803E8     9.200124295405845E-1   -3.030084802674666E-1    5.369260358578898E-2    8.579523459950257E-2    5.503443864714871E-2    8.465376718737708E-2    9.223737694972244E-1   -2.980491987117104E-1
 1.201879661372721E8     9.190871555311142E-1   -3.053535227756917E-1    5.423434476051482E-2    8.647044468533654E-2    5.555712303909802E-2    8.535254812426901E-2    9.214704110030918E-1   -3.003869151919046E-1
 1.211049838106809E8     9.181308131036060E-1   -3.076904846519071E-1    5.480775078575281E-2    8.712060111208057E-2    5.612227477229926E-2    8.602979520472888E-2    9.205145365601084E-1   -3.027197067241333E-1
 1.220289982029829E8     9.172086411242383E-1   -3.100174808421534E-1    5.534841250123280E-2    8.774744523625613E-2    5.667257231909080E-2    8.669215306687594E-2    9.195841144868971E-1   -3.050496080431209E-1
 1.229600626981811E8     9.162784830870458E-1   -3.124230676104364E-1    5.586768979735217E-2    8.841019651790766E-2    5.722009572138441E-2    8.737318457885855E-2    9.186253467200026E-1   -3.074274976816980E-1
 1.238982310875929E8     9.153252191876506E-1   -3.148731073903728E-1    5.640188175849898E-2    8.911035845636960E-2    5.778149666378642E-2    8.807913515665057E-2    9.176459336420056E-1   -3.098299867637878E-1
 1.248435575729559E8     9.143148341648593E-1   -3.173931378805457E-1    5.698053339394221E-2    8.982721756363311E-2    5.837520182048972E-2    8.878894376107273E-2    9.166083065228909E-1   -3.122475670648316E-1
 1.257960967695579E8     9.132458244542913E-1   -3.198976282336335E-1    5.757394286063807E-2    9.051040480014375E-2    5.897386746208991E-2    8.946852981602955E-2    9.155584311660336E-1   -3.146366806392055E-1
 1.267559037093956E8     9.121916520548476E-1   -3.224019501214819E-1    5.815880933707482E-2    9.117551130985309E-2    5.957484129470508E-2    9.012525465836238E-2    9.145456010817774E-1   -3.169977214862373E-1
 1.277230338443520E8     9.111467938126462E-1   -3.249613197313808E-1    5.870681367518928E-2    9.189532403285595E-2    6.014123889052164E-2    9.082734425822200E-2    9.135718948133621E-1   -3.194571885849831E-1
 1.286975430493991E8     9.100606923393276E-1   -3.275635149017957E-1    5.930038871382846E-2    9.266217375865526E-2    6.074381583926784E-2    9.157361322475832E-2    9.125404290164710E-1   -3.219745469333392E-1
 1.296794876258291E8     9.089056344090066E-1   -3.301506079127093E-1    5.994702642620423E-2    9.341862308466989E-2    6.138612935858811E-2    9.231928723564387E-2    9.114533195489393E-1   -3.245023746077846E-1
 1.306689243045034E8     9.077436020927081E-1   -3.327285025268850E-1    6.059864430143849E-2    9.415920027274581E-2    6.204339511628017E-2    9.305358846743955E-2    9.103453240265812E-1   -3.270170677557455E-1
 1.316659102491341E8     9.065939088110083E-1   -3.353269166974323E-1    6.125626191180264E-2    9.490888927367462E-2    6.271077781376988E-2    9.378859537871469E-2    9.092261184787254E-1   -3.295694518430295E-1
 1.326705030595824E8     9.054297825623181E-1   -3.379348277056894E-1    6.192360081397123E-2    9.566530926028441E-2    6.338974605249595E-2    9.453337062752319E-2    9.080863066460700E-1   -3.321270841223244E-1
 1.336827607751903E8     9.042740859476835E-1   -3.405840056880636E-1    6.261618011272152E-2    9.642542230132140E-2    6.409271096186699E-2    9.527680828414779E-2    9.069297224139548E-1   -3.346999898137429E-1
 1.347027418781318E8     9.030903187487447E-1   -3.432614995147202E-1    6.331063840630510E-2    9.717883566255553E-2    6.480135748444633E-2    9.600599548344926E-2    9.057609086332490E-1   -3.372871225716654E-1
 1.357305052967905E8     9.018866092904454E-1   -3.459802352109699E-1    6.402288346932185E-2    9.793849253074366E-2    6.550247883922664E-2    9.673635361467929E-2    9.045580854241517E-1   -3.398905285041527E-1
 1.367661104091667E8     9.006539533029100E-1   -3.487033401946843E-1    6.474266118745288E-2    9.869614844844794E-2    6.620878872040505E-2    9.748896312027765E-2    9.033310096796258E-1   -3.425044288504087E-1
 1.378096170463071E8     8.993908802492405E-1   -3.514582614940845E-1    6.546587412713936E-2    9.944977842674761E-2    6.693436800234878E-2    9.824388846232333E-2    9.020884126222807E-1   -3.451205539277223E-1
 1.388610854957592E8     8.981214770706244E-1   -3.542423343722286E-1    6.618193402660839E-2    1.002138948816001E-1    6.766293924154368E-2    9.900669193670518E-2    9.008733243202460E-1   -3.477459785629785E-1
 1.399205765050585E8     8.968093040746122E-1   -3.570281105774716E-1    6.690365870269578E-2    1.009962165509295E-1    6.839704588336934E-2    9.978463248862633E-2    8.996414833700201E-1   -3.504229706382905E-1
 1.409881512852336E8     8.954853738406908E-1   -3.598257645729733E-1    6.763596181652640E-2    1.017997412664977E-1    6.914782120381663E-2    1.005818996941105E-1    8.983707698533625E-1   -3.531577904479133E-1
 1.420638715143470E8     8.941529548156811E-1   -3.626373974549032E-1    6.838486664328455E-2    1.026284027994630E-1    6.992038253392258E-2    1.013981417501515E-1    8.970741509033372E-1   -3.558891508436152E-1
 1.431477993410541E8     8.927983638647297E-1   -3.654596052669054E-1    6.915656561797616E-2    1.034634068439939E-1    7.071589969785083E-2    1.022161378653854E-1    8.957644547445615E-1   -3.586380249931047E-1
 1.442399973881980E8     8.914213749098370E-1   -3.683276969690297E-1    6.994845873484588E-2    1.043156701467098E-1    7.153018895743593E-2    1.030474244243161E-1    8.944205116941033E-1   -3.614487840941971E-1
 1.453405287564251E8     8.900159257842224E-1   -3.712390090394337E-1    7.077415650013265E-2    1.051872997838835E-1    7.237107944208546E-2    1.038894854897778E-1    8.930129629763003E-1   -3.642590764160204E-1
 1.464494570278296E8     8.885717144557953E-1   -3.741430241238596E-1    7.163407566149155E-2    1.060510754547340E-1    7.324428851958062E-2    1.047248384174326E-1    8.915716609988605E-1   -3.670690693835767E-1
 1.475668462696298E8     8.870975100513386E-1   -3.770819230829750E-1    7.251245807832453E-2    1.069034693939613E-1    7.412486677786850E-2    1.055547572647212E-1    8.901247443802868E-1   -3.698930058168122E-1
 1.486927610378684E8     8.855587818082973E-1   -3.800140643276378E-1    7.341259476878453E-2    1.077560485584751E-1    7.502240582121179E-2    1.063887088908868E-1    8.886446927633982E-1   -3.727283962098747E-1
 1.498272663811400E8     8.840349735591054E-1   -3.829762791875205E-1    7.433014746376752E-2    1.086063805222882E-1    7.593941838340135E-2    1.072252408609924E-1    8.871173247593235E-1   -3.756045702150023E-1
 1.509704278443526E8     8.824757531228775E-1   -3.859415774723048E-1    7.525055325717059E-2    1.094522503724553E-1    7.686120342345738E-2    1.080540347314161E-1    8.855469814574253E-1   -3.784722876115998E-1
 1.521223114725131E8     8.808987857241430E-1   -3.889104460465151E-1    7.616682838487709E-2    1.103094604634345E-1    7.778298043715035E-2    1.088963133159379E-1    8.839414673372119E-1   -3.813364823355387E-1
 1.532829838145407E8     8.792892863201865E-1   -3.919310672524307E-1    7.710157730939085E-2    1.111845275353131E-1    7.872527990874788E-2    1.097604955489151E-1    8.823951874078535E-1   -3.842072133306407E-1
 1.544525119271165E8     8.776455516125128E-1   -3.949818388761384E-1    7.806147404478560E-2    1.120874034210053E-1    7.969759736860299E-2    1.106408489734587E-1    8.808453220649887E-1   -3.871192403864014E-1
 1.556309633785520E8     8.759550842014858E-1   -3.980521371272441E-1    7.904280822700123E-2    1.129823826573837E-1    8.070885308811840E-2    1.115180699509232E-1    8.792626813799105E-1   -3.901222651659739E-1
 1.568184062526983E8     8.742614700385838E-1   -4.011254353508206E-1    8.002342775382110E-2    1.138964928400078E-1    8.173632780652150E-2    1.123969877954393E-1    8.776383677889807E-1   -3.930827009552498E-1
 1.580149091528745E8     8.725459409200166E-1   -4.042337363008138E-1    8.101273534501346E-2    1.148541882604205E-1    8.279214860099678E-2    1.132977189430634E-1    8.760009131653855E-1   -3.960717537776933E-1
 1.592205412058353E8     8.707545857073586E-1   -4.073430512656272E-1    8.206206744848740E-2    1.158078086921096E-1    8.389976740905250E-2    1.142084623072385E-1    8.743228891351708E-1   -3.991030792371161E-1
 1.604353720657634E8     8.689358473954821E-1   -4.104219274016047E-1    8.314207346772004E-2    1.167550553456963E-1    8.504656818385552E-2    1.151119721959954E-1    8.725948767158205E-1   -4.021815694162216E-1
 1.616594719182909E8     8.671014962185473E-1   -4.135353852193660E-1    8.425352810257516E-2    1.176851917084642E-1    8.621450358065662E-2    1.160011013606166E-1    8.708009198909162E-1   -4.052870545756348E-1
 1.628929114845590E8     8.652420336710730E-1   -4.165981182947720E-1    8.537805154192894E-2    1.186020445395590E-1    8.740643359627548E-2    1.168745610952651E-1    8.689501499910802E-1   -4.083991623683563E-1
 1.641357620253014E8     8.634265092896458E-1   -4.195594011608713E-1    8.649905070022877E-2    1.195096799482258E-1    8.857537319084048E-2    1.177537038322394E-1    8.670494245828700E-1   -4.115193039887915E-1
 1.653880953449593E8     8.615228289648820E-1   -4.227081241897603E-1    8.765012554038748E-2    1.204058623047784E-1    8.975487338565231E-2    1.186292897238308E-1    8.651516054443577E-1   -4.146487190611390E-1
 1.666499837958347E8     8.595745114547542E-1   -4.258969960991021E-1    8.882763021318778E-2    1.213034478192516E-1    9.095331579495834E-2    1.195099516761890E-1    8.631875095118303E-1   -4.178369473095451E-1
 1.679215002822650E8     8.576124572112634E-1   -4.291469391998210E-1    9.002274441184799E-2    1.222203890104799E-1    9.215021973451870E-2    1.204162841466678E-1    8.612029396875649E-1   -4.210237318297340E-1
 1.692027182648404E8     8.555815089583483E-1   -4.324300476851130E-1    9.125631834319280E-2    1.231556161096089E-1    9.339641431742808E-2    1.213381455268049E-1    8.591678886792656E-1   -4.242550987213899E-1
 1.704937117646426E8     8.534694660786367E-1   -4.357720379736618E-1    9.251959883068796E-2    1.241068498204954E-1    9.467286098469076E-2    1.222609957056953E-1    8.571088592781411E-1   -4.275096589924776E-1
 1.717945553675260E8     8.513527174723617E-1   -4.391031699671226E-1    9.381422070082410E-2    1.250385736010160E-1    9.598631798252144E-2    1.231701280711781E-1    8.549806883465377E-1   -4.307990013542502E-1
 1.731053242284249E8     8.491910970969316E-1   -4.424452655996485E-1    9.510852077361802E-2    1.259621944020304E-1    9.728809874080312E-2    1.240793538827209E-1    8.527810306457142E-1   -4.340622273550946E-1
 1.744260940756933E8     8.469710122721750E-1   -4.458224264614601E-1    9.643668020182268E-2    1.269056199534947E-1    9.862706892827752E-2    1.250084787563686E-1    8.505731225298393E-1   -4.373898152464571E-1
 1.757569412154842E8     8.447037041270051E-1   -4.492322861334883E-1    9.774540613276567E-2    1.278204514891708E-1    9.994672542290345E-2    1.259235291383365E-1    8.482659968200289E-1   -4.406642661342708E-1
 1.770979425361561E8     8.423640098890409E-1   -4.526766077434196E-1    9.904467818400245E-2    1.287933219714903E-1    1.012671629388742E-1    1.268965252026970E-1    8.459859752301305E-1   -4.439060448991249E-1
 1.784491755127131E8     8.398725430664054E-1   -4.561080407793724E-1    1.003881901155151E-1    1.298264860337718E-1    1.026470952522516E-1    1.279206182891863E-1    8.436918176543822E-1   -4.472553539733398E-1
 1.798107182112848E8     8.373558284910603E-1   -4.594868909720116E-1    1.018007527837965E-1    1.308894238876811E-1    1.040881193007444E-1    1.289590906476826E-1    8.413102246531453E-1   -4.506298766999806E-1
 1.811826492936349E8     8.347781665827897E-1   -4.628509921094381E-1    1.032637822354244E-1    1.319524055649973E-1    1.055590619604040E-1    1.299927684691204E-1    8.388391503480973E-1   -4.540114491647068E-1
 1.825650480217040E8     8.321401398313792E-1   -4.661840451672379E-1    1.047992246316195E-1    1.330016002801225E-1    1.071148596372619E-1    1.310183702123289E-1    8.363321730532676E-1   -4.574633878104351E-1
 1.839579942621904E8     8.294420217018000E-1   -4.694980682417266E-1    1.063881866663793E-1    1.340370436067249E-1    1.087034553623544E-1    1.320378595899543E-1    8.337516908861093E-1   -4.608642062218753E-1
 1.853615684911660E8     8.267297225907565E-1   -4.727857841525397E-1    1.080050899097542E-1    1.350490857142903E-1    1.103276521323475E-1    1.330472129887996E-1    8.311345982304725E-1   -4.642579696297496E-1
 1.867758517987237E8     8.240247446616846E-1   -4.760989222071959E-1    1.096179132860005E-1    1.360431342673351E-1    1.119516970504506E-1    1.340314462483848E-1    8.284499056086094E-1   -4.677401575336113E-1
 1.882009258936609E8     8.213157127472057E-1   -4.794393387646195E-1    1.112579890801836E-1    1.370831163403678E-1    1.136139326947082E-1    1.350636341515424E-1    8.256988828894882E-1   -4.711840553362263E-1
 1.896368731082037E8     8.185114181263252E-1   -4.828016927132324E-1    1.129368260292462E-1    1.381084750127979E-1    1.153111904119681E-1    1.360777092160432E-1    8.228398695104245E-1   -4.746873857530408E-1
 1.910837764027621E8     8.156333053313999E-1   -4.862450928865698E-1    1.146500098611021E-1    1.391512824036009E-1    1.170302812362271E-1    1.371057239717576E-1    8.199980400793223E-1   -4.781240286995921E-1
 1.925417193707203E8     8.126467447779636E-1   -4.897567153574223E-1    1.163903762481653E-1    1.401850184541240E-1    1.187744012641984E-1    1.381342156062278E-1    8.170708477789189E-1   -4.816082963629679E-1
 1.940107862432706E8     8.095299548957349E-1   -4.932502677810600E-1    1.181253244263639E-1    1.412228268480887E-1    1.205050754552827E-1    1.391826661825259E-1    8.140476872520487E-1   -4.851549261141489E-1
 1.954910618942780E8     8.062559153195791E-1   -4.967154435145105E-1    1.198351393258636E-1    1.423462311504240E-1    1.222501695666197E-1    1.403511624081604E-1    8.109335548854112E-1   -4.886178383026775E-1
 1.969826318451810E8     8.028965840590956E-1   -5.001299828302228E-1    1.216663744232956E-1    1.435791766463264E-1    1.241769469559731E-1    1.415672172650060E-1    8.078868509517828E-1   -4.920808919170999E-1
 1.984855822699381E8     7.994171313577867E-1   -5.033885220883907E-1    1.235525944082397E-1    1.447942277455787E-1    1.261170709685572E-1    1.427302070643897E-1    8.047505585400873E-1   -4.956625556460056E-1
 2.000000000000000E8     7.959317827343153E-1   -5.065607686477372E-1    1.254821648590930E-1    1.460977240324953E-1    1.280894501822337E-1    1.439714910791399E-1    8.014684837330293E-1   -4.992533784255405E-1
