#  HZ   S   RI   R     50.00 
! Rohde & Schwarz Vector Network Analyzer 
! Rohde-Schwarz,ZNLE6-2Port,1323001256200024,1.71.1.10-23.02.1.238
! Created: UTC 4/11/2025, 6:25:18 AM
! freq[Hz]                re:S11                  im:S11                  re:S21                  im:S21                  re:S12                  im:S12                  re:S22                  im:S22
 1.000000000000000E5     9.153270748041208E-1    6.461420518495629E-2    8.576015247162548E-2   -6.503098127561220E-2    8.588026907184038E-2   -6.510349270597379E-2    9.150271423245544E-1    6.443864382570544E-2
 1.007629862646662E5     9.154701275676997E-1    6.433326267646881E-2    8.558651063612005E-2   -6.478615166475184E-2    8.570020117826926E-2   -6.485679877231276E-2    9.151959157516583E-1    6.419487950735171E-2
 1.015317940097331E5     9.156605225995819E-1    6.409474939063702E-2    8.540914981997705E-2   -6.453827753390261E-2    8.552664844905117E-2   -6.461016815522998E-2    9.153565767225281E-1    6.396375274788395E-2
 1.023064676522963E5     9.158124302268590E-1    6.383348680954595E-2    8.523393064900471E-2   -6.429569520840647E-2    8.534979780398336E-2   -6.436231314147789E-2    9.155464712127640E-1    6.372737059605221E-2
 1.030870519483485E5     9.159556729145411E-1    6.357919022977826E-2    8.506029774328884E-2   -6.405505984045279E-2    8.517677798459114E-2   -6.412194060124972E-2    9.156969757045968E-1    6.347845724258835E-2
 1.038735919953636E5     9.160823322459242E-1    6.335206455883506E-2    8.488261022150743E-2   -6.381313090525276E-2    8.500074604214712E-2   -6.388304693197465E-2    9.158668084046135E-1    6.322499882918729E-2
 1.046661332349037E5     9.162332207451016E-1    6.309243094626031E-2    8.470251795213457E-2   -6.356705005320479E-2    8.482712182282166E-2   -6.364651968069621E-2    9.160568993246619E-1    6.301514021084366E-2
 1.054647214552430E5     9.164599423716933E-1    6.285317925736349E-2    8.453484279980832E-2   -6.333936065536468E-2    8.465349787027357E-2   -6.341050604287925E-2    9.162432765837829E-1    6.276484578687160E-2
 1.062694027940149E5     9.166355249127787E-1    6.263663711032742E-2    8.436219509681754E-2   -6.310926580192067E-2    8.448318095215970E-2   -6.317704021821836E-2    9.163955200976619E-1    6.253073678038036E-2
 1.070802237408760E5     9.167663894816792E-1    6.238242364410831E-2    8.418504440118794E-2   -6.286960863375449E-2    8.430486952478351E-2   -6.294397515453339E-2    9.165630922918210E-1    6.231445258928510E-2
 1.078972311401927E5     9.169395432049837E-1    6.216250927641791E-2    8.401106821482394E-2   -6.263901362009910E-2    8.412987090530272E-2   -6.271144371359312E-2    9.167173528759428E-1    6.208501801880679E-2
 1.087204721937475E5     9.171454561730139E-1    6.191652924067358E-2    8.383747173821433E-2   -6.241592279300085E-2    8.395115011497727E-2   -6.248414705876612E-2    9.169002359144529E-1    6.182094485038402E-2
 1.095499944634658E5     9.172978037483035E-1    6.168671227488186E-2    8.365797762589179E-2   -6.218713107219694E-2    8.377920198663923E-2   -6.225406027295601E-2    9.170575041486768E-1    6.161139959219118E-2
 1.103858458741646E5     9.174854599106449E-1    6.145985193658047E-2    8.348748795844164E-2   -6.195776956450837E-2    8.360070683561681E-2   -6.202658448626622E-2    9.172361751135417E-1    6.137984308052429E-2
 1.112280747163201E5     9.176107297421170E-1    6.123394227865997E-2    8.330985183164846E-2   -6.173430248686330E-2    8.342863883974636E-2   -6.180373908334494E-2    9.174226540800774E-1    6.117046769107348E-2
 1.120767296488583E5     9.177892262211040E-1    6.100535060574264E-2    8.313454305606111E-2   -6.150783235495436E-2    8.325267894433565E-2   -6.158183301081371E-2    9.175612750143424E-1    6.093861884356491E-2
 1.129318597019661E5     9.179594409179835E-1    6.077794208326166E-2    8.295485627369836E-2   -6.129013523880463E-2    8.307300579162750E-2   -6.135860325363168E-2    9.177308330759480E-1    6.071200973691282E-2
 1.137935142799240E5     9.181630396634903E-1    6.056895080732613E-2    8.278669521226767E-2   -6.107201247255086E-2    8.289932871424920E-2   -6.113894249039082E-2    9.179308305339122E-1    6.048882007620453E-2
 1.146617431639607E5     9.183301531251500E-1    6.035805136137248E-2    8.261146804775560E-2   -6.085474560950639E-2    8.271876774616484E-2   -6.091689516214197E-2    9.180837717299337E-1    6.027830834150994E-2
 1.155365965151286E5     9.185112164833806E-1    6.012740501749557E-2    8.243533772929723E-2   -6.063451719987348E-2    8.254230871230075E-2   -6.069909042139441E-2    9.182567925139841E-1    6.006078827772725E-2
 1.164181248772018E5     9.186775951887638E-1    5.991860121449349E-2    8.226317904435065E-2   -6.042387291982362E-2    8.236561095406766E-2   -6.048975091173969E-2    9.184311723320467E-1    5.984119387712702E-2
 1.173063791795965E5     9.188478131987079E-1    5.970813678430831E-2    8.209062997968544E-2   -6.020983480404184E-2    8.218712517104185E-2   -6.027613437542630E-2    9.186245292849475E-1    5.962958489968476E-2
 1.182014107403141E5     9.190075034764911E-1    5.950356317806983E-2    8.191186671360424E-2   -5.999796448134930E-2    8.201340066534459E-2   -6.005685998462931E-2    9.187670794675470E-1    5.942888935883599E-2
 1.191032712689044E5     9.191719860094235E-1    5.927201336361584E-2    8.172531087362439E-2   -5.978637868087876E-2    8.183540969069610E-2   -5.984847232579547E-2    9.189144835937856E-1    5.920606164502379E-2
 1.200120128694542E5     9.193590691814744E-1    5.907023724230763E-2    8.155586291708324E-2   -5.957272462726844E-2    8.166011414963301E-2   -5.963854380127757E-2    9.191213742023902E-1    5.899662093104119E-2
 1.209276880435975E5     9.195220576563599E-1    5.886877327547404E-2    8.137367923891925E-2   -5.936512126141291E-2    8.148326721238633E-2   -5.942953781078285E-2    9.192777465730541E-1    5.878466409407893E-2
 1.218503496935483E5     9.196745192112670E-1    5.864811206204547E-2    8.119658982060997E-2   -5.915751122466416E-2    8.130025067045367E-2   -5.922273506913817E-2    9.194551888269162E-1    5.859048232703946E-2
 1.227800511251578E5     9.198655158355437E-1    5.845197098636846E-2    8.102347608154652E-2   -5.895022454541793E-2    8.112795245402780E-2   -5.901607037303989E-2    9.196513766074664E-1    5.836774049609755E-2
 1.237168460509929E5     9.200364450236597E-1    5.822828281536055E-2    8.084245392366465E-2   -5.874733481145363E-2    8.094959757545173E-2   -5.881281332956378E-2    9.198058162805036E-1    5.817877615637759E-2
 1.246607885934402E5     9.202035021489211E-1    5.803528549761743E-2    8.066734853671946E-2   -5.854338966223677E-2    8.076704803655713E-2   -5.861132411138653E-2    9.199722398646449E-1    5.795387661419280E-2
 1.256119332878327E5     9.203649857670294E-1    5.783707197029486E-2    8.048907969252296E-2   -5.834538367803049E-2    8.059364939758042E-2   -5.840410088416082E-2    9.201434033461321E-1    5.776196534059643E-2
 1.265703350856002E5     9.205632571476373E-1    5.763987115588175E-2    8.030941025191655E-2   -5.814153535046524E-2    8.041764741065770E-2   -5.820895277824221E-2    9.202962263377495E-1    5.756126797494689E-2
 1.275360493574453E5     9.207238182185979E-1    5.742496192048671E-2    8.012998563523113E-2   -5.794417794771515E-2    8.023990148072216E-2   -5.800663413852662E-2    9.204830208141630E-1    5.735403478624595E-2
 1.285091318965405E5     9.209145610110866E-1    5.722541801313274E-2    7.995621415914267E-2   -5.774396195630645E-2    8.006566710164505E-2   -5.780983114460411E-2    9.206882876319979E-1    5.716122837973943E-2
 1.294896389217529E5     9.210579569655176E-1    5.703644435625905E-2    7.977789380117455E-2   -5.754642032925068E-2    7.988057711106789E-2   -5.761404219062610E-2    9.208666070533517E-1    5.698119106123770E-2
 1.304776270808914E5     9.212436138793056E-1    5.684531360617526E-2    7.959965425766989E-2   -5.735910572109976E-2    7.970361044401666E-2   -5.741874276523059E-2    9.210854831503202E-1    5.679149058965310E-2
 1.314731534539810E5     9.214134701945713E-1    5.664504058452101E-2    7.942293605061554E-2   -5.715810860526765E-2    7.952241757358189E-2   -5.722017913204132E-2    9.212223662985630E-1    5.659101972808490E-2
 1.324762755565583E5     9.215644191299591E-1    5.646066691214648E-2    7.924015717680689E-2   -5.696710157377460E-2    7.934698548803949E-2   -5.703079308196157E-2    9.214177249915837E-1    5.639376619371780E-2
 1.334870513429962E5     9.217668465934804E-1    5.624167065224715E-2    7.906194241207710E-2   -5.677777665556367E-2    7.917054115568525E-2   -5.683899214408677E-2    9.216208256743548E-1    5.621474318985575E-2
 1.345055392098512E5     9.219339068237665E-1    5.606794774334140E-2    7.888342898669061E-2   -5.658354481289236E-2    7.898831286476157E-2   -5.664625799745054E-2    9.217817615612132E-1    5.601164771080888E-2
 1.355317979992373E5     9.221409923625434E-1    5.588534195733997E-2    7.870918667653481E-2   -5.639717037871319E-2    7.880915963877061E-2   -5.645456558623387E-2    9.219727112658541E-1    5.583666004812820E-2
 1.365658870022265E5     9.223082631108976E-1    5.568051977727294E-2    7.852588457222824E-2   -5.620740273920002E-2    7.863127136519892E-2   -5.626293177233795E-2    9.221402202017855E-1    5.563458669549596E-2
 1.376078659622731E5     9.224734795306931E-1    5.548679102720447E-2    7.834840358598422E-2   -5.601696216805571E-2    7.844585015663721E-2   -5.607580129890061E-2    9.223178561826533E-1    5.544777509820260E-2
 1.386577950786655E5     9.226505708802685E-1    5.529783943348921E-2    7.817368624516963E-2   -5.583452201852804E-2    7.826742245588308E-2   -5.589196557502286E-2    9.224784282385561E-1    5.526383923706127E-2
 1.397157350100044E5     9.228138827599085E-1    5.509660721814657E-2    7.799004616701401E-2   -5.564371852897955E-2    7.808434912841906E-2   -5.570615593342173E-2    9.226265736279355E-1    5.504766201748932E-2
 1.407817468777081E5     9.229966068571018E-1    5.491986956052263E-2    7.780706849699617E-2   -5.545948703479188E-2    7.791121036148196E-2   -5.552012196823936E-2    9.227880241677859E-1    5.486666692225141E-2
 1.418558922695422E5     9.231974198238891E-1    5.473442523541799E-2    7.763190819113948E-2   -5.527751696116045E-2    7.772495129516847E-2   -5.533345319719202E-2    9.230053393498936E-1    5.468952172227928E-2
 1.429382332431784E5     9.233751522671232E-1    5.455282001298513E-2    7.745239063077740E-2   -5.509501682329430E-2    7.754648474078206E-2   -5.515066658065045E-2    9.231772652319585E-1    5.452055045818361E-2
 1.440288323297804E5     9.235511820997800E-1    5.436631492636322E-2    7.726829007480891E-2   -5.491032480365581E-2    7.736636183599470E-2   -5.496742523567419E-2    9.233499274950518E-1    5.433092508946263E-2
 1.451277525376154E5     9.237192624081690E-1    5.418227077212948E-2    7.709178006039809E-2   -5.473271131533318E-2    7.718620340551777E-2   -5.479106687466347E-2    9.235110341767603E-1    5.414426750742807E-2
 1.462350573556962E5     9.238767696563858E-1    5.401381929833722E-2    7.690589571199091E-2   -5.455306190115526E-2    7.701183584668056E-2   -5.461263534136378E-2    9.237112760111881E-1    5.396889326952756E-2
 1.473508107574468E5     9.240552252312992E-1    5.383625480904261E-2    7.672935959789931E-2   -5.437560688715189E-2    7.682779393717140E-2   -5.442921940260893E-2    9.238892277411724E-1    5.379143904720858E-2
 1.484750772044004E5     9.242146141346920E-1    5.365349075042177E-2    7.655000189870845E-2   -5.418994172325517E-2    7.665178007669732E-2   -5.425126891943342E-2    9.240566834838195E-1    5.361344008386695E-2
 1.496079216499225E5     9.244270703297897E-1    5.347681638507333E-2    7.637031006563764E-2   -5.401499658789480E-2    7.646760774212953E-2   -5.407058296044957E-2    9.242259313367032E-1    5.344649406406062E-2
 1.507494095429637E5     9.245866932126207E-1    5.330301147939755E-2    7.619115606653197E-2   -5.383693419259244E-2    7.628773627975660E-2   -5.389645893657905E-2    9.244508419106164E-1    5.326413630481729E-2
 1.518996068318418E5     9.247621142964406E-1    5.311236290998472E-2    7.600782518373052E-2   -5.366481858239655E-2    7.610632292163801E-2   -5.371964332573300E-2    9.246099883271155E-1    5.307683990904480E-2
 1.530585799680507E5     9.249318536514385E-1    5.295638409758859E-2    7.582975981274882E-2   -5.348394076707279E-2    7.592468198955968E-2   -5.354507103517657E-2    9.247946676831511E-1    5.290044678394454E-2
 1.542263959101001E5     9.251037677167261E-1    5.276542603034633E-2    7.564711537696325E-2   -5.331289656607514E-2    7.574631438070693E-2   -5.336888820780232E-2    9.249617713180429E-1    5.272769554019836E-2
 1.554031221273835E5     9.252981639985618E-1    5.258542850252374E-2    7.546663048547986E-2   -5.314304783325591E-2    7.556640275957513E-2   -5.319832984067559E-2    9.251132645628650E-1    5.254668688423241E-2
 1.565888266040779E5     9.254992998383211E-1    5.242034174563294E-2    7.528938670408475E-2   -5.297207577495541E-2    7.538186622050641E-2   -5.302615230680723E-2    9.253107981251835E-1    5.236588785498396E-2
 1.577835778430689E5     9.256630584729751E-1    5.225337709065263E-2    7.510970357255367E-2   -5.279814119714410E-2    7.520171016483285E-2   -5.285527299323435E-2    9.254823075808443E-1    5.221455566607610E-2
 1.589874448699104E5     9.258098805944730E-1    5.207873816111280E-2    7.492796695509074E-2   -5.262727637516085E-2    7.502132763773676E-2   -5.268410523207331E-2    9.256913698590790E-1    5.203752743366157E-2
 1.602004972368116E5     9.260177482421238E-1    5.189902150654296E-2    7.474796115202395E-2   -5.245680578714753E-2    7.484030146478814E-2   -5.251218578195656E-2    9.258565881486356E-1    5.187350304758682E-2
 1.614228050266550E5     9.262162125124909E-1    5.174194915509178E-2    7.456396073105960E-2   -5.228819295109506E-2    7.466288849343711E-2   -5.234595137725859E-2    9.260373022938534E-1    5.169932219467226E-2
 1.626544388570473E5     9.263755684979301E-1    5.156989468224016E-2    7.437963718504007E-2   -5.211721157022422E-2    7.448184848969644E-2   -5.217744136626039E-2    9.262324704926332E-1    5.153222558770008E-2
 1.638954698843964E5     9.265674600656126E-1    5.139522378447114E-2    7.420078556636682E-2   -5.194836874817354E-2    7.430125180530434E-2   -5.201035867437471E-2    9.264001037670521E-1    5.137413711860481E-2
 1.651459698080244E5     9.267280189719190E-1    5.122087009164231E-2    7.401913249275892E-2   -5.178071435979875E-2    7.411512499989907E-2   -5.184282995835714E-2    9.265920039576026E-1    5.117626016818039E-2
 1.664060108743095E5     9.269370591121696E-1    5.106150899159595E-2    7.383538625078481E-2   -5.161730449499388E-2    7.393544229743557E-2   -5.167071608950981E-2    9.267425597683081E-1    5.102157930672513E-2
 1.676756658808590E5     9.270899185464373E-1    5.088361290489030E-2    7.365244394308018E-2   -5.145000118740387E-2    7.375018933060822E-2   -5.150780281822225E-2    9.269298659119332E-1    5.085107821685402E-2
 1.689550081807175E5     9.272739677109028E-1    5.071908339333144E-2    7.347519990963348E-2   -5.128480264243102E-2    7.357342781229961E-2   -5.134369248063218E-2    9.270879845514326E-1    5.069889690067034E-2
 1.702441116866020E5     9.274584507316476E-1    5.053995651401205E-2    7.329169667586374E-2   -5.112647449303343E-2    7.338930366195949E-2   -5.117883722608167E-2    9.272811050970964E-1    5.052537062137488E-2
 1.715430508751738E5     9.276715654787915E-1    5.039726867796918E-2    7.311587543830715E-2   -5.096151783529224E-2    7.320711205475916E-2   -5.101892798153816E-2    9.274882264220874E-1    5.036017947259992E-2
 1.728519007913403E5     9.278516003440189E-1    5.023140819933229E-2    7.293382852037857E-2   -5.079807983301530E-2    7.302664000874905E-2   -5.085362588374034E-2    9.276767568302008E-1    5.020219246132909E-2
 1.741707370525927E5     9.280308044114318E-1    5.006169314336885E-2    7.275552226134838E-2   -5.063179966900668E-2    7.284782786141540E-2   -5.069226562330301E-2    9.278060479740065E-1    5.003080658322028E-2
 1.754996358533718E5     9.282017531235548E-1    4.991646956789324E-2    7.256930211496568E-2   -5.047045060201849E-2    7.266584072801179E-2   -5.052726058290334E-2    9.279853363807937E-1    4.985769802008660E-2
 1.768386739694722E5     9.283757351677586E-1    4.974367009755755E-2    7.239001838023078E-2   -5.031005393924012E-2    7.248301502789187E-2   -5.036532193938102E-2    9.282035148113302E-1    4.970865819159476E-2
 1.781879287624771E5     9.285780100163976E-1    4.957909692294013E-2    7.220734978619492E-2   -5.015040499245874E-2    7.230734602746285E-2   -5.020865369243999E-2    9.283808752395309E-1    4.954811547738319E-2
 1.795474781842276E5     9.287231276093699E-1    4.942606751264437E-2    7.202573459598886E-2   -4.998663594848162E-2    7.211817739704961E-2   -5.004305699105556E-2    9.285455604814831E-1    4.939608915009575E-2
 1.809174007813277E5     9.288901571856258E-1    4.925601016637100E-2    7.184810307535752E-2   -4.982570550001899E-2    7.193860635451500E-2   -4.988384194682007E-2    9.287230042485606E-1    4.923388769945282E-2
 1.822977756996804E5     9.290905611224931E-1    4.909320352623581E-2    7.166918183336625E-2   -4.966989388409103E-2    7.176048587197559E-2   -4.972299778722904E-2    9.288798052538823E-1    4.906674882809992E-2
 1.836886826890609E5     9.292893083153827E-1    4.893852807209687E-2    7.148491097810968E-2   -4.950858966942905E-2    7.157832967407622E-2   -4.956716446467978E-2    9.290833243887511E-1    4.890171235148718E-2
 1.850902021077247E5     9.294560280171773E-1    4.878478196750763E-2    7.130557124879862E-2   -4.935309472828405E-2    7.139555799803325E-2   -4.940893010800641E-2    9.292712523589204E-1    4.875313048741842E-2
 1.865024149270491E5     9.296071563128819E-1    4.860943320778979E-2    7.112698067162099E-2   -4.919726316904143E-2    7.121827134628139E-2   -4.924641036708840E-2    9.294702394352955E-1    4.859139468049641E-2
 1.879254027362132E5     9.298007507701526E-1    4.844094304398780E-2    7.094217598517215E-2   -4.903896533610577E-2    7.103271107558369E-2   -4.909399719684169E-2    9.296530236553368E-1    4.844437508694430E-2
 1.893592477469092E5     9.299552027838998E-1    4.831223601734842E-2    7.078143127734481E-2   -4.887371611512985E-2    7.083394040089498E-2   -4.893416304905814E-2    9.297920924408193E-1    4.830552002316726E-2
 1.908040327980933E5     9.301213474953866E-1    4.813922849270102E-2    7.058300602769660E-2   -4.872359991760640E-2    7.067556529841186E-2   -4.877962777144207E-2    9.299834149899334E-1    4.812277267966362E-2
 1.922598413607715E5     9.303029373117191E-1    4.797664151438747E-2    7.039942555087640E-2   -4.856945803903548E-2    7.049696483872744E-2   -4.862625087226412E-2    9.301861023380283E-1    4.796347787357066E-2
 1.937267575428232E5     9.304786254081709E-1    4.781725623739628E-2    7.021927564039206E-2   -4.841508314737440E-2    7.031150655777815E-2   -4.846838385660249E-2    9.303540762165303E-1    4.781236286469501E-2
 1.952048660938581E5     9.306853949319105E-1    4.766492013934516E-2    7.004076213827973E-2   -4.825975921163174E-2    7.013691998832590E-2   -4.831592892290221E-2    9.305528607134764E-1    4.765308926600664E-2
 1.966942524101142E5     9.308703208483072E-1    4.750850740759401E-2    6.986138358850170E-2   -4.810833165075258E-2    6.995226085806262E-2   -4.815658996463901E-2    9.307383227321168E-1    4.750073387791119E-2
 1.981950025393913E5     9.310382415408143E-1    4.735456721456283E-2    6.968441147152181E-2   -4.795387995969581E-2    6.977152375959562E-2   -4.800309151487396E-2    9.309109326118424E-1    4.734335132454995E-2
 1.997072031860212E5     9.312578305763075E-1    4.722059161063172E-2    6.950649713966853E-2   -4.779847890245670E-2    6.959455929460646E-2   -4.784911091246102E-2    9.310938553836774E-1    4.718426038227301E-2
 2.012309417158795E5     9.314297119255009E-1    4.703941653348042E-2    6.931979310681315E-2   -4.764459866750551E-2    6.940996161876928E-2   -4.769616681417908E-2    9.312259531158683E-1    4.701375016683722E-2
 2.027663061614301E5     9.316009173915429E-1    4.688697211522797E-2    6.914787027570370E-2   -4.749230737439724E-2    6.923255492832230E-2   -4.754562458260350E-2    9.314159786492880E-1    4.687838868890649E-2
 2.043133852268128E5     9.317499927693496E-1    4.673920680523306E-2    6.896826750764062E-2   -4.733784920598763E-2    6.904956981470087E-2   -4.739369707147156E-2    9.315854902053040E-1    4.672176318357583E-2
 2.058722682929675E5     9.319379958181417E-1    4.660236150476685E-2    6.878337575172265E-2   -4.718790597014556E-2    6.886967098038868E-2   -4.723577118150072E-2    9.317623786941698E-1    4.655602407031958E-2
 2.074430454227995E5     9.321336874305682E-1    4.644119901719135E-2    6.860942860307138E-2   -4.703554334989452E-2    6.868886027525338E-2   -4.708469649793335E-2    9.319221495011470E-1    4.640093221043432E-2
 2.090258073663807E5     9.323063047051141E-1    4.628206598244854E-2    6.842214249661098E-2   -4.688122963830774E-2    6.850643347017107E-2   -4.693160089395034E-2    9.320970746599078E-1    4.624724460276814E-2
 2.106206455661938E5     9.324993699251584E-1    4.612470787339387E-2    6.824760186547066E-2   -4.673784495781443E-2    6.833203916571760E-2   -4.678277413557402E-2    9.323077079878371E-1    4.610597102594523E-2
 2.122276521624151E5     9.326624180356823E-1    4.596257173709594E-2    6.807092872104163E-2   -4.658804821555838E-2    6.815343360601449E-2   -4.663231220023950E-2    9.324592727313878E-1    4.594119735353761E-2
 2.138469199982374E5     9.328378881158016E-1    4.581933690383939E-2    6.788869424525940E-2   -4.643318362789260E-2    6.797218554900471E-2   -4.648055465429148E-2    9.326773315959150E-1    4.579665699977859E-2
 2.154785426252357E5     9.330314996354926E-1    4.566549060106417E-2    6.771205419167023E-2   -4.628321506717067E-2    6.779513417388236E-2   -4.633228464983216E-2    9.328554390277485E-1    4.564477553992664E-2
 2.171226143087691E5     9.331713939018565E-1    4.550119400613468E-2    6.753039557204681E-2   -4.613253672037138E-2    6.761529131553932E-2   -4.618023344048151E-2    9.330090968917457E-1    4.548305609910906E-2
 2.187792300334291E5     9.333650602846834E-1    4.535290442447592E-2    6.735280864814405E-2   -4.598536240053300E-2    6.743601750462433E-2   -4.603076104699900E-2    9.331915518297229E-1    4.533050999351759E-2
 2.204484855085266E5     9.335407181870989E-1    4.520356122312660E-2    6.717367219029174E-2   -4.583354405107964E-2    6.726190777853681E-2   -4.588700946971875E-2    9.333659058293092E-1    4.516607666006817E-2
 2.221304771736209E5     9.337305935129158E-1    4.505369427070592E-2    6.699541328583536E-2   -4.568635618576058E-2    6.708604887748773E-2   -4.573066903425239E-2    9.335072941044246E-1    4.503148584380897E-2
 2.238253022040931E5     9.338796415248410E-1    4.490989892359839E-2    6.681749708441032E-2   -4.553524815976564E-2    6.690818200942529E-2   -4.558619724220980E-2    9.337251139939275E-1    4.487832628478187E-2
 2.255330585167579E5     9.340590865605402E-1    4.475248241174149E-2    6.664191471824693E-2   -4.539389272928047E-2    6.672747780368486E-2   -4.543647024638775E-2    9.338578647103489E-1    4.472659737301127E-2
 2.272538447755223E5     9.342729271819272E-1    4.462570595720327E-2    6.646517257708165E-2   -4.523755953100091E-2    6.655197467015643E-2   -4.528416383250713E-2    9.340783949475260E-1    4.458390093982192E-2
 2.289877603970853E5     9.344253429586600E-1    4.446981812134301E-2    6.628755835797351E-2   -4.508943329001769E-2    6.637321764086393E-2   -4.513756605906717E-2    9.342327866794238E-1    4.442807121168240E-2
 2.307349055566813E5     9.346059076986999E-1    4.430894170200298E-2    6.610732081157614E-2   -4.494502780995047E-2    6.619703465143044E-2   -4.499068327049609E-2    9.343902086336979E-1    4.426343320005689E-2
 2.324953811938693E5     9.347703724415288E-1    4.417076738932883E-2    6.593232291610342E-2   -4.479429896283026E-2    6.602149690540318E-2   -4.484316219749550E-2    9.345685079879658E-1    4.412025320552781E-2
 2.342692890183618E5     9.349263786555121E-1    4.399432206367174E-2    6.575264828470011E-2   -4.464829718048803E-2    6.584590424959580E-2   -4.469462785395553E-2    9.347124663350199E-1    4.397229119603974E-2
 2.360567315159030E5     9.351321216762908E-1    4.384888570851046E-2    6.557905836444937E-2   -4.449787844488820E-2    6.566984003898901E-2   -4.454686816817102E-2    9.349249821207323E-1    4.382052089844975E-2
 2.378578119541888E5     9.353262557559130E-1    4.370683731465913E-2    6.540464000886652E-2   -4.435514635317125E-2    6.549472791472109E-2   -4.440278284154897E-2    9.350651604704685E-1    4.367754092926238E-2
 2.396726343888348E5     9.354949425387069E-1    4.356132810128222E-2    6.523009375686953E-2   -4.420915828770671E-2    6.531992529907703E-2   -4.425401054798982E-2    9.352284598457258E-1    4.352047532973939E-2
 2.415013036693852E5     9.356614696924502E-1    4.340325209494007E-2    6.505352261753121E-2   -4.406176570369320E-2    6.514706926696659E-2   -4.410990794130915E-2    9.354274513328217E-1    4.339043365536675E-2
 2.433439254453724E5     9.358153751048280E-1    4.326025545728256E-2    6.488220652941325E-2   -4.391316352102419E-2    6.496993784931616E-2   -4.396018746091371E-2    9.355914675155284E-1    4.323554968865895E-2
 2.452006061724201E5     9.359916624339368E-1    4.310304447896625E-2    6.470538405084673E-2   -4.376597880043930E-2    6.479608841149072E-2   -4.381488764589028E-2    9.357865120696701E-1    4.308875819639678E-2
 2.470714531183934E5     9.361637740304747E-1    4.295050686075715E-2    6.453632828009821E-2   -4.362037327232897E-2    6.462184575173066E-2   -4.367110816071015E-2    9.359587161431367E-1    4.294047775184364E-2
 2.489565743695979E5     9.363644893659151E-1    4.281343397146855E-2    6.435806708552351E-2   -4.347618826183641E-2    6.444952835329223E-2   -4.352304464451597E-2    9.361343573908373E-1    4.279943607902496E-2
 2.508560788370214E5     9.365094172102489E-1    4.265573797545343E-2    6.418825250877284E-2   -4.332925334373509E-2    6.427578710746357E-2   -4.337612102953771E-2    9.363021034979164E-1    4.266551975785852E-2
 2.527700762626280E5     9.366588552716099E-1    4.250941190104623E-2    6.401304034232019E-2   -4.318442361529119E-2    6.410264874833103E-2   -4.323221256809788E-2    9.364789350720241E-1    4.251810629107011E-2
 2.546986772256976E5     9.368222831794976E-1    4.234958400307189E-2    6.384270907745331E-2   -4.303472824069333E-2    6.393012442719846E-2   -4.308955193932920E-2    9.366391072493893E-1    4.236381587646670E-2
 2.566419931492161E5     9.369744466948423E-1    4.220272507668146E-2    6.367314953837547E-2   -4.288622807871400E-2    6.375910530999052E-2   -4.294403298676479E-2    9.368254213177246E-1    4.221731413295569E-2
 2.586001363063102E5     9.371531765180048E-1    4.204241635723235E-2    6.349775997107995E-2   -4.274685489687455E-2    6.358890418753120E-2   -4.279896241287580E-2    9.369803873929886E-1    4.207503589506380E-2
 2.605732198267354E5     9.372531756774570E-1    4.189610820389077E-2    6.332886311586820E-2   -4.260143689277894E-2    6.341322156107949E-2   -4.265080219784002E-2    9.371582833652975E-1    4.192930928598468E-2
 2.625613577034118E5     9.374708619254197E-1    4.176113531120534E-2    6.315717517669224E-2   -4.245529504168911E-2    6.324396510498502E-2   -4.251009387196657E-2    9.373263171361027E-1    4.178260480314022E-2
 2.645646647990093E5     9.376379196430816E-1    4.162258165631918E-2    6.299042374730265E-2   -4.230814214694902E-2    6.307455789476825E-2   -4.236539861032124E-2    9.374656294910181E-1    4.164019543692123E-2
 2.665832568525859E5     9.377901845122975E-1    4.146911106331497E-2    6.282128667175570E-2   -4.216871906468723E-2    6.290484136423900E-2   -4.222181401509880E-2    9.376497202746884E-1    4.149001222614994E-2
 2.686172504862709E5     9.379792484701223E-1    4.134031793021896E-2    6.265529544653839E-2   -4.202488859798564E-2    6.273723144781777E-2   -4.207534370744527E-2    9.378338003706647E-1    4.134235022347701E-2
 2.706667632120051E5     9.380967117301072E-1    4.119478433573302E-2    6.248836549592914E-2   -4.187656911435214E-2    6.256610332577811E-2   -4.193344318820879E-2    9.380135650156112E-1    4.120066918499465E-2
 2.727319134383292E5     9.382531261104432E-1    4.103727293450609E-2    6.231747433744211E-2   -4.173341992849474E-2    6.240438127404959E-2   -4.178701834911584E-2    9.382042289243102E-1    4.105274039055229E-2
 2.748128204772244E5     9.384485036733203E-1    4.090867146684252E-2    6.215208752876019E-2   -4.158954454084289E-2    6.223498285300794E-2   -4.164500631105778E-2    9.383549910691172E-1    4.091168802632025E-2
 2.769096045510074E5     9.386240215097392E-1    4.076516673431806E-2    6.199031489509835E-2   -4.144776998075386E-2    6.206666986842931E-2   -4.150139377213373E-2    9.385019437373323E-1    4.076211698575071E-2
 2.790223867992730E5     9.388119156705761E-1    4.063506909265795E-2    6.182942913023962E-2   -4.130751976015319E-2    6.190207814555827E-2   -4.135953076957870E-2    9.386429181367429E-1    4.060296778882827E-2
 2.811512892858952E5     9.389769345610611E-1    4.047514427500084E-2    6.166032204604990E-2   -4.116031011397178E-2    6.173355375117732E-2   -4.121463829127549E-2    9.387867798869678E-1    4.046348354883889E-2
 2.832964350060779E5     9.391271795645746E-1    4.033832691312902E-2    6.149147346041470E-2   -4.102007926310021E-2    6.156928414765214E-2   -4.107346928042474E-2    9.389371684739388E-1    4.032830752064263E-2
 2.854579478934632E5     9.392542222462846E-1    4.018726659130043E-2    6.133162633032711E-2   -4.087813406773212E-2    6.140548887327301E-2   -4.092925790480165E-2    9.390924946760049E-1    4.017124908314399E-2
 2.876359528272883E5     9.394470662966150E-1    4.003442089436140E-2    6.116457851317569E-2   -4.073440228826087E-2    6.124057995265113E-2   -4.079033787160590E-2    9.392932296651109E-1    4.003144690931149E-2
 2.898305756396023E5     9.396076150030347E-1    3.988772158357422E-2    6.100971960181745E-2   -4.059513441273709E-2    6.108180766981625E-2   -4.064993869679420E-2    9.394816075765537E-1    3.989381182795201E-2
 2.920419431225354E5     9.397584175641671E-1    3.974476238012979E-2    6.084970546855661E-2   -4.045515514710488E-2    6.091975573051465E-2   -4.050807297871044E-2    9.396295609003833E-1    3.975061750301619E-2
 2.942701830356239E5     9.399281064955967E-1    3.960222396589502E-2    6.069249234663730E-2   -4.031569240537157E-2    6.075501375962754E-2   -4.036643543645656E-2    9.398006426882856E-1    3.961864454355403E-2
 2.965154241131938E5     9.400729311371141E-1    3.946110600149959E-2    6.053072027426409E-2   -4.017413661861459E-2    6.059414958104365E-2   -4.022297805628011E-2    9.399777744701742E-1    3.948216741474788E-2
 2.987777960717941E5     9.402145536900700E-1    3.931782374355067E-2    6.036868355781835E-2   -4.003425329538437E-2    6.043376681990938E-2   -4.008525142307936E-2    9.401042441557956E-1    3.931980551406587E-2
 3.010574296176943E5     9.404337480334697E-1    3.918437074162152E-2    6.021202505085903E-2   -3.989718467009824E-2    6.027805922323795E-2   -3.994612532760370E-2    9.402950065351747E-1    3.917687538936371E-2
 3.033544564544337E5     9.405604397078647E-1    3.904006017994048E-2    6.005275777543835E-2   -3.975382984813587E-2    6.012178495058005E-2   -3.980760397580418E-2    9.404129861217048E-1    3.903701718011961E-2
 3.056690092904338E5     9.407333429423207E-1    3.889846296675298E-2    5.989993060488059E-2   -3.961840848111683E-2    5.996052057280934E-2   -3.966885230498773E-2    9.405984826836719E-1    3.889937507342431E-2
 3.080012218466610E5     9.408999984965341E-1    3.875769846530568E-2    5.974215760329252E-2   -3.948150550411392E-2    5.980676161121721E-2   -3.952861827904514E-2    9.407111382978643E-1    3.876545492571730E-2
 3.103512288643551E5     9.410677058390930E-1    3.862290316331506E-2    5.958561129120409E-2   -3.934184632141320E-2    5.964535448631792E-2   -3.938755863941949E-2    9.408680983825292E-1    3.861262561868542E-2
 3.127191661128128E5     9.412001808392778E-1    3.846980047560668E-2    5.942787744130573E-2   -3.920298145685746E-2    5.949374901573774E-2   -3.925244598214871E-2    9.410309217525074E-1    3.846592840479279E-2
 3.151051703972316E5     9.413414447656100E-1    3.834138973304834E-2    5.927207297331894E-2   -3.906179767132183E-2    5.933741740986028E-2   -3.911187582305167E-2    9.411559105685341E-1    3.833174102183801E-2
 3.175093795666154E5     9.414632626355790E-1    3.818514786109558E-2    5.911800619176151E-2   -3.892784229823418E-2    5.918136526459269E-2   -3.897302675776184E-2    9.413149530756260E-1    3.818982216008870E-2
 3.199319325217355E5     9.416144895575282E-1    3.804796321666361E-2    5.896772745330749E-2   -3.879102012559327E-2    5.902615659856277E-2   -3.883703371911045E-2    9.414425740511769E-1    3.805209089583016E-2
 3.223729692231574E5     9.417442161832233E-1    3.790855471367342E-2    5.881239666794382E-2   -3.865235963490336E-2    5.887435355228700E-2   -3.869984107514082E-2    9.416157381324860E-1    3.789931282457428E-2
 3.248326306993267E5     9.419342249614443E-1    3.775930575047310E-2    5.866184337125776E-2   -3.852157672628911E-2    5.871845114139378E-2   -3.856421530887142E-2    9.417522958566250E-1    3.777400787984708E-2
 3.273110590547157E5     9.420740409334871E-1    3.762604844506521E-2    5.851075974780507E-2   -3.838594099977353E-2    5.857140942156588E-2   -3.843135633345302E-2    9.419155761848964E-1    3.762541940068569E-2
 3.298083974780366E5     9.422638924393900E-1    3.749391239067136E-2    5.836003610439544E-2   -3.824937740605069E-2    5.841961284981932E-2   -3.829460743763529E-2    9.420866311249277E-1    3.749510334091602E-2
 3.323247902505097E5     9.423889825693856E-1    3.734602517204056E-2    5.820829827277427E-2   -3.811642799986535E-2    5.826964545302693E-2   -3.816100930317645E-2    9.422541882054580E-1    3.735554624358709E-2
 3.348603827542018E5     9.425321887868306E-1    3.722835082812461E-2    5.806067536840385E-2   -3.798375609867075E-2    5.811961616727407E-2   -3.802835352910868E-2    9.423833551919701E-1    3.720714967969363E-2
 3.374153214804250E5     9.426829064580958E-1    3.707749733379677E-2    5.790847224763761E-2   -3.784693312137260E-2    5.796795688131046E-2   -3.789454797194201E-2    9.425331819603612E-1    3.707656291974993E-2
 3.399897540381991E5     9.428407580097956E-1    3.693191743173156E-2    5.776561344139381E-2   -3.771697403590300E-2    5.781766894753061E-2   -3.776282733235805E-2    9.426935716476978E-1    3.693370377897531E-2
 3.425838291627830E5     9.429814805899969E-1    3.680122160748769E-2    5.761385390180292E-2   -3.758438561841704E-2    5.767216783433081E-2   -3.762766709277897E-2    9.428269620263870E-1    3.680764130490115E-2
 3.451976967242625E5     9.431238290217605E-1    3.667035549776567E-2    5.746798635279594E-2   -3.745061357254408E-2    5.752519514060147E-2   -3.749603857465291E-2    9.429663377610553E-1    3.666316422969176E-2
 3.478315077362126E5     9.432679627381574E-1    3.653749787879310E-2    5.732013769266826E-2   -3.732497554776085E-2    5.737715898823879E-2   -3.736439182116912E-2    9.431365653055521E-1    3.652448022970937E-2
 3.504854143644205E5     9.433866542717988E-1    3.639874828871385E-2    5.717150262529125E-2   -3.718718376936416E-2    5.722841620063149E-2   -3.723013433958627E-2    9.432975497927871E-1    3.639747328503688E-2
 3.531595699356794E5     9.435927583201406E-1    3.626521675081733E-2    5.703038083447888E-2   -3.706167685055183E-2    5.708380667992601E-2   -3.710218018943594E-2    9.434571319435197E-1    3.626642556731272E-2
 3.558541289466428E5     9.437516952841195E-1    3.611916537629165E-2    5.688731639289312E-2   -3.693230845317831E-2    5.693897314615890E-2   -3.697203773030656E-2    9.435912147125918E-1    3.613084591507450E-2
 3.585692470727532E5     9.438941427181157E-1    3.598455472719732E-2    5.674161731905474E-2   -3.680421771412071E-2    5.679169658265833E-2   -3.683943133827696E-2    9.437493947341539E-1    3.600069508931886E-2
 3.613050811772345E5     9.440284044052565E-1    3.585832069333925E-2    5.659549796901776E-2   -3.667573158507863E-2    5.664329299749229E-2   -3.670974694887306E-2    9.438671944245697E-1    3.585666278536677E-2
 3.640617893201578E5     9.441888447308503E-1    3.572450454741204E-2    5.644944675616284E-2   -3.654703406510508E-2    5.649934690519065E-2   -3.658089853221367E-2    9.440251738781179E-1    3.572076217348362E-2
 3.668395307675686E5     9.443345532146333E-1    3.559941352097617E-2    5.630707384124180E-2   -3.641577797688145E-2    5.635859517740797E-2   -3.645485050868923E-2    9.441268681075198E-1    3.559119956676750E-2
 3.696384660006910E5     9.444711167546239E-1    3.546564564918576E-2    5.616393278530502E-2   -3.629149693915974E-2    5.621415430335486E-2   -3.632564802027997E-2    9.442665711222398E-1    3.546306920544302E-2
 3.724587567251991E5     9.446183598559106E-1    3.532282370036732E-2    5.602130272664820E-2   -3.616147095294611E-2    5.607286288000671E-2   -3.619563118455411E-2    9.444041109001733E-1    3.531796382827769E-2
 3.753005658805580E5     9.447558762236603E-1    3.519380453275961E-2    5.587706723089755E-2   -3.603527286363889E-2    5.592875324333017E-2   -3.607220818331099E-2    9.445426177317896E-1    3.520005540683985E-2
 3.781640576494411E5     9.449006835025660E-1    3.506677082157802E-2    5.574065693579766E-2   -3.591450746258137E-2    5.578841567309908E-2   -3.594069692072676E-2    9.446947733281290E-1    3.506364527365887E-2
 3.810493974672107E5     9.450816739495638E-1    3.493602877405980E-2    5.559771771634617E-2   -3.579222321659317E-2    5.564716245957348E-2   -3.581983357491532E-2    9.448513570365926E-1    3.495217402759416E-2
 3.839567520314787E5     9.451924469812368E-1    3.481243864829924E-2    5.545446012880009E-2   -3.566734707662757E-2    5.550733766493141E-2   -3.569373694391012E-2    9.449721909028365E-1    3.480398239640893E-2
 3.868862893117373E5     9.453004769793627E-1    3.467220883412788E-2    5.531290103131585E-2   -3.554163333779277E-2    5.536514398100208E-2   -3.556943154546798E-2    9.451074779577585E-1    3.467203601652512E-2
 3.898381785590618E5     9.454682731438542E-1    3.455126809705365E-2    5.517661560447601E-2   -3.541901128190809E-2    5.522966528561218E-2   -3.544550443492288E-2    9.452434935321395E-1    3.454791449866332E-2
 3.928125903158922E5     9.455976552108128E-1    3.441481340790652E-2    5.503759382865876E-2   -3.529595798204986E-2    5.508740352984579E-2   -3.532340950136990E-2    9.453831637943304E-1    3.441769523596491E-2
 3.958096964258819E5     9.457690958775989E-1    3.428164532438716E-2    5.489571263446761E-2   -3.517538353665215E-2    5.494723011639500E-2   -3.519831197926698E-2    9.455123760154386E-1    3.428605725062726E-2
 3.988296700438284E5     9.459263698116331E-1    3.414507230581410E-2    5.475576777700824E-2   -3.505422664566634E-2    5.481524760415574E-2   -3.507878341496325E-2    9.456575864332264E-1    3.415890757029009E-2
 4.018726856456762E5     9.460613828528013E-1    3.402678218648290E-2    5.462071567734138E-2   -3.492991143939610E-2    5.467395360834430E-2   -3.495734276693190E-2    9.458023642637832E-1    3.403199616749153E-2
 4.049389190385970E5     9.461832301264790E-1    3.391619586910078E-2    5.447981367156680E-2   -3.481009203240019E-2    5.453383358609278E-2   -3.483491250895517E-2    9.459351572770175E-1    3.390616727029064E-2
 4.080285473711492E5     9.462772774138286E-1    3.376944139145819E-2    5.434052401709706E-2   -3.468835667766230E-2    5.439709293562928E-2   -3.471390046960902E-2    9.460761277852097E-1    3.377549939486895E-2
 4.111417491435081E5     9.464171618497088E-1    3.365048170198737E-2    5.420001351363292E-2   -3.456833869097488E-2    5.425512869457584E-2   -3.458762439374144E-2    9.461951168035116E-1    3.365502567541329E-2
 4.142787042177814E5     9.465862200985251E-1    3.352124214729235E-2    5.406543829609023E-2   -3.444612604633372E-2    5.412159488020874E-2   -3.447294435911012E-2    9.463600087181695E-1    3.351366977089325E-2
 4.174395938283992E5     9.467438332284788E-1    3.340195013996149E-2    5.393225868459467E-2   -3.433039737667764E-2    5.398559838414410E-2   -3.435141481048291E-2    9.465147282570093E-1    3.339761849503162E-2
 4.206246005925882E5     9.468582875166911E-1    3.325298912584994E-2    5.379040018545250E-2   -3.420880842176895E-2    5.385240084648952E-2   -3.423466425969486E-2    9.466323996746496E-1    3.327430529173737E-2
 4.238339085209167E5     9.469903253044183E-1    3.313562364039339E-2    5.365092163135223E-2   -3.408977788667049E-2    5.371342830407049E-2   -3.411377226419163E-2    9.467836096332984E-1    3.316137813668196E-2
 4.270677030279291E5     9.471036818472570E-1    3.300958737510062E-2    5.351439896795827E-2   -3.397219143997936E-2    5.357684357658001E-2   -3.399489893634931E-2    9.469073182851495E-1    3.303326016574865E-2
 4.303261709428567E5     9.472801025621785E-1    3.289143317387307E-2    5.337978948770421E-2   -3.385739578774567E-2    5.344133868401311E-2   -3.387532814589481E-2    9.470239749917581E-1    3.289376914746674E-2
 4.336095005204146E5     9.474106641348075E-1    3.274523924221476E-2    5.324515218666621E-2   -3.373665930428645E-2    5.330869815516958E-2   -3.375908775984211E-2    9.471694849736648E-1    3.278172485956910E-2
 4.369178814516730E5     9.475165672173322E-1    3.263422852380733E-2    5.310858071775351E-2   -3.361338823197117E-2    5.317410193934702E-2   -3.364265112438668E-2    9.473046009753638E-1    3.265052337240655E-2
 4.402515048750198E5     9.476588458122335E-1    3.250430064401599E-2    5.297233337350581E-2   -3.350151605470867E-2    5.303629088177259E-2   -3.352524067262285E-2    9.474708899884373E-1    3.253109462002507E-2
 4.436105633872023E5     9.477949142813032E-1    3.239038936284037E-2    5.284108599004958E-2   -3.338833692544836E-2    5.290584867047066E-2   -3.340693467123909E-2    9.476345627420787E-1    3.240222296475460E-2
 4.469952510544541E5     9.479067655964453E-1    3.225829228830847E-2    5.270409870005877E-2   -3.326406006000749E-2    5.276757252026682E-2   -3.329199046455152E-2    9.477578683444657E-1    3.228972335253681E-2
 4.504057634237097E5     9.480578978397125E-1    3.213201338680761E-2    5.256770061747100E-2   -3.314962306095186E-2    5.263450086243331E-2   -3.317326732784609E-2    9.479103837882445E-1    3.215962041209179E-2
 4.538422975338975E5     9.481869480948180E-1    3.200879865127670E-2    5.243233013379308E-2   -3.303409881128618E-2    5.250549271109425E-2   -3.305973130250638E-2    9.480469207060663E-1    3.202727994998767E-2
 4.573050519273265E5     9.483063097410490E-1    3.188304921520908E-2    5.230480067182257E-2   -3.291902974548601E-2    5.237231061849811E-2   -3.294073181380963E-2    9.481710280978155E-1    3.191341725949647E-2
 4.607942266611566E5     9.484578357898539E-1    3.176594931380982E-2    5.216913841947975E-2   -3.279939104957130E-2    5.223566259961644E-2   -3.282813365007921E-2    9.482844375620618E-1    3.179435667061764E-2
 4.643100233189550E5     9.486071250613105E-1    3.163566691060622E-2    5.204042315108498E-2   -3.268556267174019E-2    5.210190462764852E-2   -3.270938699950304E-2    9.484117051294544E-1    3.166229517949554E-2
 4.678526450223470E5     9.487264620138554E-1    3.151267145237059E-2    5.190970032298420E-2   -3.256744534560705E-2    5.197434805926390E-2   -3.259475911359919E-2    9.485465089902473E-1    3.153925539967924E-2
 4.714222964427450E5     9.488246689700858E-1    3.137552346101452E-2    5.177171243841476E-2   -3.245552420855707E-2    5.183941581787709E-2   -3.248042977370436E-2    9.486732169871871E-1    3.142362469720465E-2
 4.750191838131770E5     9.489848398395505E-1    3.126219827893070E-2    5.164127981202984E-2   -3.233821943264212E-2    5.170623526514526E-2   -3.236643372200516E-2    9.487981412682139E-1    3.130231625037877E-2
 4.786435149402010E5     9.490860580148850E-1    3.114202580742336E-2    5.150883750959898E-2   -3.222139404503992E-2    5.157902714640715E-2   -3.225020671431007E-2    9.489251663247011E-1    3.117200541768206E-2
 4.822954992159092E5     9.492090743154724E-1    3.101915241142757E-2    5.137724648046477E-2   -3.210769018955353E-2    5.144673134167031E-2   -3.213641645694378E-2    9.490312149533615E-1    3.104124061167110E-2
 4.859753476300298E5     9.493083757512129E-1    3.087933217011944E-2    5.124677350140248E-2   -3.199449537035891E-2    5.131548716274766E-2   -3.202185911260234E-2    9.491746090347275E-1    3.092825041126021E-2
 4.896832727821107E5     9.494721077244362E-1    3.077431536732777E-2    5.112012427468269E-2   -3.188005792021023E-2    5.118536364695785E-2   -3.190648120610651E-2    9.492639610084695E-1    3.081254387469158E-2
 4.934194888938060E5     9.495636868684127E-1    3.065082011585210E-2    5.098960185928674E-2   -3.176262217036531E-2    5.105694726121349E-2   -3.179650552137854E-2    9.494163445045504E-1    3.068116601067059E-2
 4.971842118212518E5     9.496882554818853E-1    3.053629585141755E-2    5.086142340974004E-2   -3.164831732233520E-2    5.092845723460300E-2   -3.168260546818775E-2    9.495381952934687E-1    3.057965483278833E-2
 5.009776590675358E5     9.498027324249209E-1    3.040084150865718E-2    5.072992814574639E-2   -3.153311817514710E-2    5.079649705208247E-2   -3.156964035281959E-2    9.496259653690916E-1    3.043701097243330E-2
 5.048000497952673E5     9.499477812150580E-1    3.027120289900469E-2    5.060782458362925E-2   -3.142125975698414E-2    5.067040039124741E-2   -3.145451618256559E-2    9.497861183012929E-1    3.031775422907711E-2
 5.086516048392332E5     9.500927429764202E-1    3.014817285472900E-2    5.048010812185259E-2   -3.131163478614543E-2    5.054645309584783E-2   -3.133631008903688E-2    9.499211526887327E-1    3.020516702057984E-2
 5.125325467191607E5     9.501853713671108E-1    3.004854803564028E-2    5.035288445149139E-2   -3.119252136261077E-2    5.041971622349808E-2   -3.122505366745431E-2    9.500292913119527E-1    3.008940170165527E-2
 5.164430996525706E5     9.502799264507864E-1    2.991907827180946E-2    5.022748612279404E-2   -3.107965897723884E-2    5.029240883202523E-2   -3.111364507694798E-2    9.501576215046166E-1    2.996860423052027E-2
 5.203834895677360E5     9.504450245915250E-1    2.978996289614003E-2    5.010269960581704E-2   -3.097106116740388E-2    5.016523366198940E-2   -3.100124794325892E-2    9.502577753748904E-1    2.985209963344978E-2
 5.243539441167285E5     9.505661704088388E-1    2.966314064212019E-2    4.997849023425643E-2   -3.085465188409121E-2    5.003862615786391E-2   -3.089069008399614E-2    9.504208075892715E-1    2.971964615491420E-2
 5.283546926885745E5     9.507056351368246E-1    2.954535010608341E-2    4.985326504841615E-2   -3.074530755216144E-2    4.991367114981694E-2   -3.077077351306823E-2    9.505200327933401E-1    2.961479371318224E-2
 5.323859664225065E5     9.508462879560825E-1    2.941657637720189E-2    4.972875590139629E-2   -3.063328096469900E-2    4.979018381478102E-2   -3.066161617447642E-2    9.506457689754142E-1    2.948141151010355E-2
 5.364479982213206E5     9.509298478659003E-1    2.931345700499910E-2    4.960553050787096E-2   -3.051681071573884E-2    4.966581869699721E-2   -3.055244015680542E-2    9.507457367992271E-1    2.936383026234774E-2
 5.405410227648258E5     9.510657842751027E-1    2.918300410497512E-2    4.947979947817722E-2   -3.040625690361191E-2    4.954338429141485E-2   -3.043928106660445E-2    9.508893559763832E-1    2.925177124820273E-2
 5.446652765234077E5     9.511778634225769E-1    2.906160975467829E-2    4.936169308894575E-2   -3.029174955571049E-2    4.942281278319145E-2   -3.033022793583330E-2    9.510452756425148E-1    2.912873011037326E-2
 5.488209977716873E5     9.513384472895775E-1    2.892675024720454E-2    4.923763229297112E-2   -3.018302993590286E-2    4.929914666849446E-2   -3.021902108154492E-2    9.511575488031512E-1    2.900633792100780E-2
 5.530084266022880E5     9.514192908114762E-1    2.881989601691311E-2    4.911795964434854E-2   -3.007117532857240E-2    4.918227757519483E-2   -3.010894462911550E-2    9.513009693439686E-1    2.889966231828759E-2
 5.572278049397101E5     9.515328060371403E-1    2.869521111622526E-2    4.899899864637532E-2   -2.996074492658551E-2    4.906168156687052E-2   -2.999933699010182E-2    9.514316112230619E-1    2.877066958859272E-2
 5.614793765543010E5     9.516544317986797E-1    2.858215741255497E-2    4.888215656380287E-2   -2.985647708288250E-2    4.894241917665890E-2   -2.988807861368283E-2    9.515356134550047E-1    2.865919550298908E-2
 5.657633870763436E5     9.517764898478193E-1    2.846012614754383E-2    4.876711205476143E-2   -2.974480689241856E-2    4.882187883708246E-2   -2.977926460796235E-2    9.516571265809280E-1    2.851921392240186E-2
 5.700800840102463E5     9.519341347521537E-1    2.835584541393110E-2    4.864344557069376E-2   -2.963219339251787E-2    4.870557696434156E-2   -2.966887423139140E-2    9.517431417109868E-1    2.842247434902305E-2
 5.744297167488408E5     9.520123431846509E-1    2.822731293579435E-2    4.852645043731182E-2   -2.952168834984665E-2    4.858592677265310E-2   -2.956095886299353E-2    9.518414319825510E-1    2.831070749999447E-2
 5.788125365877954E5     9.521437826921035E-1    2.810967791974423E-2    4.841002745846447E-2   -2.941487134419812E-2    4.846956210264271E-2   -2.945350896814975E-2    9.519700527144713E-1    2.820427056401342E-2
 5.832287967401261E5     9.522412340556319E-1    2.799651387878134E-2    4.829152365171922E-2   -2.930515122773514E-2    4.835243844204373E-2   -2.934727005206658E-2    9.520752862635733E-1    2.809189309944760E-2
 5.876787523508312E5     9.523562925064896E-1    2.786900791053580E-2    4.817530087459639E-2   -2.919503872889181E-2    4.823326956742662E-2   -2.923212992501126E-2    9.521691177623762E-1    2.797089379143231E-2
 5.921626605116295E5     9.524898657920271E-1    2.775214721893334E-2    4.806354496870045E-2   -2.909499050967501E-2    4.812215151110384E-2   -2.913173189344449E-2    9.522737989408881E-1    2.785530486829400E-2
 5.966807802758140E5     9.526003517692224E-1    2.763578524647759E-2    4.794605455374209E-2   -2.898750597189826E-2    4.800465924333563E-2   -2.902364241030914E-2    9.524020017649926E-1    2.774133110218270E-2
 6.012333726732214E5     9.527262678693046E-1    2.752134864141983E-2    4.783772974724831E-2   -2.888254049566902E-2    4.788995787505173E-2   -2.891802378750222E-2    9.524828347795440E-1    2.762821836203447E-2
 6.058207007253073E5     9.527764217508120E-1    2.742085378299677E-2    4.771580942766138E-2   -2.877057570611993E-2    4.777550984137061E-2   -2.881181500840341E-2    9.525964291758146E-1    2.751688301109443E-2
 6.104430294603459E5     9.529164629748902E-1    2.729493919684498E-2    4.760775597759286E-2   -2.866877699669488E-2    4.766813959066025E-2   -2.871021205284214E-2    9.526954805939608E-1    2.740512434269728E-2
 6.151006259287392E5     9.530561205126064E-1    2.720055381963853E-2    4.749663205287943E-2   -2.856353629129813E-2    4.755127922834740E-2   -2.860509772061147E-2    9.528715523838305E-1    2.727685593605312E-2
 6.197937592184512E5     9.531449306683174E-1    2.707517134892247E-2    4.738262939392473E-2   -2.846031063306358E-2    4.743931596789010E-2   -2.849773571791905E-2    9.529704052001582E-1    2.716681905104941E-2
 6.245227004705463E5     9.532641744616163E-1    2.695508296676087E-2    4.727293103865458E-2   -2.836059310998641E-2    4.732751760632306E-2   -2.839579715106233E-2    9.530774714100124E-1    2.705602457767184E-2
 6.292877228948588E5     9.533812802327768E-1    2.684838263385896E-2    4.716180799361049E-2   -2.825820190585796E-2    4.721388110652913E-2   -2.829183294104246E-2    9.531546649209008E-1    2.694401929247710E-2
 6.340891017857760E5     9.534766228981830E-1    2.672157887030798E-2    4.705203064076079E-2   -2.815933692705713E-2    4.710288461476506E-2   -2.818929946733603E-2    9.532912011167789E-1    2.682921827410766E-2
 6.389271145381465E5     9.536035493802675E-1    2.661084710060598E-2    4.693892063821681E-2   -2.805337909272401E-2    4.699121706383795E-2   -2.808911598731039E-2    9.533996925625560E-1    2.670589391967045E-2
 6.438020406633007E5     9.536921159918768E-1    2.650605639348861E-2    4.682860606792938E-2   -2.795169206130588E-2    4.688042204935544E-2   -2.798886527248952E-2    9.534991161441854E-1    2.659930267256595E-2
 6.487141618052023E5     9.538296782253469E-1    2.638408926367848E-2    4.672362125723372E-2   -2.785616586173469E-2    4.677139563705925E-2   -2.788923427941872E-2    9.535970622740665E-1    2.648935067937711E-2
 6.536637617567203E5     9.539193750239059E-1    2.627353786264809E-2    4.661061156769850E-2   -2.775505970625231E-2    4.666019335722845E-2   -2.778877889450723E-2    9.537313961014613E-1    2.637150843234880E-2
 6.586511264760230E5     9.540293910038593E-1    2.617604774479768E-2    4.649917986816419E-2   -2.765284176840975E-2    4.655033802513782E-2   -2.768914344213978E-2    9.538375624436199E-1    2.627705686327983E-2
 6.636765441031042E5     9.541247410123688E-1    2.605398112723853E-2    4.639180884400662E-2   -2.755333036717840E-2    4.644218521403917E-2   -2.759188453127897E-2    9.539755895857670E-1    2.617552476257760E-2
 6.687403049764220E5     9.542219688085986E-1    2.595858924754905E-2    4.628182768451851E-2   -2.745802526740171E-2    4.633367561144237E-2   -2.749275890837822E-2    9.540477347245701E-1    2.606870203784449E-2
 6.738427016496789E5     9.543258341505977E-1    2.586746616708509E-2    4.617535327419330E-2   -2.735741046194164E-2    4.622233830821745E-2   -2.739129170695115E-2    9.541575482652581E-1    2.595862112800594E-2
 6.789840289087215E5     9.544257163182983E-1    2.574236787920777E-2    4.606731471591023E-2   -2.725553971921912E-2    4.611709177845127E-2   -2.729784482927245E-2    9.542476518807702E-1    2.586144306099468E-2
 6.841645837885707E5     9.545691623726400E-1    2.561455937676850E-2    4.595600130967060E-2   -2.716608755319746E-2    4.600551268250270E-2   -2.720410185902463E-2    9.543923211294654E-1    2.573765482001950E-2
 6.893846655905881E5     9.546621351558071E-1    2.552643721675070E-2    4.584861817783920E-2   -2.706786924454199E-2    4.589902981324231E-2   -2.710456369630950E-2    9.544662217902375E-1    2.565110583898875E-2
 6.946445758997592E5     9.547371637915008E-1    2.541825909904884E-2    4.573965396540548E-2   -2.697065370618706E-2    4.579143015958200E-2   -2.700886866704475E-2    9.546415886538583E-1    2.549941411147277E-2
 6.999446186021230E5     9.548530218807614E-1    2.530073135639746E-2    4.563261092597826E-2   -2.687516507907988E-2    4.568328853580072E-2   -2.691513020666635E-2    9.547638255747778E-1    2.539843799510247E-2
 7.052850999023273E5     9.549763881131573E-1    2.518630471791638E-2    4.552318843357156E-2   -2.677816908829558E-2    4.557863360972671E-2   -2.682061688204126E-2    9.548448075891939E-1    2.532522008960481E-2
 7.106663283413178E5     9.550356053977460E-1    2.511371490008043E-2    4.541806960728238E-2   -2.668749170947045E-2    4.547036986171141E-2   -2.672415878095787E-2    9.549399431613259E-1    2.522816748259043E-2
 7.160886148141696E5     9.551503723159117E-1    2.499781090787960E-2    4.530870731165972E-2   -2.658969604845251E-2    4.536199426244492E-2   -2.662559391012057E-2    9.549956099334618E-1    2.511894510843584E-2
 7.215522725880400E5     9.552279366993415E-1    2.489673295532354E-2    4.520184219067547E-2   -2.649694045061046E-2    4.525217291718588E-2   -2.653495136064708E-2    9.550826465370980E-1    2.503691233649341E-2
 7.270576173202734E5     9.553853838112060E-1    2.477720183885845E-2    4.509238855177604E-2   -2.640189604994003E-2    4.514662640960676E-2   -2.644289618858010E-2    9.552106772506620E-1    2.491963939252627E-2
 7.326049670766364E5     9.554924510856047E-1    2.466929206618617E-2    4.498382290656152E-2   -2.630676442889029E-2    4.504071402875925E-2   -2.634800091335598E-2    9.553921455711885E-1    2.478116837251795E-2
 7.381946423496918E5     9.555833900282341E-1    2.456889898864142E-2    4.488154600738849E-2   -2.621797490332596E-2    4.492855411091996E-2   -2.625501429209735E-2    9.554787301704810E-1    2.469018277163221E-2
 7.438269660773217E5     9.557140985592775E-1    2.445523094016333E-2    4.477867369521197E-2   -2.612073428221483E-2    4.482472157205294E-2   -2.616202994511673E-2    9.555959881113851E-1    2.459272691652077E-2
 7.495022636613748E5     9.558306564457761E-1    2.434003024042017E-2    4.466881584623528E-2   -2.602654960297632E-2    4.471555892146081E-2   -2.606535237910989E-2    9.556816541637581E-1    2.446427890420164E-2
 7.552208629864733E5     9.559084721622657E-1    2.424546729732396E-2    4.456229581738589E-2   -2.593627279875331E-2    4.460599356327564E-2   -2.597377336783582E-2    9.557651403017888E-1    2.437394930319320E-2
 7.609830944389519E5     9.560051471914750E-1    2.413848350612328E-2    4.445649420959347E-2   -2.584207365037767E-2    4.450507456146881E-2   -2.588149020509783E-2    9.558922414989157E-1    2.427402042771076E-2
 7.667892909259528E5     9.561629694468119E-1    2.401603440265961E-2    4.434697054796419E-2   -2.575019716064733E-2    4.439667381659162E-2   -2.579433994646207E-2    9.559806321970539E-1    2.415794625455214E-2
 7.726397878946491E5     9.562267996249220E-1    2.392324134000229E-2    4.423961637335374E-2   -2.565849564573872E-2    4.429306108992826E-2   -2.569806660010240E-2    9.560763883790750E-1    2.408435318038998E-2
 7.785349233516312E5     9.563375513886077E-1    2.382059235057768E-2    4.413600571879293E-2   -2.556552030194472E-2    4.418483551979222E-2   -2.560395530082110E-2    9.561543930169508E-1    2.398208495167765E-2
 7.844750378824320E5     9.564279705979994E-1    2.372871599019691E-2    4.402937340047194E-2   -2.547400643156204E-2    4.407920283179014E-2   -2.551140171109739E-2    9.562777326699653E-1    2.388440801457387E-2
 7.904604746712097E5     9.565494293297865E-1    2.363278475018914E-2    4.392338936828594E-2   -2.538433566358558E-2    4.397102284742875E-2   -2.542037180483240E-2    9.563455261127588E-1    2.377819628300468E-2
 7.964915795205662E5     9.566569787548352E-1    2.349267944130263E-2    4.382097689034774E-2   -2.529106973658850E-2    4.386827372732291E-2   -2.533047492889932E-2    9.564594547364611E-1    2.368538713012404E-2
 8.025687008715309E5     9.567569683105566E-1    2.338628068324545E-2    4.371486950834715E-2   -2.519482112307271E-2    4.376132352732397E-2   -2.523984716232621E-2    9.565857377000233E-1    2.356614603262795E-2
 8.086921898236905E5     9.568544082292235E-1    2.327483128848928E-2    4.361070419606928E-2   -2.510549371771859E-2    4.365380974083321E-2   -2.514313328330657E-2    9.566531290744831E-1    2.347967313858533E-2
 8.148624001554718E5     9.569707091345563E-1    2.317768455169710E-2    4.350530769629981E-2   -2.501029487531982E-2    4.355115405817286E-2   -2.504886505608792E-2    9.567576546656097E-1    2.335353964218566E-2
 8.210796883445872E5     9.570535232112266E-1    2.308486253000425E-2    4.339697760391770E-2   -2.491839299767454E-2    4.344886345107218E-2   -2.496258929619431E-2    9.568660359392847E-1    2.326473585453002E-2
 8.273444135886204E5     9.571565809389039E-1    2.297760580951261E-2    4.329374768133258E-2   -2.482548747780001E-2    4.333999220172589E-2   -2.486605390039772E-2    9.569948782100389E-1    2.314328170184160E-2
 8.336569378257846E5     9.572238605319253E-1    2.288226145711425E-2    4.319253831537653E-2   -2.473758167672157E-2    4.324093357457324E-2   -2.477918678332214E-2    9.570814104199308E-1    2.303177391525734E-2
 8.400176257558319E5     9.573345021293046E-1    2.275609572148762E-2    4.309097835894427E-2   -2.464121603128266E-2    4.313844239058295E-2   -2.468526898223933E-2    9.572036495024508E-1    2.293473264447856E-2
 8.464268448611222E5     9.574343524885560E-1    2.265110293437984E-2    4.298977591897805E-2   -2.455153427098585E-2    4.303280798022831E-2   -2.459372831698611E-2    9.572875096965106E-1    2.279472237713058E-2
 8.528849654278599E5     9.575654105989445E-1    2.253744831307142E-2    4.288641350631617E-2   -2.445652411928934E-2    4.293034750446124E-2   -2.450145647768049E-2    9.574257850711115E-1    2.270118386220993E-2
 8.593923605674774E5     9.576397740893133E-1    2.243775026439252E-2    4.278843581166355E-2   -2.436660179544994E-2    4.283194866465609E-2   -2.440732393853695E-2    9.574911981418763E-1    2.260665192286042E-2
 8.659494062381978E5     9.577545487396703E-1    2.231876268869225E-2    4.268274029964297E-2   -2.427419305709686E-2    4.272535804119594E-2   -2.431701164297250E-2    9.576088469883215E-1    2.249293347286679E-2
 8.725564812667536E5     9.578454337673328E-1    2.218491317584027E-2    4.258269957682664E-2   -2.418121725929068E-2    4.262967293141980E-2   -2.422214660071804E-2    9.577059811026739E-1    2.239855296701600E-2
 8.792139673702718E5     9.579791601008655E-1    2.207645219916718E-2    4.248481570428757E-2   -2.409553589019121E-2    4.252582700567391E-2   -2.413418422749068E-2    9.577588848969792E-1    2.232521927314817E-2
 8.859222491783336E5     9.580425620522254E-1    2.201383546251661E-2    4.238546516393461E-2   -2.399595917613473E-2    4.242586533642477E-2   -2.404042554271287E-2    9.578610971656962E-1    2.221693767561637E-2
 8.926817142551860E5     9.581362050509732E-1    2.190980353239928E-2    4.228940184873203E-2   -2.390627474443134E-2    4.232861376017069E-2   -2.394832486799979E-2    9.579584094185414E-1    2.209227642234566E-2
 8.994927531221397E5     9.582033507931692E-1    2.177377083569024E-2    4.218572114736444E-2   -2.381796944631479E-2    4.222993245813325E-2   -2.385778400543419E-2    9.580623947755139E-1    2.198660802819056E-2
 9.063557592801275E5     9.583078271660871E-1    2.165341944800267E-2    4.208913694300304E-2   -2.372426901506550E-2    4.213137724751207E-2   -2.376805262099991E-2    9.581300329077910E-1    2.189736912704309E-2
 9.132711292324457E5     9.584198871043279E-1    2.154914923496238E-2    4.199670218000695E-2   -2.363925188713669E-2    4.203612752743085E-2   -2.367897900681058E-2    9.582464428966870E-1    2.178982138771218E-2
 9.202392625076511E5     9.584958685923655E-1    2.146330610230532E-2    4.189680023194294E-2   -2.354809327159311E-2    4.193998471423134E-2   -2.359058771396315E-2    9.583432259055630E-1    2.170590788246725E-2
 9.272605616826499E5     9.585688336174065E-1    2.136265446887062E-2    4.180047859055486E-2   -2.345553370936199E-2    4.184164649609938E-2   -2.350194423500287E-2    9.584517979234933E-1    2.156515499642031E-2
 9.343354324059531E5     9.586904690462623E-1    2.124929777923247E-2    4.170914130641916E-2   -2.336568399891620E-2    4.174867703296364E-2   -2.340917051409845E-2    9.585519234131352E-1    2.148021942704690E-2
 9.414642834211199E5     9.587818605548089E-1    2.115029094289076E-2    4.161349741027254E-2   -2.327737420473140E-2    4.165100694575298E-2   -2.331995990445799E-2    9.586232788279194E-1    2.136253130468122E-2
 9.486475265903610E5     9.588846079814992E-1    2.103918302383533E-2    4.151822577023712E-2   -2.318864173418562E-2    4.155563715543412E-2   -2.323304689903896E-2    9.587313709272680E-1    2.126653949286140E-2
 9.558855769183410E5     9.589619720257438E-1    2.093786067935938E-2    4.142393202554512E-2   -2.310233021192997E-2    4.146651510681233E-2   -2.314448897663630E-2    9.588278433404814E-1    2.118443698228547E-2
 9.631788525761530E5     9.590582576452518E-1    2.081925266335533E-2    4.133132704110250E-2   -2.301149595272600E-2    4.136461912214268E-2   -2.305617480909820E-2    9.589355726529010E-1    2.108274490031265E-2
 9.705277749254764E5     9.591419995825073E-1    2.077412462928120E-2    4.124092924004889E-2   -2.292403548562200E-2    4.127160240391088E-2   -2.297258687724541E-2    9.590046616844268E-1    2.098802601535600E-2
 9.779327685429282E5     9.591975882988757E-1    2.064905261568224E-2    4.114684804381016E-2   -2.284215498384316E-2    4.117982120694182E-2   -2.287905710990592E-2    9.591046639233616E-1    2.089384469985814E-2
 9.853942612445805E5     9.593239921359659E-1    2.054193000958272E-2    4.105566797162200E-2   -2.275335618890504E-2    4.108556434327110E-2   -2.279495820190913E-2    9.591850157495418E-1    2.076899839279982E-2
 9.929126841106854E5     9.594089135937357E-1    2.043259966166239E-2    4.096215914680091E-2   -2.266593605865009E-2    4.099501350767787E-2   -2.270670134733059E-2    9.593039086922368E-1    2.065024456364547E-2
 1.000488471510578E6     9.595347727757629E-1    2.037141784367973E-2    4.087293342633578E-2   -2.257864026526107E-2    4.090473414418077E-2   -2.261948844550897E-2    9.593737364620543E-1    2.056522597513853E-2
 1.008122061127771E6     9.595953948414269E-1    2.025150603526576E-2    4.078193485625428E-2   -2.249637575327592E-2    4.081003862842991E-2   -2.253453163086174E-2    9.594538770057731E-1    2.045922696723822E-2
 1.015813893985245E6     9.596740558051752E-1    2.017810403499594E-2    4.069010944580639E-2   -2.241171468052579E-2    4.072082128605723E-2   -2.245279961515166E-2    9.595507855157552E-1    2.035741985447250E-2
 1.023564414470923E6     9.597750781175458E-1    2.006941752587336E-2    4.060011612068333E-2   -2.232966748599562E-2    4.062731999330052E-2   -2.236855438723858E-2    9.596036980395017E-1    2.027387808278758E-2
 1.031374070363347E6     9.598745057491916E-1    1.995246239073832E-2    4.050698316292589E-2   -2.224393691638791E-2    4.054142506991729E-2   -2.228452383268948E-2    9.596785001225991E-1    2.016082360078758E-2
 1.039243312857548E6     9.599572579510358E-1    1.983121819540034E-2    4.041701752249976E-2   -2.216299748743802E-2    4.044359662178201E-2   -2.220202269450384E-2    9.597682638433289E-1    2.008045091148377E-2
 1.047172596591111E6     9.600016956526212E-1    1.971941557005223E-2    4.032739416299654E-2   -2.207683058115506E-2    4.035339520993569E-2   -2.211615310839414E-2    9.598627611744661E-1    1.995718862388923E-2
 1.055162379670449E6     9.600894297031161E-1    1.962528441559809E-2    4.023985870888484E-2   -2.199255232557722E-2    4.026714521531036E-2   -2.203390930597991E-2    9.599933965543919E-1    1.985295967119261E-2
 1.063213123697260E6     9.601931370760485E-1    1.954877234627582E-2    4.014580020695644E-2   -2.191290672155570E-2    4.017557399544056E-2   -2.195628513404671E-2    9.600660731854082E-1    1.974700200368347E-2
 1.071325293795198E6     9.602599021164139E-1    1.947669363567358E-2    4.005901657462176E-2   -2.183038639861593E-2    4.008459463495698E-2   -2.187503930197016E-2    9.601777011381576E-1    1.966109150180372E-2
 1.079499358636750E6     9.603127574595441E-1    1.935172044754602E-2    3.996675224827047E-2   -2.174927182686522E-2    3.999670319638982E-2   -2.179275935108982E-2    9.602773673587516E-1    1.957515573947123E-2
 1.087735790470306E6     9.603937941573617E-1    1.928493248150442E-2    3.987848502691947E-2   -2.166642544553605E-2    3.990593926799712E-2   -2.171034098161696E-2    9.603501319679567E-1    1.949209892345520E-2
 1.096035065147453E6     9.604787067176859E-1    1.920058456511253E-2    3.978777943687089E-2   -2.158526494461125E-2    3.981251580715240E-2   -2.162980371798421E-2    9.604517410841579E-1    1.937957614998251E-2
 1.104397662150453E6     9.605465602535006E-1    1.910584946635881E-2    3.969587300298690E-2   -2.150463029478061E-2    3.972616264075393E-2   -2.154908054351138E-2    9.605253207504938E-1    1.928824664145292E-2
 1.112824064619953E6     9.606345609642589E-1    1.901198996093062E-2    3.960832637296105E-2   -2.142855857675734E-2    3.963227411684590E-2   -2.146923687506684E-2    9.606274183567357E-1    1.917611671066626E-2
 1.121314759382903E6     9.607527826116078E-1    1.890198505899978E-2    3.951824386860111E-2   -2.134423593765730E-2    3.954504204622150E-2   -2.138887289058750E-2    9.606895483583645E-1    1.909064277358333E-2
 1.129870236980669E6     9.608291984254399E-1    1.883313628153178E-2    3.943295441882372E-2   -2.126645681375806E-2    3.945050077794085E-2   -2.130647284616014E-2    9.607715334181279E-1    1.899642534592244E-2
 1.138490991697383E6     9.609136356913893E-1    1.876984092222432E-2    3.934122462432406E-2   -2.118711958629496E-2    3.936260159697904E-2   -2.122428742853665E-2    9.608739053182610E-1    1.890465827659640E-2
 1.147177521588496E6     9.609937484254162E-1    1.866716180558108E-2    3.925227009982812E-2   -2.110269821428662E-2    3.927731544098557E-2   -2.114942567623816E-2    9.609821198376730E-1    1.878982982949138E-2
 1.155930328509552E6     9.610907420635827E-1    1.855516038165346E-2    3.916051352533328E-2   -2.102419409211044E-2    3.918494147813236E-2   -2.106534461193437E-2    9.610521963081838E-1    1.870472620439127E-2
 1.164749918145190E6     9.611912692776025E-1    1.844511761221553E-2    3.907477897190768E-2   -2.094402116255717E-2    3.909573844897304E-2   -2.098585798014983E-2    9.611549016039189E-1    1.860857230712167E-2
 1.173636800038349E6     9.612448781829639E-1    1.835255205381948E-2    3.898015680981196E-2   -2.086476005424200E-2    3.900586721519964E-2   -2.090648810405902E-2    9.612346855025883E-1    1.848919419126616E-2
 1.182591487619709E6     9.613221825902734E-1    1.823862388987695E-2    3.889210961067668E-2   -2.078729759854893E-2    3.891632170436508E-2   -2.082814743132554E-2    9.613079283731467E-1    1.839187460789424E-2
 1.191614498237359E6     9.613964980248384E-1    1.814225524020808E-2    3.880581375271142E-2   -2.070351135360054E-2    3.882436921998057E-2   -2.074740977516954E-2    9.613942401263490E-1    1.828297131816312E-2
 1.200706353186678E6     9.614971767824013E-1    1.804051024512799E-2    3.871690275137117E-2   -2.062259879383404E-2    3.873495585916662E-2   -2.066225144760211E-2    9.614838323639834E-1    1.821190399620207E-2
 1.209867577740467E6     9.615871584775674E-1    1.793897549125248E-2    3.862706358153742E-2   -2.054864045503947E-2    3.864805639320486E-2   -2.058085475938754E-2    9.615447356563918E-1    1.813554697270959E-2
 1.219098701179276E6     9.617084489381807E-1    1.786486326168032E-2    3.853879030919320E-2   -2.046593971885833E-2    3.855991119591029E-2   -2.050246279543393E-2    9.616488362819003E-1    1.803642437568453E-2
 1.228400256821998E6     9.617616865799572E-1    1.779661219048485E-2    3.845239627613271E-2   -2.038580109533102E-2    3.847087775340168E-2   -2.042381908887401E-2    9.617262982960486E-1    1.794732428153685E-2
 1.237772782056674E6     9.618569191956341E-1    1.765382397049414E-2    3.836171695912641E-2   -2.030342864053467E-2    3.837769434411387E-2   -2.034491646782408E-2    9.617891701382348E-1    1.782500702706992E-2
 1.247216818371540E6     9.619489899710461E-1    1.757219315775508E-2    3.827452126014183E-2   -2.022236342344070E-2    3.829586977010708E-2   -2.026063898819886E-2    9.618915277637310E-1    1.776930598896560E-2
 1.256732911386322E6     9.620469457662045E-1    1.745350751929582E-2    3.818806248436260E-2   -2.014202492739178E-2    3.820607940131069E-2   -2.017987224071643E-2    9.620088628586663E-1    1.766899021853755E-2
 1.266321610883739E6     9.621315258788512E-1    1.735139814059037E-2    3.810188388754798E-2   -2.006532409555387E-2    3.812481070486932E-2   -2.009926621679752E-2    9.620732440277744E-1    1.755289897225825E-2
 1.275983470841281E6     9.621951661515282E-1    1.726420369012955E-2    3.802020238720051E-2   -1.998267144931372E-2    3.803399747938611E-2   -2.001914852924492E-2    9.621671839125600E-1    1.743282199846669E-2
 1.285719049463211E6     9.622815667251229E-1    1.718000510647510E-2    3.793174305621992E-2   -1.989950609764074E-2    3.794833961659393E-2   -1.994051842815448E-2    9.622306757695301E-1    1.735597168464446E-2
 1.295528909212810E6     9.623305986374895E-1    1.706466937682966E-2    3.784235199648542E-2   -1.982419678553710E-2    3.786379055827279E-2   -1.986058310147910E-2    9.623141841126549E-1    1.725540022155841E-2
 1.305413616844883E6     9.624209331011463E-1    1.698498306385258E-2    3.776181267530033E-2   -1.974388240021924E-2    3.777549795335678E-2   -1.977749394581005E-2    9.623761848742181E-1    1.715575163367574E-2
 1.315373743438491E6     9.625293034069475E-1    1.686477189459254E-2    3.767394377292126E-2   -1.966295569600532E-2    3.769376313226810E-2   -1.969711308567832E-2    9.624999791269792E-1    1.705008963146318E-2
 1.325409864429950E6     9.625958325843239E-1    1.682434174937573E-2    3.759319892468512E-2   -1.957626322336805E-2    3.760934964639916E-2   -1.961456582192096E-2    9.625457261917824E-1    1.694278989847551E-2
 1.335522559646084E6     9.626974182740292E-1    1.670092706284747E-2    3.751021553889321E-2   -1.950187875823517E-2    3.752839655984064E-2   -1.953406134814029E-2    9.626505546706785E-1    1.685604130439686E-2
 1.345712413337699E6     9.627561829999662E-1    1.659845058742636E-2    3.742693875351112E-2   -1.941880517209477E-2    3.744941930044551E-2   -1.945290050243013E-2    9.627062733488260E-1    1.674851177638396E-2
 1.355980014213373E6     9.628219410126871E-1    1.648919059028005E-2    3.734635506233109E-2   -1.934110932353203E-2    3.736273656598823E-2   -1.937404918809197E-2    9.627981066353749E-1    1.665659544349724E-2
 1.366325955473440E6     9.629033984264947E-1    1.638578724364257E-2    3.726704890498405E-2   -1.926205167657364E-2    3.728545060541807E-2   -1.929457521779478E-2    9.628885463780109E-1    1.657426588422594E-2
 1.376750834844268E6     9.629593655241461E-1    1.626751085063866E-2    3.718619752223442E-2   -1.918203989905313E-2    3.720334613700230E-2   -1.921978037313554E-2    9.629787892212660E-1    1.648046459649176E-2
 1.387255254612807E6     9.630379056610902E-1    1.615416512538008E-2    3.710189623140196E-2   -1.910670010213052E-2    3.712653619515403E-2   -1.913478850003906E-2    9.630600413647412E-1    1.638293508498880E-2
 1.397839821661363E6     9.631063003293758E-1    1.609026713453783E-2    3.702447955870238E-2   -1.902354363922754E-2    3.704372156158144E-2   -1.905690526101010E-2    9.631350381967250E-1    1.626798867010776E-2
 1.408505147502673E6     9.632104552906939E-1    1.598263348715011E-2    3.694462920737047E-2   -1.895032367519512E-2    3.696217724383541E-2   -1.897715361790494E-2    9.631860503535881E-1    1.617653628888766E-2
 1.419251848315235E6     9.632849347000247E-1    1.590032254911446E-2    3.686568432549871E-2   -1.886689486209059E-2    3.688317155539439E-2   -1.889886986581521E-2    9.632616459269813E-1    1.607008387166852E-2
 1.430080544978898E6     9.633659611606512E-1    1.580839093731528E-2    3.678959205224079E-2   -1.879305313320915E-2    3.680299698016646E-2   -1.882757230782981E-2    9.633325409567000E-1    1.595668094685399E-2
 1.440991863110751E6     9.634231974832754E-1    1.570551123403602E-2    3.671152615850740E-2   -1.871450636759085E-2    3.672817728133659E-2   -1.874627712648601E-2    9.634177096629967E-1    1.585026911827095E-2
 1.451986433101243E6     9.634677310015627E-1    1.560371273310175E-2    3.663403614407780E-2   -1.863911292467356E-2    3.665013649079628E-2   -1.867027804830051E-2    9.635129551129296E-1    1.579056587772246E-2
 1.463064890150622E6     9.635457364206456E-1    1.549940736762076E-2    3.655069849203917E-2   -1.856140147507791E-2    3.657176180113914E-2   -1.859336188140718E-2    9.635710013855469E-1    1.567247677664176E-2
 1.474227874305625E6     9.636019044496749E-1    1.540457806617474E-2    3.647651057837645E-2   -1.848614727806715E-2    3.649725969342971E-2   -1.851623579351724E-2    9.636642357834498E-1    1.557592445684022E-2
 1.485476030496454E6     9.636806544121905E-1    1.529804231293262E-2    3.639844833848419E-2   -1.841115630244106E-2    3.641445165425566E-2   -1.844182681773305E-2    9.637325423325742E-1    1.548957065381188E-2
 1.496810008574050E6     9.637979593045459E-1    1.523533716802724E-2    3.632135968105351E-2   -1.833471204787434E-2    3.633912394371222E-2   -1.836490014835901E-2    9.638160898375864E-1    1.538621856407952E-2
 1.508230463347619E6     9.638695774435336E-1    1.513243364786337E-2    3.624174567163313E-2   -1.826578733894942E-2    3.626329064178783E-2   -1.829061466365467E-2    9.638955864255662E-1    1.533138018398092E-2
 1.519738054622472E6     9.639832709624283E-1    1.505956370185691E-2    3.616881099350729E-2   -1.818520174633331E-2    3.618535827989450E-2   -1.821633157415765E-2    9.639399832693627E-1    1.520615541812097E-2
 1.531333447238147E6     9.640159289943177E-1    1.497945173544519E-2    3.609272375150899E-2   -1.811171368877260E-2    3.611030004599691E-2   -1.814398036931503E-2    9.640364371415233E-1    1.512865881670650E-2
 1.543017311106810E6     9.641060015413349E-1    1.485079122814965E-2    3.601476593358935E-2   -1.804341879050329E-2    3.603111031400108E-2   -1.807091641184997E-2    9.641233083975023E-1    1.505964697831786E-2
 1.554790321251977E6     9.641567413226838E-1    1.477122784386024E-2    3.593482717730803E-2   -1.796968686525815E-2    3.595596867273603E-2   -1.799602025905981E-2    9.642264287023372E-1    1.496640667857685E-2
 1.566653157847488E6     9.642450658822003E-1    1.467375323603626E-2    3.586086825408653E-2   -1.789771985521663E-2    3.587832133096808E-2   -1.792220507209637E-2    9.642569001918732E-1    1.484970473575322E-2
 1.578606506256824E6     9.643259232019302E-1    1.455635960937371E-2    3.578402227479883E-2   -1.782051604385547E-2    3.579938153639804E-2   -1.784665267011332E-2    9.643388000874530E-1    1.475195724072414E-2
 1.590651057072690E6     9.644069287911456E-1    1.447042408102561E-2    3.570598550058566E-2   -1.775056978761085E-2    3.572127039837564E-2   -1.777393768675740E-2    9.644458754803312E-1    1.466647090007158E-2
 1.602787506156919E6     9.645016770017566E-1    1.439483083175935E-2    3.562690170566961E-2   -1.767449812034258E-2    3.564662342524255E-2   -1.769971994007050E-2    9.645024965993589E-1    1.457777034819632E-2
 1.615016554680682E6     9.645589538615428E-1    1.431391772754632E-2    3.554998809719798E-2   -1.760307089452702E-2    3.557347897260330E-2   -1.762806516404848E-2    9.646005846551716E-1    1.448565293604576E-2
 1.627338909164981E6     9.646401963494595E-1    1.419836286716413E-2    3.547638107061114E-2   -1.752734094303986E-2    3.549466505715002E-2   -1.755345850426191E-2    9.646688083958699E-1    1.440297461503222E-2
 1.639755281521474E6     9.647029750970474E-1    1.409976307671845E-2    3.539895902530251E-2   -1.745623905031165E-2    3.541591311947184E-2   -1.748118162987017E-2    9.647675351911869E-1    1.431368331200798E-2
 1.652266389093622E6     9.647564885821490E-1    1.398453182477040E-2    3.532137641504267E-2   -1.738325880665625E-2    3.534139350692337E-2   -1.740853619152252E-2    9.648317478132484E-1    1.423229385008427E-2
 1.664872954698102E6     9.648181486750689E-1    1.389853005915397E-2    3.524472004350182E-2   -1.731119632420960E-2    3.526433925216289E-2   -1.733400755491367E-2    9.648776910937613E-1    1.409898187962117E-2
 1.677575706666590E6     9.649019463274938E-1    1.379409382738535E-2    3.517028641627926E-2   -1.724009985145968E-2    3.518391282991133E-2   -1.726198536698189E-2    9.649468339642229E-1    1.397863459370092E-2
 1.690375378887833E6     9.649991799821881E-1    1.370364859279868E-2    3.509043795141936E-2   -1.716559742158302E-2    3.510851193769572E-2   -1.718931156841755E-2    9.650387460227431E-1    1.390989839686392E-2
 1.703272710850043E6     9.650672595908908E-1    1.361853401140423E-2    3.501817245593936E-2   -1.709205171892404E-2    3.503364807732724E-2   -1.711285622265008E-2    9.650963930454330E-1    1.381258581320925E-2
 1.716268447683636E6     9.651333254051671E-1    1.352418712501343E-2    3.493935238226824E-2   -1.701969920416421E-2    3.495477788503417E-2   -1.703976412520340E-2    9.651474276549935E-1    1.369916435257904E-2
 1.729363340204262E6     9.651909538425343E-1    1.342632308843434E-2    3.486521303547409E-2   -1.694560251237434E-2    3.488039092538067E-2   -1.696650326820799E-2    9.652474535772551E-1    1.359481062278136E-2
 1.742558144956193E6     9.652954834908980E-1    1.334633390058418E-2    3.478793750724368E-2   -1.686989652943409E-2    3.480694933355364E-2   -1.689396570293809E-2    9.652998986443632E-1    1.350746971487337E-2
 1.755853624256030E6     9.653560072161751E-1    1.323194528535525E-2    3.471189771762489E-2   -1.679886373525626E-2    3.473273023130614E-2   -1.681917422042824E-2    9.653826679904178E-1    1.341234837553617E-2
 1.769250546236744E6     9.654302221165328E-1    1.314211942753722E-2    3.464124556079673E-2   -1.672148777726390E-2    3.466180390895007E-2   -1.674559089042038E-2    9.654863641110533E-1    1.331344011446812E-2
 1.782749684892061E6     9.654542992263879E-1    1.302133025862564E-2    3.456469591689008E-2   -1.665430114977486E-2    3.458625198945070E-2   -1.667265163980801E-2    9.655641283574685E-1    1.320271958217451E-2
 1.796351820121167E6     9.655513826742750E-1    1.293701555984959E-2    3.449177958785839E-2   -1.657476609033561E-2    3.450966666402643E-2   -1.659884706052912E-2    9.656023865383678E-1    1.310931388178033E-2
 1.810057737773773E6     9.656197385832541E-1    1.283045572498192E-2    3.441835087760466E-2   -1.650592332827980E-2    3.443605040065675E-2   -1.652088817560006E-2    9.656388808103543E-1    1.300477312599528E-2
 1.823868229695514E6     9.657323327983391E-1    1.275096186892106E-2    3.434846582434468E-2   -1.643186001988054E-2    3.436175782169501E-2   -1.644990595519140E-2    9.656989588186882E-1    1.290884890859048E-2
 1.837784093773698E6     9.657851384002980E-1    1.264166782266872E-2    3.427401691409063E-2   -1.635709276324997E-2    3.429253147426232E-2   -1.637344811720579E-2    9.658125277343917E-1    1.281430853288482E-2
 1.851806133983411E6     9.658612100760308E-1    1.256326769355971E-2    3.420598783133250E-2   -1.628194074782386E-2    3.422159922401045E-2   -1.630081499291581E-2    9.658796290752518E-1    1.272060398815503E-2
 1.865935160433950E6     9.659174154956591E-1    1.245036539203763E-2    3.413588361332099E-2   -1.620962318393651E-2    3.415031869030792E-2   -1.622727173780782E-2    9.659312123032795E-1    1.262077801636179E-2
 1.880171989415638E6     9.659698687122323E-1    1.235455322871397E-2    3.406421212264994E-2   -1.613503842595364E-2    3.407467650804943E-2   -1.615686992324282E-2    9.660332518291470E-1    1.252574073517988E-2
 1.894517443446981E6     9.660216768123595E-1    1.225301624920609E-2    3.399434846163663E-2   -1.606251574422340E-2    3.400668621926434E-2   -1.607897173709379E-2    9.660813724578300E-1    1.243317795111574E-2
 1.908972351322182E6     9.661057969688317E-1    1.215571099581514E-2    3.392693396217798E-2   -1.599279036795086E-2    3.394095640977921E-2   -1.600922679314543E-2    9.661531413467959E-1    1.233159088378963E-2
 1.923537548159045E6     9.661608656232202E-1    1.205879347809700E-2    3.385774885518671E-2   -1.592012578304803E-2    3.386919654979265E-2   -1.593579988381303E-2    9.661700651183197E-1    1.223402652502992E-2
 1.938213875447196E6     9.662442382737564E-1    1.195541145829682E-2    3.378445871923825E-2   -1.584895587945700E-2    3.379732362650448E-2   -1.586079004840481E-2    9.662569520350708E-1    1.212977087191618E-2
 1.953002181096708E6     9.662508179694402E-1    1.186159407495000E-2    3.371958798511109E-2   -1.577489946587624E-2    3.373079012134913E-2   -1.579320386970086E-2    9.663599688119097E-1    1.204140542562704E-2
 1.967903319487111E6     9.663418905823254E-1    1.175875866256302E-2    3.365052345385564E-2   -1.570223858080371E-2    3.366573827708723E-2   -1.572087492001354E-2    9.664113294984893E-1    1.194245200383161E-2
 1.982918151516703E6     9.664201783513647E-1    1.167715586901452E-2    3.358009445253478E-2   -1.563290495365160E-2    3.359379723134613E-2   -1.564807811675897E-2    9.664794184928100E-1    1.183930043659385E-2
 1.998047544652348E6     9.664771825551890E-1    1.156093009904791E-2    3.351085775457453E-2   -1.556029145762394E-2    3.352496489544904E-2   -1.557616204957694E-2    9.665081994730226E-1    1.174636704931248E-2
 2.013292372979546E6     9.665160058858218E-1    1.147104992678826E-2    3.344600420061495E-2   -1.549517920892609E-2    3.345641054676407E-2   -1.550678645987762E-2    9.665813529047367E-1    1.164303243438976E-2
 2.028653517252947E6     9.666079852540937E-1    1.136575218851492E-2    3.337551304200301E-2   -1.542148225394319E-2    3.339107914771527E-2   -1.543410098799830E-2    9.666692562500453E-1    1.154841329397037E-2
 2.044131864947255E6     9.666807770075651E-1    1.126887070323846E-2    3.330500245697236E-2   -1.535252714254548E-2    3.332171102662114E-2   -1.536568397690630E-2    9.667421811022171E-1    1.144375444247500E-2
 2.059728310308467E6     9.667447236772062E-1    1.118888616662549E-2    3.323853258991760E-2   -1.528390942472996E-2    3.325199254153988E-2   -1.529477294585459E-2    9.667849255270862E-1    1.134747543312610E-2
 2.075443754405562E6     9.668112093330848E-1    1.109459560640541E-2    3.317256644493147E-2   -1.521254502950146E-2    3.318564266301231E-2   -1.522499889899052E-2    9.668675494183127E-1    1.126112767043062E-2
 2.091279105182548E6     9.668918646405760E-1    1.099065630746463E-2    3.310861393013143E-2   -1.514311742054711E-2    3.312057679560913E-2   -1.515578183217894E-2    9.669376336357564E-1    1.115801218028594E-2
 2.107235277510921E6     9.669329440996668E-1    1.090495027439545E-2    3.303962519399207E-2   -1.507767100115938E-2    3.304904725834044E-2   -1.508698047673727E-2    9.669597401828890E-1    1.106309803836169E-2
 2.123313193242529E6     9.669649768827930E-1    1.080972923006436E-2    3.297005522910701E-2   -1.500662585513176E-2    3.298304929238367E-2   -1.501832514086161E-2    9.669967618811086E-1    1.096015837332956E-2
 2.139513781262815E6     9.670196377157210E-1    1.070349412067385E-2    3.290481643474812E-2   -1.493580787678463E-2    3.291217247813592E-2   -1.494747692430037E-2    9.670869405413659E-1    1.086247774184123E-2
 2.155837977544490E6     9.671275306937396E-1    1.061021700613483E-2    3.283614405341296E-2   -1.486827405634219E-2    3.284653771091027E-2   -1.487859568617453E-2    9.671289416496397E-1    1.077413559772428E-2
 2.172286725201612E6     9.672044847725534E-1    1.052470927216368E-2    3.277189889258428E-2   -1.480168246538651E-2    3.277859539080356E-2   -1.480767477274113E-2    9.671899040703589E-1    1.068469802465446E-2
 2.188860974544063E6     9.672547431025618E-1    1.042563984501799E-2    3.269894004031541E-2   -1.473162603154781E-2    3.271146670318340E-2   -1.473888581703596E-2    9.672923337763349E-1    1.056962235720051E-2
 2.205561683132472E6     9.673452756461293E-1    1.033605801878003E-2    3.263499174522835E-2   -1.466745467350057E-2    3.264425615979739E-2   -1.467006284690735E-2    9.673888913210189E-1    1.046140780523098E-2
 2.222389815833514E6     9.673779579689566E-1    1.023966904805020E-2    3.256554104220340E-2   -1.459730118254783E-2    3.257745118985131E-2   -1.460045367538480E-2    9.674509255281221E-1    1.036704518463833E-2
 2.239346344875663E6     9.674347014069085E-1    1.015609920492423E-2    3.249587252534555E-2   -1.452451469127106E-2    3.251012687044797E-2   -1.452849807671566E-2    9.675016871098704E-1    1.027574679007850E-2
 2.256432249905369E6     9.674704965572286E-1    1.007170511201079E-2    3.243039498493460E-2   -1.445501480793122E-2    3.243913239876462E-2   -1.445516294298538E-2    9.675590326706449E-1    1.016583886322964E-2
 2.273648518043640E6     9.675803647566386E-1    9.949540290132132E-3    3.236274363046130E-2   -1.438421516884288E-2    3.237145253878470E-2   -1.438654421984770E-2    9.676466955274592E-1    1.006159244283345E-2
 2.290996143943099E6     9.676162993722928E-1    9.867426355877198E-3    3.229917321327801E-2   -1.432011486853114E-2    3.230659286235837E-2   -1.431259699910838E-2    9.676524452719735E-1    9.963798480133375E-3
 2.308476129845417E6     9.677076903880507E-1    9.791845601286452E-3    3.223306613262128E-2   -1.425039106802647E-2    3.224442757905661E-2   -1.424415705847718E-2    9.677467010702759E-1    9.841110141647970E-3
 2.326089485639235E6     9.677571292397983E-1    9.688820286729091E-3    3.216152536171494E-2   -1.418377060710009E-2    3.217411392671352E-2   -1.417322567858169E-2    9.678172097852002E-1    9.760704488430754E-3
 2.343837228918507E6     9.678592178531226E-1    9.595054493852477E-3    3.209469298302541E-2   -1.410851775422638E-2    3.211156724942590E-2   -1.409856744748182E-2    9.678548604350831E-1    9.675427194631589E-3
 2.361720385041283E6     9.679274534171350E-1    9.464560788040302E-3    3.202947100405217E-2   -1.404210218306479E-2    3.204569001884905E-2   -1.402834752631709E-2    9.679223079296768E-1    9.558363662527752E-3
 2.379739987188969E6     9.679829762588040E-1    9.389430571483641E-3    3.196636229944971E-2   -1.396652498533661E-2    3.198427828409332E-2   -1.395835213517914E-2    9.679583978553553E-1    9.482649679051644E-3
 2.397897076425990E6     9.680812418273281E-1    9.269063498167571E-3    3.189763636483208E-2   -1.389971865844803E-2    3.192108223418514E-2   -1.388890161559924E-2    9.680385774316592E-1    9.377039316042413E-3
 2.416192701759947E6     9.681433175316980E-1    9.162821852726266E-3    3.183524624927797E-2   -1.382698627429346E-2    3.185623111308088E-2   -1.381655444203361E-2    9.680968279509310E-1    9.279981644813943E-3
 2.434627920202243E6     9.682315067331476E-1    9.055297971678847E-3    3.177051270797216E-2   -1.375949771223702E-2    3.179805654602703E-2   -1.374663765072688E-2    9.681291223840143E-1    9.164894066882551E-3
 2.453203796829114E6     9.682994538249374E-1    8.953946084436809E-3    3.170602307594904E-2   -1.368701190398316E-2    3.173435609933301E-2   -1.367939584676173E-2    9.682218526897939E-1    9.065232295522087E-3
 2.471921404843189E6     9.683644493664836E-1    8.848260897594227E-3    3.164464939161134E-2   -1.361540120334768E-2    3.167109828637951E-2   -1.360918595824586E-2    9.682693425108780E-1    8.980006930763356E-3
 2.490781825635486E6     9.684248401830073E-1    8.744067091303077E-3    3.158263662808907E-2   -1.354992977009635E-2    3.161306973365366E-2   -1.353929204094850E-2    9.683288446306131E-1    8.872993460637611E-3
 2.509786148847881E6     9.684951803365058E-1    7.750052021090736E-3    3.173315349251018E-2   -1.329977877600998E-2    3.154447328733924E-2   -1.373240781318506E-2    9.685172274257068E-1    8.674086630583298E-3
 2.528935472436085E6     9.685517354120182E-1    7.743615283294602E-3    3.167080348527768E-2   -1.321912359296521E-2    3.147736493685518E-2   -1.368024600841630E-2    9.686111785399455E-1    8.668697818616598E-3
 2.548230902733043E6     9.685881630255547E-1    7.599903470651134E-3    3.160846171590712E-2   -1.315814470873828E-2    3.140889409695528E-2   -1.361062063785608E-2    9.686544656051997E-1    8.651120125675465E-3
 2.567673554512876E6     9.686098595048337E-1    7.322337534718851E-3    3.154830633180212E-2   -1.308746177191580E-2    3.135343492678262E-2   -1.354100081065068E-2    9.687163616805510E-1    8.623571195137745E-3
 2.587264551055275E6     9.686076361434669E-1    7.093747616848351E-3    3.148598664605408E-2   -1.301858416424004E-2    3.129241271276242E-2   -1.346979859143235E-2    9.687549447166062E-1    8.314755120302674E-3
 2.607005024210399E6     9.686686044417551E-1    6.977797660451621E-3    3.142898214187021E-2   -1.294526018063214E-2    3.124181944270338E-2   -1.338475864850742E-2    9.688137747167842E-1    8.306715455782670E-3
 2.626896114464281E6     9.688275473289074E-1    7.122981995118361E-3    3.136839614180401E-2   -1.287814018174947E-2    3.119344569115363E-2   -1.331261645062688E-2    9.688626121923820E-1    8.265809292810613E-3
 2.646938971004693E6     9.688614415816489E-1    6.843039115350500E-3    3.131119634506587E-2   -1.280482443409863E-2    3.112197781802017E-2   -1.324631599829973E-2    9.689464471938614E-1    7.926746020152024E-3
 2.667134751787555E6     9.689106501823450E-1    6.859906472439141E-3    3.124261854534420E-2   -1.274300144506472E-2    3.107054891724833E-2   -1.316841081325360E-2    9.689958212000360E-1    7.928055503692931E-3
 2.687484623603833E6     9.689956395467528E-1    6.677528345584660E-3    3.118726153855476E-2   -1.266990702235074E-2    3.101431235659096E-2   -1.310030242182994E-2    9.690711305690985E-1    7.837351772467869E-3
 2.707989762146940E6     9.690198293494412E-1    6.543571616179723E-3    3.112730266602531E-2   -1.261256350788936E-2    3.095821620246594E-2   -1.302935385295891E-2    9.690803843227157E-1    7.596015455182804E-3
 2.728651352080688E6     9.690726906101710E-1    6.549141214022827E-3    3.106817871731645E-2   -1.254068907323102E-2    3.090882060629070E-2   -1.295188544182579E-2    9.691579853014831E-1    7.587680762189181E-3
 2.749470587107692E6     9.691542066740182E-1    6.567885307782591E-3    3.101227226367001E-2   -1.246462842635816E-2    3.084950866239693E-2   -1.287875495726912E-2    9.691997788482244E-1    7.301594765875175E-3
 2.770448670038360E6     9.692510819002647E-1    6.480021162005333E-3    3.095012106345572E-2   -1.240777181853573E-2    3.079559035091268E-2   -1.280886900712057E-2    9.692027358890647E-1    7.168668813077493E-3
 2.791586812860380E6     9.692617405064096E-1    6.256022701984242E-3    3.088344213673863E-2   -1.233911897080611E-2    3.074001200878233E-2   -1.273659675111339E-2    9.692607327955323E-1    7.091416796585758E-3
 2.812886236808732E6     9.693777446480910E-1    6.341287069937985E-3    3.083223297624330E-2   -1.226577408691758E-2    3.068072602583138E-2   -1.267190682136015E-2    9.693534549156829E-1    7.045560166890915E-3
 2.834348172436268E6     9.694409811374335E-1    6.196766652145350E-3    3.077405871219674E-2   -1.220424201148915E-2    3.062251500524128E-2   -1.260336371396168E-2    9.693716388982806E-1    6.895865842770307E-3
 2.855973859684773E6     9.693670067642135E-1    5.810004580871651E-3    3.070842551679789E-2   -1.213886623254046E-2    3.056918401968566E-2   -1.253235724015753E-2    9.694276515499228E-1    6.772353426263573E-3
 2.877764547956619E6     9.694506200990352E-1    5.776019824599546E-3    3.066066587387416E-2   -1.206021105023115E-2    3.051229305938439E-2   -1.245786236973965E-2    9.694564363885836E-1    6.645749267351796E-3
 2.899721496186967E6     9.695215894157244E-1    5.800573829018747E-3    3.059630265343724E-2   -1.200130264004757E-2    3.045618610815666E-2   -1.238750493847689E-2    9.695486748363719E-1    6.635894417783571E-3
 2.921845972916440E6     9.696651022075685E-1    5.735719910592682E-3    3.054560519163210E-2   -1.193266320402567E-2    3.040034349936687E-2   -1.231288893910049E-2    9.695665565984957E-1    6.425182679472459E-3
 2.944139256364495E6     9.697407383903889E-1    5.817660388246571E-3    3.048129327263207E-2   -1.186115514150046E-2    3.035363002683595E-2   -1.224108437988563E-2    9.696682071788463E-1    6.401010112664328E-3
 2.966602634503201E6     9.697024972988006E-1    5.274123900325511E-3    3.041202744109650E-2   -1.180711482628880E-2    3.029049594453647E-2   -1.217306183884489E-2    9.698201804507697E-1    6.438702228760303E-3
 2.989237405131679E6     9.698067856348049E-1    5.369988971386843E-3    3.035828695888728E-2   -1.174001955003396E-2    3.023576678451040E-2   -1.210103942346009E-2    9.698423190726252E-1    6.319693973447337E-3
 3.012044875951098E6     9.697243774612034E-1    5.411807134478766E-3    3.031338328025935E-2   -1.173910503698749E-2    3.023613670671673E-2   -1.189906926872034E-2    9.699609966870055E-1    6.321003148976105E-3
 3.035026364640187E6     9.698352183233643E-1    5.264755503722625E-3    3.026047509917250E-2   -1.166846360550634E-2    3.017591727815290E-2   -1.183179198706120E-2    9.699933792550434E-1    6.125831189585703E-3
 3.058183198931389E6     9.699486748911498E-1    5.230792723463750E-3    3.020245321440158E-2   -1.160492868595416E-2    3.011964596179297E-2   -1.176766824491077E-2    9.700444648448284E-1    6.005539102894102E-3
 3.081516716687564E6     9.699203473235832E-1    4.991266849096287E-3    3.014425863169852E-2   -1.153726405612564E-2    3.006382670736837E-2   -1.169959639865484E-2    9.700716437801666E-1    5.930333424522645E-3
 3.105028265979277E6     9.700727614329180E-1    5.081714182593779E-3    3.008789415035695E-2   -1.146830008595020E-2    3.001322110148073E-2   -1.162677675764226E-2    9.701302188571674E-1    5.798901384207967E-3
 3.128719205162701E6     9.700690611671392E-1    4.933091542561513E-3    3.002913305949215E-2   -1.140310999029909E-2    2.995409936567480E-2   -1.156232156778593E-2    9.701580112482140E-1    5.604915307090315E-3
 3.152590902958065E6     9.701021567278274E-1    4.580633507563728E-3    2.997581772031584E-2   -1.134249467003813E-2    2.990459791356106E-2   -1.149276048282562E-2    9.701921897444583E-1    5.495500852479924E-3
 3.176644738528751E6     9.701166888872769E-1    4.397706559189429E-3    2.992492767723150E-2   -1.126446722748556E-2    2.985263010491022E-2   -1.142448442281415E-2    9.703135250361457E-1    5.464055654832354E-3
 3.200882101560967E6     9.701670159260568E-1    4.415349313043081E-3    2.987063634311300E-2   -1.119643355011859E-2    2.979069075821317E-2   -1.135759818121054E-2    9.703603034350055E-1    5.355458964426301E-3
 3.225304392344028E6     9.702745371235905E-1    4.390488774858645E-3    2.981144830369563E-2   -1.113271565413164E-2    2.973944524601561E-2   -1.128645172693556E-2    9.704305820916673E-1    5.202164093819349E-3
 3.249913021851289E6     9.702725940509883E-1    4.144260956945573E-3    2.976356336183657E-2   -1.105906605216417E-2    2.968556378096796E-2   -1.122285394153877E-2    9.704323566385237E-1    5.044457482658176E-3
 3.274709411821612E6     9.702980697799948E-1    3.887295046853742E-3    2.970332689855771E-2   -1.100036237313751E-2    2.964244336196518E-2   -1.114891624389923E-2    9.705258871164369E-1    4.962597909751734E-3
 3.299694994841541E6     9.703947513404624E-1    3.925972087774946E-3    2.965532376621601E-2   -1.092722851914564E-2    2.958058678081768E-2   -1.108818652563854E-2    9.705035095006801E-1    4.620405256531958E-3
 3.324871214428060E6     9.704765126730703E-1    3.781626228048441E-3    2.960611614159769E-2   -1.083902139276349E-2    2.951748249859720E-2   -1.104228468818188E-2    9.706349596732251E-1    4.814088521380528E-3
 3.350239525111979E6     9.705277470557147E-1    3.781022735210125E-3    2.954578014938547E-2   -1.077153356479381E-2    2.946763058377758E-2   -1.097093562699095E-2    9.706102058559612E-1    4.539980559259543E-3
 3.375801392522001E6     9.705909467108464E-1    3.655837964800760E-3    2.948908019813709E-2   -1.070527802443605E-2    2.940906256253569E-2   -1.090405610760101E-2    9.706760389787333E-1    4.455317201601544E-3
 3.401558293469354E6     9.705796763315968E-1    3.433453497100111E-3    2.943969760238624E-2   -1.066696326663966E-2    2.936856740676401E-2   -1.081630966100603E-2    9.707006951123986E-1    4.352229907292798E-3
 3.427511716033138E6     9.706795052877433E-1    3.243093704476752E-3    2.938509692802165E-2   -1.059199462176951E-2    2.931637467321268E-2   -1.074963589080459E-2    9.706870394327763E-1    4.082527580494987E-3
 3.453663159646295E6     9.707646117241185E-1    3.073748368986026E-3    2.933267617650103E-2   -1.053506159690346E-2    2.926638483937089E-2   -1.068070505358224E-2    9.708053218770356E-1    3.976642000580911E-3
 3.480014135182226E6     9.708113931498766E-1    3.108290849294790E-3    2.928490990788873E-2   -1.046265434782069E-2    2.921643017528551E-2   -1.061747758545526E-2    9.708657928227351E-1    3.875923154025086E-3
 3.506566165042107E6     9.708785867551443E-1    3.230046209518104E-3    2.923357247515031E-2   -1.041116165411611E-2    2.918047401202078E-2   -1.052840592067844E-2    9.709694385961605E-1    3.918416702737110E-3
 3.533320783242811E6     9.709601887230260E-1    3.114694019798224E-3    2.917902482856383E-2   -1.033861637492403E-2    2.913008384511337E-2   -1.045801738081573E-2    9.711294414969600E-1    4.115552927645198E-3
 3.560279535505542E6     9.709768646908500E-1    3.021961356143197E-3    2.913193048219025E-2   -1.026688086187001E-2    2.907599097780036E-2   -1.039594324782014E-2    9.710853664197766E-1    3.738890522639491E-3
 3.587443979345170E6     9.710532986682966E-1    2.807744954327694E-3    2.907417827221196E-2   -1.020535155732413E-2    2.902685955248821E-2   -1.032709590794906E-2    9.710534777538565E-1    3.537185016056381E-3
 3.614815684160168E6     9.711107091986688E-1    2.676313560986226E-3    2.901964338919868E-2   -1.014558342156025E-2    2.897045381876054E-2   -1.026300814176419E-2    9.711008418702335E-1    3.281358930023123E-3
 3.642396231323309E6     9.711939739999134E-1    2.556587990583226E-3    2.897160642453256E-2   -1.006994375836587E-2    2.892004372733447E-2   -1.019712062852216E-2    9.711794247712301E-1    3.140421954586426E-3
 3.670187214273024E6     9.712727843816205E-1    2.340421610608773E-3    2.890052428622455E-2   -9.921456919958608E-3    2.881532571820524E-2   -1.025773502873652E-2    9.711770648804149E-1    3.178187821198169E-3
 3.698190238605455E6     9.713227428942864E-1    2.283885658775158E-3    2.885912304166164E-2   -9.846852934945798E-3    2.875506193940766E-2   -1.020037031638683E-2    9.711653040577953E-1    2.812274118516125E-3
 3.726406922167240E6     9.714028976900484E-1    2.054318654731721E-3    2.880838982918370E-2   -9.783451819991427E-3    2.871182833872329E-2   -1.012023411079515E-2    9.712710604142825E-1    2.826746174600899E-3
 3.754838895148946E6     9.714324876708911E-1    1.954176195325353E-3    2.875293633991911E-2   -9.716066227885485E-3    2.866962308460290E-2   -1.005101971700543E-2    9.713520420010946E-1    2.731747334759851E-3
 3.783487800179276E6     9.714468963994167E-1    1.939458052573059E-3    2.871197100044255E-2   -9.665352773149507E-3    2.862376220722547E-2   -9.940325755453061E-3    9.713807066453650E-1    2.599688081585429E-3
 3.812355292419964E6     9.715457043382728E-1    1.938450816043873E-3    2.866572409716361E-2   -9.596119946556184E-3    2.857117122684863E-2   -9.871647187888091E-3    9.714867754042318E-1    2.516049907494803E-3
 3.841443039661395E6     9.715467777275230E-1    1.609883986204090E-3    2.861485512774345E-2   -9.527983835509849E-3    2.851729276754249E-2   -9.807611034833403E-3    9.714816254090487E-1    2.333788939089862E-3
 3.870752722418987E6     9.715815014048409E-1    1.598412210785534E-3    2.856399690956231E-2   -9.462988749618786E-3    2.846629304159802E-2   -9.738227776933011E-3    9.715174782997398E-1    2.308779721542872E-3
 3.900286034030236E6     9.716432952377827E-1    1.602735875528470E-3    2.851844933369635E-2   -9.390412333097304E-3    2.841833486243753E-2   -9.674623631020006E-3    9.715978408348184E-1    2.155220611237981E-3
 3.930044680752580E6     9.717012539277949E-1    1.437510204831967E-3    2.846595567236899E-2   -9.322144918617463E-3    2.836908159204896E-2   -9.603783615285466E-3    9.715814974829035E-1    1.848834547815210E-3
 3.960030381861967E6     9.717765454167718E-1    1.204860968544492E-3    2.842023606755668E-2   -9.248711477439137E-3    2.831960286979268E-2   -9.533829066568541E-3    9.716583562734776E-1    1.778016660594862E-3
 3.990244869752173E6     9.717898892693840E-1    1.119291582551265E-3    2.836805133777890E-2   -9.189410983683468E-3    2.827165564485349E-2   -9.473345774637439E-3    9.717117046980043E-1    1.742432499005851E-3
 4.020689890034929E6     9.718226334127702E-1    1.146037457126846E-3    2.832898893459293E-2   -9.163793100022908E-3    2.826471324162337E-2   -9.324796143090655E-3    9.718001225096807E-1    1.606918654407383E-3
 4.051367201640718E6     9.718638699689011E-1    1.080891735144323E-3    2.827759535324277E-2   -9.104070764373102E-3    2.820724855511591E-2   -9.264828223352695E-3    9.717620291869604E-1    1.430109866303738E-3
 4.082278576920427E6     9.719286663830397E-1    9.507745991206770E-4    2.823266907573038E-2   -9.035429331736093E-3    2.816302120547968E-2   -9.198958251114680E-3    9.718775780984197E-1    1.450388179866191E-3
 4.113425801747740E6     9.719471455288525E-1    8.062874656645271E-4    2.818113656503502E-2   -8.966390838246156E-3    2.811706737027095E-2   -9.130575955728205E-3    9.719499380736135E-1    1.394353236342354E-3
 4.144810675622302E6     9.719646209816538E-1    6.159496898334145E-4    2.813210126665082E-2   -8.897368479726732E-3    2.806975259487596E-2   -9.063215332252747E-3    9.720228730972038E-1    1.248963356040844E-3
 4.176435011773718E6     9.720261903988674E-1    5.180787341439621E-4    2.808837842694001E-2   -8.830115426021082E-3    2.802056926651527E-2   -8.989779135447032E-3    9.720335364920931E-1    1.123724885569626E-3
 4.208300637266261E6     9.720602304853813E-1    2.457428955711907E-4    2.803329856082129E-2   -8.768350240122260E-3    2.797375751043692E-2   -8.923910559546409E-3    9.720664476807156E-1    9.912243852809989E-4
 4.240409393104453E6     9.720910823035027E-1    2.228696120400248E-4    2.798972051274918E-2   -8.696045129434943E-3    2.792426447875023E-2   -8.854485606431480E-3    9.720990748210211E-1    7.758398562022825E-4
 4.272763134339464E6     9.721383707605098E-1    1.243179155324908E-4    2.794691754244480E-2   -8.630423904084288E-3    2.788121173616920E-2   -8.787982186581030E-3    9.721533686969350E-1    6.741977814171695E-4
 4.305363730176185E6     9.722339115266173E-1    2.694690941937767E-5    2.789523323410699E-2   -8.564924179694672E-3    2.782676595007875E-2   -8.720567914508112E-3    9.721706204157068E-1    5.262115922236162E-4
 4.338213064081349E6     9.722677182322618E-1   -1.576183718886650E-4    2.784391899242564E-2   -8.479897055978566E-3    2.777030009118842E-2   -8.675796891776041E-3    9.721965342288660E-1    2.976224182337244E-4
 4.371313033892244E6     9.723216734322728E-1   -2.724348934779770E-4    2.780095291744880E-2   -8.413261660319039E-3    2.771882183935261E-2   -8.608862046151796E-3    9.722777608051533E-1    2.138019663479906E-4
 4.404665551926396E6     9.723923358145975E-1   -2.319881851952863E-4    2.775241601277587E-2   -8.341132225905906E-3    2.767246865907612E-2   -8.539291839192201E-3    9.724071332755193E-1    3.228453945597677E-4
 4.438272545092077E6     9.724237604252047E-1   -4.483603945171357E-4    2.771018148499142E-2   -8.267925292179196E-3    2.762280988508060E-2   -8.473387286551797E-3    9.724861760362359E-1    1.927680071476959E-4
 4.472135954999580E6     9.724652580543234E-1   -6.228424213885505E-4    2.765570592274523E-2   -8.204035424191789E-3    2.758351328080070E-2   -8.397519902200164E-3    9.724800704030852E-1   -6.419100173897653E-5
 4.506257738073424E6     9.725429341080462E-1   -6.902476790726659E-4    2.761172683950361E-2   -8.134694568938443E-3    2.753120240804819E-2   -8.338819061505451E-3    9.724487223371999E-1   -4.121936299936703E-4
 4.540639865665382E6     9.725166520413430E-1   -7.690340767082183E-4    2.756585200711064E-2   -8.086779403336693E-3    2.750364258575912E-2   -8.242696269355938E-3    9.725878483106301E-1   -3.043420099801014E-4
 4.575284324168356E6     9.726116825927277E-1   -9.127715558149671E-4    2.751786172696268E-2   -8.022042570418681E-3    2.746424562254569E-2   -8.171121649875308E-3    9.726967669277820E-1   -4.532564571146890E-4
 4.610193115131186E6     9.726498565297692E-1   -1.161131527315488E-3    2.745980497349241E-2   -7.905855997472868E-3    2.737943433854191E-2   -8.176431256005172E-3    9.727895979646005E-1   -4.265595686339754E-4
 4.645368255374223E6     9.726845211202599E-1   -1.342666779092757E-3    2.741674794864974E-2   -7.840093613046460E-3    2.733239664717975E-2   -8.123282662838502E-3    9.727905301627042E-1   -5.338775011344452E-4
 4.680811777105891E6     9.727112452155774E-1   -1.369282179287434E-3    2.737188073009293E-2   -7.763770109803571E-3    2.728789884812181E-2   -8.046704367508638E-3    9.728355864335971E-1   -6.758882133458065E-4
 4.716525728040087E6     9.727510884479375E-1   -1.636460046121322E-3    2.733006009635567E-2   -7.699196835255204E-3    2.724379731843541E-2   -7.970259792919812E-3    9.728711046017534E-1   -7.985261791142620E-4
 4.752512171514469E6     9.728287441726948E-1   -1.763951792530267E-3    2.728233045274155E-2   -7.624467331215010E-3    2.719831417693157E-2   -7.917386152437821E-3    9.728631948319503E-1   -9.780050937671194E-4
 4.788773186609713E6     9.728223752693169E-1   -1.903549828808689E-3    2.723945425041636E-2   -7.560262715202276E-3    2.714978204782303E-2   -7.845337892753448E-3    9.729286334395877E-1   -1.202686640259394E-3
 4.825310868269563E6     9.729089785904482E-1   -2.122483552487463E-3    2.717935914767947E-2   -7.486868045537992E-3    2.710343486160469E-2   -7.832548197416004E-3    9.729590434899297E-1   -1.314417870523327E-3
 4.862127327421905E6     9.729718638635683E-1   -2.216746462411987E-3    2.713680824939773E-2   -7.412284226788648E-3    2.706285968047415E-2   -7.754742596129319E-3    9.730502476199382E-1   -1.253955053775041E-3
 4.899224691100715E6     9.729652144612906E-1   -2.345189389057903E-3    2.709038256048128E-2   -7.339457345914045E-3    2.701713122599833E-2   -7.692309856022944E-3    9.731265811444423E-1   -1.515946828470307E-3
 4.936605102568937E6     9.730090059949653E-1   -2.473322206343075E-3    2.704466862941286E-2   -7.271462790587191E-3    2.697593643954863E-2   -7.612672905547648E-3    9.731579221383614E-1   -1.359323130955725E-3
 4.974270721442348E6     9.730500091875315E-1   -2.564028743909681E-3    2.699844600888942E-2   -7.198685598505686E-3    2.693351895229621E-2   -7.545725841899534E-3    9.731537721538296E-1   -1.637015180357185E-3
 5.012223723814265E6     9.731213848011113E-1   -2.673741271901187E-3    2.695777530781137E-2   -7.130761989197991E-3    2.688306509372619E-2   -7.487204117151727E-3    9.731705070952071E-1   -2.110513643149420E-3
 5.050466302381308E6     9.731505266387471E-1   -2.821211136418083E-3    2.691677468096973E-2   -7.058792417662859E-3    2.684380989734082E-2   -7.418031382059976E-3    9.732642202892186E-1   -2.067246210572444E-3
 5.089000666570071E6     9.731789949994893E-1   -2.975547332805180E-3    2.687436786077057E-2   -6.991045760908548E-3    2.680359199806056E-2   -7.342849544232751E-3    9.733291262908228E-1   -2.064913722872130E-3
 5.127829042664761E6     9.732574970043641E-1   -3.061908969360770E-3    2.683115790421856E-2   -6.918293440981552E-3    2.676112546372234E-2   -7.276018893444402E-3    9.733615009369473E-1   -2.346145832814262E-3
 5.166953673935857E6     9.732922045939505E-1   -3.221835507851737E-3    2.679269301460785E-2   -6.842620962437035E-3    2.671695374723754E-2   -7.202219971526070E-3    9.734187226254830E-1   -2.348690810150343E-3
 5.206376820769652E6     9.733549346372666E-1   -3.331362590937001E-3    2.674433975169623E-2   -6.776809309074604E-3    2.667226747732773E-2   -7.137028688660034E-3    9.734099329180597E-1   -2.862768626188079E-3
 5.246100760798878E6     9.734049027195079E-1   -3.490273517371003E-3    2.669735027939634E-2   -6.717601769482810E-3    2.662700231303154E-2   -7.076600965716600E-3    9.734521761971296E-1   -2.926948530664682E-3
 5.286127789034322E6     9.734619991124430E-1   -3.630741549047882E-3    2.665368924623016E-2   -6.644689815186062E-3    2.658481648025135E-2   -7.000560964076857E-3    9.735454714932958E-1   -2.750869390818664E-3
 5.326460217997355E6     9.734323673360420E-1   -3.533911623728766E-3    2.663830172247113E-2   -6.668941583800211E-3    2.660492618336023E-2   -6.769764711762346E-3    9.735485995480421E-1   -3.095811697647937E-3
 5.367100377853584E6     9.734627680091407E-1   -3.655201137381155E-3    2.659463102043898E-2   -6.596192093266364E-3    2.656611976130152E-2   -6.698755257858770E-3    9.736245419792361E-1   -3.201522586814980E-3
 5.408050616547454E6     9.735097096706865E-1   -3.766696143773967E-3    2.655277264706113E-2   -6.525020313963608E-3    2.652131647804945E-2   -6.632045658784018E-3    9.736410846074609E-1   -3.285183482019371E-3
 5.449313299937895E6     9.735223208944406E-1   -3.955175171444546E-3    2.651073556451413E-2   -6.459777318556860E-3    2.648260472230638E-2   -6.557374980058718E-3    9.736985199034627E-1   -3.372079366895946E-3
 5.490890811935049E6     9.735718973470314E-1   -4.301874554830917E-3    2.644381678725233E-2   -6.292690476861615E-3    2.638087223428855E-2   -6.642282192815696E-3    9.737600143688436E-1   -3.444614217212742E-3
 5.532785554637930E6     9.736144739479879E-1   -4.458646795886446E-3    2.640296417994609E-2   -6.223752755418104E-3    2.633885174965585E-2   -6.574806162399441E-3    9.737637331946355E-1   -3.708257805805888E-3
 5.574999948473252E6     9.736273606694330E-1   -4.395436676069596E-3    2.638795763709473E-2   -6.240051461503244E-3    2.635333110110611E-2   -6.345446313830508E-3    9.737115584632942E-1   -4.084964369089833E-3
 5.617536432335250E6     9.736783373310858E-1   -4.468836708214148E-3    2.634531350964561E-2   -6.171734980602507E-3    2.631300908693970E-2   -6.281170759972633E-3    9.737112083856272E-1   -4.544210422842071E-3
 5.660397463726575E6     9.737171322888927E-1   -4.642040297493551E-3    2.630194197041170E-2   -6.106355594692387E-3    2.627458580872959E-2   -6.209482483808016E-3    9.738165621395650E-1   -4.531668413605416E-3
 5.703585518900323E6     9.738013275144575E-1   -5.039561671030114E-3    2.623112139458239E-2   -5.941719152385519E-3    2.617882315062001E-2   -6.297089814422538E-3    9.739358434187182E-1   -4.542508876819179E-3
 5.747103093003022E6     9.738914299746150E-1   -5.185358059362449E-3    2.619076872826921E-2   -5.877682632171670E-3    2.613834025468355E-2   -6.227300739376720E-3    9.739969328297656E-1   -4.639355830193260E-3
 5.790952700218840E6     9.738967319622004E-1   -5.334963515269577E-3    2.615268636053633E-2   -5.810199099853146E-3    2.609916465854640E-2   -6.156891329112868E-3    9.739755664400901E-1   -4.732418141659739E-3
 5.835136873914825E6     9.739333929672677E-1   -5.214370737306294E-3    2.613616854337083E-2   -5.823472931036074E-3    2.611284098537027E-2   -5.925291035098579E-3    9.740377830670777E-1   -4.990647353741934E-3
 5.879658166787256E6     9.739757627946318E-1   -5.366395729266307E-3    2.609742209634949E-2   -5.755712869523921E-3    2.607573175553184E-2   -5.844933976732507E-3    9.740473323780476E-1   -4.974107557924701E-3
 5.924519151009166E6     9.739974594232668E-1   -5.530104073952990E-3    2.605401917280072E-2   -5.686335802037258E-3    2.603862148366547E-2   -5.775894104402411E-3    9.741835843110715E-1   -4.992162492750614E-3
 5.969722418378883E6     9.739900282761913E-1   -5.675766658241543E-3    2.601848029874160E-2   -5.612290888957471E-3    2.599783498613416E-2   -5.698823097393915E-3    9.742119411686370E-1   -5.143436957152003E-3
 6.015270580469812E6     9.740602874377342E-1   -5.820462690989307E-3    2.597548832423176E-2   -5.542095370986140E-3    2.595543420479814E-2   -5.630814366799606E-3    9.741511170547477E-1   -5.521409498759507E-3
 6.061166268781302E6     9.740616658186969E-1   -5.960540553966255E-3    2.593770976498078E-2   -5.463883149334207E-3    2.591577546594246E-2   -5.558168337876656E-3    9.742474250666656E-1   -5.743157749160339E-3
 6.107412134890671E6     9.741155934002118E-1   -6.135156262176153E-3    2.589800378944498E-2   -5.381096701729141E-3    2.586792710801903E-2   -5.500057195460081E-3    9.742573573356438E-1   -5.981152296786976E-3
 6.154010850606443E6     9.741738609368779E-1   -6.283591482768993E-3    2.585894854924136E-2   -5.307083848763853E-3    2.582526188130601E-2   -5.420235211499435E-3    9.743126106372906E-1   -5.945015181823506E-3
 6.200965108122637E6     9.742123544641497E-1   -6.440198778064292E-3    2.581806817647047E-2   -5.238467724491247E-3    2.578639857949529E-2   -5.349255157270430E-3    9.743359556778156E-1   -6.008807136712068E-3
 6.248277620174343E6     9.742053685364207E-1   -6.608564006903776E-3    2.577907385973281E-2   -5.166632249605047E-3    2.574606225827747E-2   -5.270410232313061E-3    9.743785444863940E-1   -6.188526295748138E-3
 6.295951120194497E6     9.743289173662044E-1   -6.744696913833326E-3    2.574405530974729E-2   -5.087786006334480E-3    2.571104179952491E-2   -5.201974659671757E-3    9.744320390352837E-1   -6.336619111084652E-3
 6.343988362471664E6     9.743344871109129E-1   -6.895367642169323E-3    2.570258134321221E-2   -5.028661429214478E-3    2.568285554096686E-2   -5.116309581455338E-3    9.744373624951285E-1   -6.470872347657847E-3
 6.392392122309345E6     9.743777756854355E-1   -7.072159406483374E-3    2.566768434780997E-2   -4.957944695893362E-3    2.564749321929653E-2   -5.038748869978654E-3    9.744405629736071E-1   -6.628453938356090E-3
 6.441165196186168E6     9.743854592299800E-1   -7.238571811975108E-3    2.562914927381619E-2   -4.890576695667122E-3    2.560738093714094E-2   -4.968862492509357E-3    9.744770650509627E-1   -6.935455958250010E-3
 6.490310401917514E6     9.744263839643739E-1   -7.375362136212991E-3    2.559107592448766E-2   -4.812802628950373E-3    2.557085270495880E-2   -4.891937294288919E-3    9.745160841019002E-1   -7.166867856619235E-3
 6.539830578818345E6     9.744517356434651E-1   -7.542556858958143E-3    2.555087311488500E-2   -4.741813051430801E-3    2.553226406453726E-2   -4.815439979086647E-3    9.746155768042453E-1   -7.178717021779801E-3
 6.589728587867169E6     9.744890908034264E-1   -7.701266693141058E-3    2.551247814177101E-2   -4.669612763592483E-3    2.549781729895784E-2   -4.741897871587394E-3    9.746557543523203E-1   -7.152425565010724E-3
 6.640007311871376E6     9.745638754686183E-1   -7.879811107442014E-3    2.548122154456465E-2   -4.592873398447809E-3    2.545791427608202E-2   -4.667681388842169E-3    9.746686441415442E-1   -7.365236611205381E-3
 6.690669655633785E6     9.745592903412238E-1   -8.042844573265616E-3    2.544086621234144E-2   -4.515770683518546E-3    2.542179809768759E-2   -4.593950623153992E-3    9.747194353010804E-1   -7.428500315314160E-3
 6.741718546120445E6     9.745817537689874E-1   -8.177051188879318E-3    2.540763271222311E-2   -4.440146342569377E-3    2.538398094016612E-2   -4.523956362808554E-3    9.747496706478607E-1   -7.760891006012724E-3
 6.793156932629797E6     9.746243082685430E-1   -8.363469264494546E-3    2.536644137934870E-2   -4.366834311611878E-3    2.534684418171430E-2   -4.446138562336330E-3    9.747455557102214E-1   -7.848296360064178E-3
 6.844987786962981E6     9.746022295605540E-1   -8.558363309473845E-3    2.532712074660097E-2   -4.288557574263299E-3    2.531094278933013E-2   -4.372241211969368E-3    9.747870407337906E-1   -7.995081384308317E-3
 6.897214103595586E6     9.746162713912998E-1   -8.767607352934463E-3    2.528577822771285E-2   -4.186927893424734E-3    2.524641597278074E-2   -4.331478424603383E-3    9.748410759449259E-1   -8.188953237954868E-3
 6.949838899850640E6     9.746681657785250E-1   -8.922905703289016E-3    2.525157973343612E-2   -4.107402014619604E-3    2.521116859971548E-2   -4.256416789819522E-3    9.748951390647316E-1   -8.321812989661004E-3
 7.002865216072913E6     9.747155027574140E-1   -9.307081280728545E-3    2.519794326253094E-2   -3.988651518936321E-3    2.514972806855112E-2   -4.274701258715088E-3    9.749094409539451E-1   -8.458539932494236E-3
 7.056296115804635E6     9.747618550011651E-1   -9.457394513311321E-3    2.516254692198816E-2   -3.910271135399183E-3    2.511672091868760E-2   -4.197925458710720E-3    9.749187083496561E-1   -8.639583113977068E-3
 7.110134685962399E6     9.748095750837694E-1   -9.651220580146235E-3    2.512501659775491E-2   -3.838000613513005E-3    2.507994049203215E-2   -4.121880673793109E-3    9.749728706632281E-1   -8.856689205152283E-3
 7.164384037015557E6     9.748765362637227E-1   -9.827500694527145E-3    2.508913149386163E-2   -3.761963904015540E-3    2.504216519040308E-2   -4.048656067378412E-3    9.750027767332892E-1   -8.990521699083560E-3
 7.219047303165923E6     9.749034757363041E-1   -9.999481278716001E-3    2.505139974779082E-2   -3.683752426494683E-3    2.500970445666944E-2   -3.972236409990060E-3    9.750172975035272E-1   -9.170819161462141E-3
 7.274127642528819E6     9.749595290329616E-1   -1.016582155791283E-2    2.501760334741611E-2   -3.611147163433862E-3    2.497297214736433E-2   -3.893532565568463E-3    9.750369017061475E-1   -9.348589763577808E-3
 7.329628237315600E6     9.750355704620405E-1   -1.045366893050036E-2    2.496835960089088E-2   -3.516112981506716E-3    2.494068228211635E-2   -3.875480178924705E-3    9.751119600532442E-1   -9.522126781926071E-3
 7.385552294017412E6     9.750494478398398E-1   -1.059649451205175E-2    2.493267947295657E-2   -3.435578718248046E-3    2.490455058518528E-2   -3.799832719153419E-3    9.751139236110924E-1   -9.712938327431538E-3
 7.441903043590503E6     9.750314334140660E-1   -1.049449645739700E-2    2.493192405783009E-2   -3.439052003639345E-3    2.490464052487414E-2   -3.553777737596085E-3    9.751668447640979E-1   -9.985197995789497E-3
 7.498683741642874E6     9.750824099717771E-1   -1.068948753870898E-2    2.489723195995939E-2   -3.360422219284890E-3    2.486634557583668E-2   -3.473311555238986E-3    9.751973689013008E-1   -1.011196677228103E-2
 7.555897668622349E6     9.751349734406619E-1   -1.107264117458934E-2    2.484080654279884E-2   -3.224220999555097E-3    2.480289237295833E-2   -3.511101820947639E-3    9.752410112521518E-1   -1.024833043380712E-2
 7.613548130006171E6     9.751605352239369E-1   -1.128300659404510E-2    2.480770115671576E-2   -3.140568141748276E-3    2.476918203378434E-2   -3.434022522346055E-3    9.753380332547862E-1   -1.041473135997900E-2
 7.671638456491867E6     9.752502315641124E-1   -1.159264536017146E-2    2.473852726417028E-2   -3.029112378363267E-3    2.476477587692563E-2   -3.502240860724923E-3    9.753306110817505E-1   -1.056167805325476E-2
 7.730172004189732E6     9.753058812846337E-1   -1.178111727204922E-2    2.470525922361754E-2   -2.950179944898938E-3    2.473293270201204E-2   -3.422352657928358E-3    9.753321816684687E-1   -1.074798679317388E-2
 7.789152154816771E6     9.754261301518280E-1   -1.198146398564624E-2    2.467144732235118E-2   -2.871231633251536E-3    2.470113721187207E-2   -3.344349455373947E-3    9.753337143985923E-1   -1.092330043144339E-2
 7.848582315891974E6     9.753180244487956E-1   -1.204688749198824E-2    2.466902801861962E-2   -2.828977165817119E-3    2.463168774291229E-2   -3.120027474343404E-3    9.754368831463200E-1   -1.111860782888677E-2
 7.908465920933248E6     9.752862837718295E-1   -1.222210232509711E-2    2.463178346512215E-2   -2.748971551578341E-3    2.459812686591617E-2   -3.044350706479961E-3    9.754749491174185E-1   -1.130767322434298E-2
 7.968806429655775E6     9.753880171758826E-1   -1.239654188137781E-2    2.459957240879377E-2   -2.666587003098636E-3    2.456907935675978E-2   -2.963527764875366E-3    9.754880276402368E-1   -1.150093918933203E-2
 8.029607328171868E6     9.754228442943622E-1   -1.260053239580205E-2    2.456735554394103E-2   -2.587780021650179E-3    2.453386181972309E-2   -2.883793615750052E-3    9.754887168967651E-1   -1.166744836933779E-2
 8.090872129192449E6     9.754597093203576E-1   -1.276110012419939E-2    2.453251824271055E-2   -2.508774463761688E-3    2.450135673180690E-2   -2.806147293997588E-3    9.755278166637628E-1   -1.186134391764797E-2
 8.152604372229892E6     9.754356631687067E-1   -1.296656940839088E-2    2.449966246079440E-2   -2.429992677384082E-3    2.447165521524248E-2   -2.725576559425423E-3    9.755587924727026E-1   -1.206500713627939E-2
 8.214807623802581E6     9.754972147002612E-1   -1.316284266429076E-2    2.446706896730589E-2   -2.347908949267270E-3    2.443956178358775E-2   -2.645435535071813E-3    9.756105465849844E-1   -1.224803102579180E-2
 8.277485477640945E6     9.755313189222665E-1   -1.335220563429342E-2    2.443451269028663E-2   -2.267774949620666E-3    2.440501729821969E-2   -2.566054985305919E-3    9.756014286484573E-1   -1.245646741565248E-2
 8.340641554895067E6     9.755254655027248E-1   -1.354099325659568E-2    2.439737485123880E-2   -2.187257153619104E-3    2.437250365682102E-2   -2.486875822711938E-3    9.756348182588085E-1   -1.264580924952064E-2
 8.404279504343957E6     9.755667280701628E-1   -1.372212882424285E-2    2.436992633212634E-2   -2.104340410141071E-3    2.434098633259629E-2   -2.404988549502262E-3    9.756604836320704E-1   -1.282051019136765E-2
 8.468403002606256E6     9.755760951125024E-1   -1.391760257074507E-2    2.433814259483614E-2   -2.022934436486431E-3    2.431003339389774E-2   -2.323641084278273E-3    9.757013615661434E-1   -1.304850225979169E-2
 8.533015754352720E6     9.756090865223379E-1   -1.404397944249090E-2    2.431881713066557E-2   -1.965541600782393E-3    2.428526358475914E-2   -2.181599297015449E-3    9.756878616601982E-1   -1.326385789071900E-2
 8.598121492520234E6     9.756122249729081E-1   -1.426086540326452E-2    2.428474710172274E-2   -1.882105786737025E-3    2.425396780287416E-2   -2.096660916590961E-3    9.757630887260190E-1   -1.342730117069784E-2
 8.663723978527457E6     9.758229992291809E-1   -1.472447477703666E-2    2.420893126218109E-2   -1.746885438623254E-3    2.425942410664458E-2   -2.231266476032230E-3    9.758144675525778E-1   -1.361470322985964E-2
 8.729827002492212E6     9.758520981494870E-1   -1.490828013291736E-2    2.417524900031648E-2   -1.662177765204365E-3    2.422992513102885E-2   -2.149085960054509E-3    9.758381281585327E-1   -1.381215764246600E-2
 8.796434383450346E6     9.758785144076123E-1   -1.515873786368032E-2    2.414247990633910E-2   -1.581874572148705E-3    2.419921335856595E-2   -2.068846692278798E-3    9.758600592769556E-1   -1.402685604770244E-2
 8.863549969576446E6     9.758413125424261E-1   -1.526346802556819E-2    2.413303448231249E-2   -1.513677148637283E-3    2.413301101854430E-2   -1.894741102545296E-3    9.758757166164324E-1   -1.421576435028426E-2
 8.931177638406139E6     9.758594286824704E-1   -1.547495743614750E-2    2.410070352673536E-2   -1.430989200702808E-3    2.410415006890584E-2   -1.815785207301881E-3    9.759261518487871E-1   -1.441438716773186E-2
 8.999321297060097E6     9.758753780113640E-1   -1.569987472308282E-2    2.407067505141755E-2   -1.347356279050747E-3    2.407372716960628E-2   -1.732227703398442E-3    9.758971740701283E-1   -1.464811592654073E-2
 9.067984882469844E6     9.759596193513846E-1   -1.591034444386738E-2    2.404330206295883E-2   -1.262944413877848E-3    2.404400764951881E-2   -1.646719890117437E-3    9.759786408891746E-1   -1.482469201092167E-2
 9.137172361605095E6     9.759582692011236E-1   -1.613571286787357E-2    2.400853432509087E-2   -1.182148416533862E-3    2.401293696489562E-2   -1.564575444626894E-3    9.760285648674040E-1   -1.503434466282701E-2
 9.206887731702998E6     9.759320607020241E-1   -1.611071492674968E-2    2.401745114482149E-2   -1.148859572111320E-3    2.398883160023296E-2   -1.315179330962255E-3    9.760438180819474E-1   -1.526287700347266E-2
 9.277135020499127E6     9.760101126394394E-1   -1.634524498086683E-2    2.398811810114807E-2   -1.066018488238867E-3    2.396252649465091E-2   -1.232061941043447E-3    9.761295468688372E-1   -1.549441498520683E-2
 9.347918286460072E6     9.760625982372991E-1   -1.652308074174299E-2    2.395737461620060E-2   -9.770791704133044E-4    2.393192709247917E-2   -1.145323332661876E-3    9.761579279998116E-1   -1.569051468723469E-2
 9.419241619017981E6     9.760708987328445E-1   -1.674614508181107E-2    2.392366960734035E-2   -8.944109105207300E-4    2.390377066735838E-2   -1.061061998272304E-3    9.762130426842583E-1   -1.593254149023739E-2
 9.491109138806809E6     9.760448255139892E-1   -1.696840357048160E-2    2.389589532735538E-2   -8.054076883026468E-4    2.387426932764810E-2   -9.739240721311136E-4    9.761972361714550E-1   -1.612176662960309E-2
 9.563524997900363E6     9.760826865060739E-1   -1.720601977292627E-2    2.386601771641872E-2   -7.201871268481112E-4    2.384386054998580E-2   -8.886332456430914E-4    9.761553756960902E-1   -1.635115055525756E-2
 9.636493380052259E6     9.760645303470220E-1   -1.738309425186588E-2    2.383434615688900E-2   -6.332653807919807E-4    2.381700069784015E-2   -8.034058958968477E-4    9.762744078437297E-1   -1.659406559318834E-2
 9.710018500937525E6     9.760833713044690E-1   -1.763272382799943E-2    2.380503937313366E-2   -5.491792586523669E-4    2.378485457294385E-2   -7.147469654823705E-4    9.763032635210563E-1   -1.679525140251392E-2
 9.784104608396223E6     9.761282410941496E-1   -1.800893468769141E-2    2.375145090250684E-2   -4.242817055460710E-4    2.374704075156932E-2   -7.380694238118630E-4    9.763463777828536E-1   -1.698827695827729E-2
 9.858755982678859E6     9.761930327303965E-1   -1.823184999976106E-2    2.372279720440348E-2   -3.327546033410517E-4    2.371781463811473E-2   -6.533478525701741E-4    9.763077593420062E-1   -1.718584632274687E-2
 9.933976936693633E6     9.762207588149239E-1   -1.846965213349865E-2    2.369508298061346E-2   -2.482133183809830E-4    2.368828290997448E-2   -5.650876989070077E-4    9.763497968336988E-1   -1.739480352065637E-2
 1.000977181625571E7     9.762759173737431E-1   -1.871078277275623E-2    2.366524922210294E-2   -1.586430729258171E-4    2.366348155017321E-2   -4.780451102748182E-4    9.763839606755592E-1   -1.761818952556842E-2
 1.008614500033817E7     9.762745130789141E-1   -1.893322788834093E-2    2.363438696504628E-2   -7.148120047484368E-5    2.363304963606253E-2   -3.901456546910242E-4    9.763779424451763E-1   -1.781434064507972E-2
 1.016310090132507E7     9.763139468723740E-1   -1.916042456955749E-2    2.360752423975633E-2    1.428619658821643E-5    2.360786468534704E-2   -3.012515195432451E-4    9.763895840122003E-1   -1.805944982749936E-2
 1.024064396526634E7     9.762472913460172E-1   -1.923296415901012E-2    2.360460978559676E-2    6.999130412812035E-5    2.358944604715815E-2   -1.030427413559580E-4    9.764127276876240E-1   -1.832525083611886E-2
 1.031877867213467E7     9.762908662335362E-1   -1.947188281713556E-2    2.357646243602833E-2    1.579209503555565E-4    2.356112491047369E-2   -1.341926640393919E-5    9.764371806428295E-1   -1.857495228609129E-2
 1.039750953608436E7     9.763180629663718E-1   -1.966898732837568E-2    2.354623595866893E-2    2.481554399437728E-4    2.353544679927263E-2    7.684124074668042E-5    9.765349957510416E-1   -1.879643426985945E-2
 1.047684110571204E7     9.763727514364476E-1   -1.991547348102322E-2    2.352069479317092E-2    3.383303400148707E-4    2.350757714074892E-2    1.665764216191383E-4    9.765251602481526E-1   -1.903451807640207E-2
 1.055677796431950E7     9.763639063348616E-1   -2.016915606755858E-2    2.349338119451634E-2    4.297217683864492E-4    2.348173131638770E-2    2.585661755093405E-4    9.765599688606786E-1   -1.924538151662187E-2
 1.063732473017859E7     9.765147366879459E-1   -2.070900932430387E-2    2.340330854771159E-2    5.851139088361727E-4    2.350808104448772E-2    7.817371381870224E-5    9.765495968987793E-1   -1.946012979911783E-2
 1.071848605679777E7     9.765547611865518E-1   -2.096673149173006E-2    2.337652951881747E-2    6.760124446539460E-4    2.348111233399349E-2    1.689258321837473E-4    9.765462502734069E-1   -1.968468222550080E-2
 1.080026663319129E7     9.764927525148823E-1   -2.110750813663154E-2    2.337104878124668E-2    7.554758890492049E-4    2.340818875206565E-2    3.530099822543652E-4    9.765773308470749E-1   -1.992254225469546E-2
 1.088267118414987E7     9.765602956434184E-1   -2.135144101025587E-2    2.334573804713810E-2    8.471726585010855E-4    2.338516822080173E-2    4.453470978280094E-4    9.766521179772402E-1   -2.014985431601582E-2
 1.096570447051370E7     9.766471506950686E-1   -2.168155918090627E-2    2.329483416124048E-2    9.500382137078670E-4    2.340815163207972E-2    4.438529173043239E-4    9.766336116748858E-1   -2.042785579906510E-2
 1.104937128944762E7     9.766566428060098E-1   -2.194076942494487E-2    2.326725568908732E-2    1.045153998500436E-3    2.338570580731902E-2    5.355169102626688E-4    9.766795777826256E-1   -2.063573712698933E-2
 1.113367647471805E7     9.767033493452596E-1   -2.218617727912462E-2    2.324204806748095E-2    1.138245068492760E-3    2.336051134892687E-2    6.285335739000771E-4    9.766984013739444E-1   -2.086963397483489E-2
 1.121862489697252E7     9.765214721421979E-1   -2.203041956625656E-2    2.330227012986839E-2    1.132979564489191E-3    2.330645927970133E-2    1.056007614018212E-3    9.767158529525370E-1   -2.120398661950607E-2
 1.130422146402085E7     9.766059237392632E-1   -2.226289845591358E-2    2.327537285523200E-2    1.228087426870004E-3    2.327945298260712E-2    1.149453443267849E-3    9.767207511397862E-1   -2.147073546322354E-2
 1.139047112111875E7     9.765952546186460E-1   -2.254764080917942E-2    2.324851023434560E-2    1.324002800169415E-3    2.325516977050844E-2    1.246055650538838E-3    9.767763847511550E-1   -2.171322537620790E-2
 1.147737885125368E7     9.766145297975469E-1   -2.278328143234994E-2    2.322424637894301E-2    1.419391587623244E-3    2.323240938103901E-2    1.341346920533563E-3    9.768389014458574E-1   -2.192618826960935E-2
 1.156494967543242E7     9.766590217599506E-1   -2.302747615775167E-2    2.319851902226435E-2    1.513614740179208E-3    2.320544997835709E-2    1.436042843851635E-3    9.767990616327629E-1   -2.221035622758077E-2
 1.165318865297152E7     9.766428189448477E-1   -2.335694066170676E-2    2.317039799407338E-2    1.625962156804461E-3    2.317061560003447E-2    1.520556046612428E-3    9.767851531215720E-1   -2.240879079934278E-2
 1.174210088178934E7     9.768390945640623E-1   -2.395870290903887E-2    2.306476988487167E-2    1.800639350039751E-3    2.319634634603106E-2    1.290635604012479E-3    9.768305426731748E-1   -2.259549183026742E-2
 1.183169149870061E7     9.768798604381242E-1   -2.424815911318982E-2    2.303915889590603E-2    1.896951313710247E-3    2.317451039264358E-2    1.385864164320323E-3    9.768789564080785E-1   -2.285269501622141E-2
 1.192196567971337E7     9.768641887910572E-1   -2.450586369245833E-2    2.301550190693264E-2    1.992507611066188E-3    2.315146265757887E-2    1.481806406771856E-3    9.768965544561938E-1   -2.313059039279204E-2
 1.201292864032780E7     9.769093882800218E-1   -2.477176733436918E-2    2.298912253328305E-2    2.089417466417496E-3    2.313136336213611E-2    1.577303103119819E-3    9.768901221296474E-1   -2.337634088579325E-2
 1.210458563583766E7     9.769237912079252E-1   -2.503091921783199E-2    2.296535782760483E-2    2.187226175320174E-3    2.310893607990380E-2    1.674291823603692E-3    9.769088833508872E-1   -2.366134087628962E-2
 1.219694196163385E7     9.769042044962073E-1   -2.531835804480437E-2    2.293935698702670E-2    2.285278180788438E-3    2.308540528072699E-2    1.771500540515402E-3    9.769321364865932E-1   -2.391862266228485E-2
 1.229000295351040E7     9.767781788019104E-1   -2.533650729560706E-2    2.297323645626526E-2    2.349027263460383E-3    2.298168259582823E-2    2.107682199205951E-3    9.769380324549615E-1   -2.420795676823600E-2
 1.238377398797275E7     9.768041030632878E-1   -2.563455423997319E-2    2.294923562765280E-2    2.448246617639006E-3    2.295775341231971E-2    2.207029983239096E-3    9.769824052897742E-1   -2.446782760307139E-2
 1.247826048254829E7     9.768361680392038E-1   -2.591168347188083E-2    2.292772943542580E-2    2.549489387094509E-3    2.293708594037661E-2    2.305708629954497E-3    9.769830554792039E-1   -2.474762843640781E-2
 1.257346789609938E7     9.769530174240231E-1   -2.595978842233035E-2    2.294563589692194E-2    2.587707270956615E-3    2.295463516494434E-2    2.525305703420208E-3    9.769705692101546E-1   -2.507751819582836E-2
 1.266940172913885E7     9.769611717573237E-1   -2.623706429504954E-2    2.292463033663124E-2    2.689649490045409E-3    2.293340242744860E-2    2.629050843634039E-3    9.770190144510155E-1   -2.536040777598645E-2
 1.276606752414753E7     9.769523132136253E-1   -2.652209422847836E-2    2.289965591105578E-2    2.791146154562133E-3    2.290915780308503E-2    2.728912897454622E-3    9.770518494846605E-1   -2.563082383220238E-2
 1.286347086589479E7     9.770104862744362E-1   -2.680515623076461E-2    2.287926153428117E-2    2.893014903693696E-3    2.288941105215963E-2    2.830283102986258E-3    9.770358075380948E-1   -2.591812880943973E-2
 1.296161738176090E7     9.769950091158427E-1   -2.708442162881939E-2    2.285738070643490E-2    2.995388527853166E-3    2.286597823694840E-2    2.933455046426944E-3    9.770410341126384E-1   -2.620643595165083E-2
 1.306051274206230E7     9.769601600117291E-1   -2.738527854599746E-2    2.283231147958297E-2    3.096655777739192E-3    2.284736294008661E-2    3.035958220611753E-3    9.770505036973617E-1   -2.646660256621550E-2
 1.316016266037924E7     9.770038821720199E-1   -2.765988942280515E-2    2.281165901329583E-2    3.202505041548603E-3    2.282609075696350E-2    3.139798848271745E-3    9.770901075942492E-1   -2.672222929653597E-2
 1.326057289388563E7     9.770335620129852E-1   -2.800767897883618E-2    2.278121823154639E-2    3.328144005587544E-3    2.278827276374912E-2    3.220689691394988E-3    9.771293082155645E-1   -2.699575461805657E-2
 1.336174924368203E7     9.770227285487076E-1   -2.828606886953487E-2    2.275966256220598E-2    3.431922454824514E-3    2.276528809265374E-2    3.325299484117213E-3    9.771138618136970E-1   -2.729281350860889E-2
 1.346369755513046E7     9.770360559133084E-1   -2.853091123280254E-2    2.275036629763541E-2    3.513508403367771E-3    2.276359203327441E-2    3.451680629946447E-3    9.771101696202770E-1   -2.759914242097928E-2
 1.356642371819227E7     9.770510594548771E-1   -2.884057845224619E-2    2.272932377316118E-2    3.619004901765773E-3    2.274274355362099E-2    3.557390144376435E-3    9.771417617877786E-1   -2.787326644964335E-2
 1.366993366776852E7     9.771276884738677E-1   -2.914621444361155E-2    2.270882688541162E-2    3.726232441637989E-3    2.272047929233962E-2    3.663034959120110E-3    9.771561221004857E-1   -2.820221914750070E-2
 1.377423338404255E7     9.771513497802032E-1   -2.941505324704174E-2    2.268919107262133E-2    3.832659423135582E-3    2.270038941502194E-2    3.769410930756340E-3    9.771537396266049E-1   -2.847034524698086E-2
 1.387932889282586E7     9.771364829718012E-1   -2.998601690121759E-2    2.260383286406544E-2    4.011955682270418E-3    2.265826706421406E-2    3.671123438641181E-3    9.771938783483889E-1   -2.869970667886918E-2
 1.398522626590596E7     9.772269878524544E-1   -3.045513669818615E-2    2.254229547311208E-2    4.128684499314580E-3    2.273407833550965E-2    3.614172324678597E-3    9.772446817036297E-1   -2.895441072334259E-2
 1.409193162139728E7     9.772729829285037E-1   -3.076199327941419E-2    2.252293814936875E-2    4.236831280571706E-3    2.271717823884017E-2    3.720011768911034E-3    9.772501822448276E-1   -2.925064909170570E-2
 1.419945112409473E7     9.771804821573482E-1   -3.093199509481481E-2    2.254289206763743E-2    4.331615303877477E-3    2.260525739034785E-2    3.990389235739568E-3    9.772655103678393E-1   -2.954888840420505E-2
 1.430779098582953E7     9.771846788630083E-1   -3.122127401945952E-2    2.252023771521957E-2    4.442797885179983E-3    2.258800462333408E-2    4.099589032631324E-3    9.773297191904989E-1   -2.986389335121178E-2
 1.441695746582855E7     9.772305983444809E-1   -3.153907932634896E-2    2.250436123472774E-2    4.550440756556906E-3    2.256962656735713E-2    4.208446898880989E-3    9.773663152734855E-1   -3.017106160110338E-2
 1.452695687107559E7     9.772669610112764E-1   -3.185721104865664E-2    2.248484257695067E-2    4.660442254746118E-3    2.255144939886449E-2    4.317986781171174E-3    9.773536998695385E-1   -3.046433573270053E-2
 1.463779555667585E7     9.772811956869859E-1   -3.216517253934102E-2    2.246418921878462E-2    4.771385406893997E-3    2.253427233067078E-2    4.429074821980512E-3    9.773585905851113E-1   -3.074878693831588E-2
 1.474947992622320E7     9.772599041371937E-1   -3.246162168578439E-2    2.244579692799539E-2    4.881536107353068E-3    2.251790873972314E-2    4.536761853461450E-3    9.773546343590285E-1   -3.108390963478841E-2
 1.486201643216998E7     9.772648347500790E-1   -3.268655888679345E-2    2.246315185449736E-2    4.971360425493588E-3    2.248342064270336E-2    4.780554791293011E-3    9.773793831652298E-1   -3.138537200103048E-2
 1.497541157619987E7     9.772846733790037E-1   -3.314906578709893E-2    2.240816969885496E-2    5.106059680842175E-3    2.248152855508239E-2    4.761173868118129E-3    9.773822446075219E-1   -3.171003827962639E-2
 1.508967190960350E7     9.772657398216519E-1   -3.348057868777236E-2    2.239019869971299E-2    5.218351386890435E-3    2.246805011638394E-2    4.874054080436018E-3    9.774278527685301E-1   -3.200307599301944E-2
 1.520480403365694E7     9.773049100140048E-1   -3.380966053758872E-2    2.237214658689771E-2    5.334286268628754E-3    2.244992368460325E-2    4.986746202179823E-3    9.774043619730167E-1   -3.232181669577029E-2
 1.532081460000315E7     9.772624590632033E-1   -3.414748715573475E-2    2.235349672543466E-2    5.444301698548268E-3    2.243640624386873E-2    5.096725453402668E-3    9.774209288159358E-1   -3.266321542030811E-2
 1.543771031103615E7     9.773550195354133E-1   -3.443586947830785E-2    2.233748407861584E-2    5.562125253254220E-3    2.241758413607452E-2    5.211445956101901E-3    9.774632790618093E-1   -3.299021392760504E-2
 1.555549792028828E7     9.773448948243991E-1   -3.481160134066225E-2    2.231898466774476E-2    5.674920742983093E-3    2.240399987059439E-2    5.327184150424524E-3    9.774675385800802E-1   -3.330272178756179E-2
 1.567418423282054E7     9.773129849539958E-1   -3.498877444109041E-2    2.234025736938840E-2    5.771192451534027E-3    2.236723191641310E-2    5.577014987622007E-3    9.774566486061695E-1   -3.368131047121496E-2
 1.579377610561541E7     9.773336514531646E-1   -3.533133523799832E-2    2.232124133540824E-2    5.887013602313545E-3    2.235020205941175E-2    5.692255411839367E-3    9.774623519999441E-1   -3.400784789074520E-2
 1.591428044797338E7     9.773636688098526E-1   -3.564095011590318E-2    2.230528703021400E-2    6.005353519813815E-3    2.233411178385677E-2    5.809047160284160E-3    9.774790639662745E-1   -3.432773033962375E-2
 1.603570422191187E7     9.773815976651185E-1   -3.602098155200995E-2    2.228921592640103E-2    6.122087830856491E-3    2.231762043771615E-2    5.927586971331262E-3    9.774645258371487E-1   -3.467332640642350E-2
 1.615805444256752E7     9.773879522286670E-1   -3.635545419861080E-2    2.227330605594553E-2    6.240388299431216E-3    2.230320698647121E-2    6.045278294382852E-3    9.775274035441639E-1   -3.498454314013098E-2
 1.628133817860163E7     9.773459817358494E-1   -3.671209987885445E-2    2.225916773559243E-2    6.358997153000223E-3    2.229011823365337E-2    6.164016194994459E-3    9.775566638601997E-1   -3.533405521273150E-2
 1.640556255260818E7     9.773595039900749E-1   -3.710523976207832E-2    2.222662593561614E-2    6.489647133650409E-3    2.227709930407119E-2    6.232122783227338E-3    9.775164475706458E-1   -3.568778559995767E-2
 1.653073474152580E7     9.773775680201032E-1   -3.748508358709832E-2    2.221240254954240E-2    6.609754927731685E-3    2.226434451896537E-2    6.353184221874480E-3    9.775513470804983E-1   -3.600951207086712E-2
 1.665686197705204E7     9.774073477621819E-1   -3.782037571045559E-2    2.219791627430327E-2    6.730083734238974E-3    2.224912389656939E-2    6.474917508224424E-3    9.775411041677817E-1   -3.636356870411905E-2
 1.678395154606132E7     9.774187458041963E-1   -3.814771208808579E-2    2.218112611261439E-2    6.851277820580782E-3    2.223660510485088E-2    6.594684107765729E-3    9.775459132920447E-1   -3.669408429856934E-2
 1.691201079102603E7     9.774241551434079E-1   -3.860518106996364E-2    2.214548186278473E-2    6.983307375231962E-3    2.224832548851266E-2    6.630599210376374E-3    9.775743260240362E-1   -3.705867694987652E-2
 1.704104711044038E7     9.774155072965918E-1   -3.897960944695220E-2    2.213100792265577E-2    7.106332051963877E-3    2.223576847367990E-2    6.754560278483097E-3    9.775798269448864E-1   -3.741539960441811E-2
 1.717106795924834E7     9.774552820792368E-1   -3.931663889628051E-2    2.211507560921138E-2    7.231634507719412E-3    2.222354842775751E-2    6.877296956850887E-3    9.776011089031491E-1   -3.774331072917952E-2
 1.730208084927390E7     9.775656956619775E-1   -3.980256135956721E-2    2.206290568340529E-2    7.358260449342511E-3    2.233894080818145E-2    6.833631370653638E-3    9.775686993143968E-1   -3.808979391734330E-2
 1.743409334965526E7     9.774420199728276E-1   -4.008458704378998E-2    2.208910692960508E-2    7.479166879206270E-3    2.220072342964689E-2    7.122580040715604E-3    9.775873978859910E-1   -3.845715880781198E-2
 1.756711308728221E7     9.774621621523681E-1   -4.046684245328098E-2    2.207522887650769E-2    7.605431646271848E-3    2.218671097572947E-2    7.248576914476237E-3    9.775656522050654E-1   -3.882463970570760E-2
 1.770114774723655E7     9.774639365743452E-1   -4.081992140501259E-2    2.206175876050280E-2    7.733361512073733E-3    2.217788579090810E-2    7.372814007879620E-3    9.776129402866873E-1   -3.918165918693554E-2
 1.783620507323623E7     9.774738400664903E-1   -4.094187771019416E-2    2.213115546970682E-2    7.805480698469583E-3    2.214909275222298E-2    7.738661274830328E-3    9.775847407513741E-1   -3.964127775624720E-2
 1.797229286808272E7     9.774519104587438E-1   -4.140727611382818E-2    2.210033771912371E-2    7.953212825314667E-3    2.212481370217873E-2    7.837005825538125E-3    9.776142074986400E-1   -3.996040180843428E-2
 1.810941899411174E7     9.774595828277829E-1   -4.171205958707409E-2    2.210680887076071E-2    8.062864612838085E-3    2.212741544823458E-2    7.994734675743045E-3    9.775891937520551E-1   -4.037519556261462E-2
 1.824759137364766E7     9.775010693466313E-1   -4.211606301046474E-2    2.209561633378489E-2    8.191467652294214E-3    2.211470148320014E-2    8.125987222191190E-3    9.775879912008107E-1   -4.076396970431745E-2
 1.838681798946100E7     9.775188466454499E-1   -4.245715779652597E-2    2.208402337707946E-2    8.322432268071892E-3    2.210267869840737E-2    8.256812485815071E-3    9.776254553677312E-1   -4.112566922875548E-2
 1.852710688522972E7     9.775075923279495E-1   -4.317043743196922E-2    2.197186930782451E-2    8.506785715451434E-3    2.216034697070504E-2    8.074297276317314E-3    9.776489066354541E-1   -4.140043480882721E-2
 1.866846616600409E7     9.774774874349709E-1   -4.350374113600133E-2    2.197874273002549E-2    8.635377036651910E-3    2.210816569705338E-2    8.276314537860296E-3    9.776086473465152E-1   -4.181058237015866E-2
 1.881090399867451E7     9.774882262158836E-1   -4.370665262940580E-2    2.204034699650231E-2    8.727766707670854E-3    2.206767468045917E-2    8.639361270664529E-3    9.776162573210335E-1   -4.225715813495165E-2
 1.895442861244394E7     9.774601156308836E-1   -4.409830345477864E-2    2.202885521271582E-2    8.862024208477213E-3    2.205665139549139E-2    8.772471971784143E-3    9.776161119933729E-1   -4.262644424486722E-2
 1.909904829930285E7     9.774673827718293E-1   -4.448858500456602E-2    2.202151822062256E-2    8.994364489649154E-3    2.204721749530112E-2    8.907473085573984E-3    9.776197514639290E-1   -4.303018588705457E-2
 1.924477141450845E7     9.774429651032717E-1   -4.492232587270609E-2    2.201174652134222E-2    9.128647207172186E-3    2.203677553825641E-2    9.042727826656270E-3    9.776325138052120E-1   -4.342657208037527E-2
 1.939160637706759E7     9.774559878552708E-1   -4.530112269403926E-2    2.200192998507308E-2    9.264711168318496E-3    2.202844342613288E-2    9.177321753435457E-3    9.776139780566089E-1   -4.383468392467668E-2
 1.953956167022271E7     9.774637304504071E-1   -4.571398507443434E-2    2.199246979163226E-2    9.402057863583176E-3    2.202020477667998E-2    9.314770081026472E-3    9.776310216565186E-1   -4.422207324264276E-2
 1.968864584194249E7     9.774634233458003E-1   -4.618139302256352E-2    2.197354877547602E-2    9.548474276177154E-3    2.200460036329179E-2    9.431236693850598E-3    9.775969298535312E-1   -4.462265371160326E-2
 1.983886750541528E7     9.774708904341515E-1   -4.683768058499344E-2    2.188042067497538E-2    9.716193714471907E-3    2.209375302415590E-2    9.279483462440650E-3    9.776060503859845E-1   -4.497199437830539E-2
 1.999023533954688E7     9.774779262694158E-1   -4.723533906275024E-2    2.187407874697458E-2    9.851565942145483E-3    2.208771555053429E-2    9.416323101977958E-3    9.776201225870782E-1   -4.538995322365415E-2
 2.014275808946211E7     9.774985261487020E-1   -4.764688081904558E-2    2.186478847604808E-2    9.991476660526690E-3    2.208146761285616E-2    9.554601555713169E-3    9.776255130449493E-1   -4.580116956800866E-2
 2.029644456700960E7     9.774992504778210E-1   -4.809572789409697E-2    2.185818406473184E-2    1.013164027026803E-2    2.207863752944761E-2    9.693508157957387E-3    9.776193206198762E-1   -4.619770604600427E-2
 2.045130365127147E7     9.775116411300917E-1   -4.850920509060085E-2    2.184916253372680E-2    1.027466030951176E-2    2.207368945990809E-2    9.834995463079903E-3    9.776248235786391E-1   -4.660124562442371E-2
 2.060734428907584E7     9.775052580913491E-1   -4.894919908896176E-2    2.184272773651333E-2    1.041354422767105E-2    2.206926937258710E-2    9.975802863619040E-3    9.776128517047060E-1   -4.699577986236452E-2
 2.076457549551392E7     9.774822766274726E-1   -4.940427692927706E-2    2.183524145298063E-2    1.055658263608069E-2    2.206499929406639E-2    1.011924816291762E-2    9.775822569617276E-1   -4.743948602272025E-2
 2.092300635446098E7     9.774512752592921E-1   -4.982075608417198E-2    2.182676170374390E-2    1.069950068997990E-2    2.206173125083762E-2    1.026024553460471E-2    9.775826211480767E-1   -4.790356985415987E-2
 2.108264601910070E7     9.774424528088024E-1   -5.027907738242414E-2    2.182023102962683E-2    1.084395050017399E-2    2.205757727039299E-2    1.040461646056381E-2    9.776012510125275E-1   -4.829034114353067E-2
 2.124350371245464E7     9.774263142817188E-1   -5.044124899557180E-2    2.192184917580563E-2    1.095103396900677E-2    2.194849881087658E-2    1.088299950144468E-2    9.775762919461801E-1   -4.884784303555657E-2
 2.140558872791451E7     9.774351783567422E-1   -5.086384389495079E-2    2.191621627431374E-2    1.109810007972521E-2    2.194263431973920E-2    1.103133209403224E-2    9.776017061726674E-1   -4.924128961998564E-2
 2.156891042977939E7     9.773973312588699E-1   -5.149418023831069E-2    2.184620454390303E-2    1.127918069887274E-2    2.194718943289128E-2    1.100876040323293E-2    9.775923986061016E-1   -4.960362504916399E-2
 2.173347825379676E7     9.773839349538092E-1   -5.194718987625743E-2    2.183908737422104E-2    1.142770804883931E-2    2.194517717112334E-2    1.115581483574669E-2    9.776004451783551E-1   -5.006171902312365E-2
 2.189930170770744E7     9.773334997916947E-1   -5.241001458995698E-2    2.183420470091661E-2    1.157574957697980E-2    2.194173978719521E-2    1.130288873138242E-2    9.775961949376462E-1   -5.049668630096049E-2
 2.206639037179505E7     9.773030126279443E-1   -5.286672284804688E-2    2.182990320421047E-2    1.172603658841802E-2    2.193992651318252E-2    1.145283112600995E-2    9.775632864799445E-1   -5.094935558604630E-2
 2.223475389943947E7     9.773784313216750E-1   -5.316782362907506E-2    2.189393604722823E-2    1.184501126215387E-2    2.192300944515703E-2    1.177364037911061E-2    9.775660384866965E-1   -5.145216047900036E-2
 2.240440201767448E7     9.774031054072010E-1   -5.364174483191962E-2    2.189133441188154E-2    1.199701571306416E-2    2.191878754486144E-2    1.192682736396915E-2    9.775512276089265E-1   -5.190567495620138E-2
 2.257534452774993E7     9.773653279569828E-1   -5.410387545194165E-2    2.188817283609094E-2    1.214958887276186E-2    2.191680646763901E-2    1.208045891185591E-2    9.775027710562961E-1   -5.236623841968765E-2
 2.274759130569773E7     9.773480397832833E-1   -5.459200292535636E-2    2.188699873552659E-2    1.230186295170823E-2    2.191464806530436E-2    1.223244290208960E-2    9.774942592811354E-1   -5.283312538290048E-2
 2.292115230290256E7     9.773369532620604E-1   -5.508393673089468E-2    2.188352065312581E-2    1.245716949297236E-2    2.191158081191128E-2    1.238814663763786E-2    9.774892314293893E-1   -5.329299602505629E-2
 2.309603754667697E7     9.773068651481535E-1   -5.555126690591108E-2    2.188310265158803E-2    1.261191200594591E-2    2.191242800518487E-2    1.254308282932650E-2    9.774563010258883E-1   -5.377891410182483E-2
 2.327225714084021E7     9.772998746737871E-1   -5.606020045017669E-2    2.188125984302805E-2    1.277090472010185E-2    2.190945210483146E-2    1.269918216745896E-2    9.774551832218714E-1   -5.422243836723066E-2
 2.344982126630262E7     9.772353303997217E-1   -5.667371127863029E-2    2.182641534078394E-2    1.295293200545660E-2    2.191079914576742E-2    1.273933175950977E-2    9.774831587516500E-1   -5.463371092290879E-2
 2.362874018165328E7     9.771852214506199E-1   -5.716868584774520E-2    2.182487841031693E-2    1.311125054075535E-2    2.190889009026557E-2    1.289632595778283E-2    9.774465305912828E-1   -5.513289622754560E-2
 2.380902422375290E7     9.772215829827919E-1   -5.774533950293011E-2    2.178258603354224E-2    1.327188551306793E-2    2.198231650497757E-2    1.290016038722897E-2    9.774401785976878E-1   -5.558607590976031E-2
 2.399068380833123E7     9.771859367676622E-1   -5.828865374508655E-2    2.178250396536078E-2    1.343182134222422E-2    2.198718095774856E-2    1.305757273684150E-2    9.774354991441235E-1   -5.606052636953558E-2
 2.417372943058824E7     9.771782994848367E-1   -5.865153662980877E-2    2.182474057794687E-2    1.359226014358043E-2    2.191203623135039E-2    1.337446479919819E-2    9.774296386008342E-1   -5.656691660359985E-2
 2.435817166580120E7     9.771336751612913E-1   -5.914840226524936E-2    2.182186396618170E-2    1.375178468510045E-2    2.191197406995105E-2    1.353555583366778E-2    9.774062849364704E-1   -5.702815005408340E-2
 2.454402116993507E7     9.771317793555779E-1   -5.977317918817216E-2    2.178297895534460E-2    1.391612026068581E-2    2.199477461934739E-2    1.354014478736353E-2    9.773897269894937E-1   -5.753754883302339E-2
 2.473128868025839E7     9.771010078424797E-1   -6.028120042417219E-2    2.178367304162170E-2    1.408072753542437E-2    2.199639203464273E-2    1.370270908705033E-2    9.773734970597704E-1   -5.802147359822055E-2
 2.491998501596375E7     9.770852987667670E-1   -6.079441190317383E-2    2.178276361126344E-2    1.424405483857830E-2    2.200050833525427E-2    1.386673595170037E-2    9.773644697209350E-1   -5.853228362408128E-2
 2.511012107879237E7     9.770965077502280E-1   -6.109627481352285E-2    2.187779091233120E-2    1.438768996945628E-2    2.191024086898501E-2    1.431371858945347E-2    9.772935631771280E-1   -5.910675587627030E-2
 2.530170785366461E7     9.770764899660531E-1   -6.160766732486065E-2    2.187821932353625E-2    1.455534135225671E-2    2.191110332309704E-2    1.448207166408900E-2    9.772905504893743E-1   -5.963201739408210E-2
 2.549475640931404E7     9.770538632913784E-1   -6.212342653935701E-2    2.187907492261603E-2    1.472520169335098E-2    2.191063623546567E-2    1.465103848416639E-2    9.772457524572108E-1   -6.012820876697670E-2
 2.568927789892715E7     9.770362163457696E-1   -6.269190250630802E-2    2.187825025776276E-2    1.489544817106857E-2    2.190948128915629E-2    1.482271179404415E-2    9.772159475781693E-1   -6.065384048779724E-2
 2.588528356078789E7     9.769802268688652E-1   -6.322225930902192E-2    2.185182931494194E-2    1.508323419457886E-2    2.190611197925338E-2    1.495400566887014E-2    9.772252644289353E-1   -6.117512125979693E-2
 2.608278471892660E7     9.769819374709235E-1   -6.375076902986203E-2    2.187780984911715E-2    1.525068996204655E-2    2.191125937936762E-2    1.517649816998637E-2    9.771448384631605E-1   -6.171318387457938E-2
 2.628179278377446E7     9.769512547376942E-1   -6.426530919529010E-2    2.188473121609287E-2    1.543256910256308E-2    2.191963808966083E-2    1.535886782546930E-2    9.771472379804415E-1   -6.222464647079519E-2
 2.648231925282269E7     9.768731918964165E-1   -6.493200312493390E-2    2.183987860272801E-2    1.563101163250103E-2    2.194486245955105E-2    1.540836776855532E-2    9.771677802263754E-1   -6.266384359457280E-2
 2.668437571128672E7     9.768447473327647E-1   -6.551726456991970E-2    2.185238586122940E-2    1.580676116065782E-2    2.195661215625374E-2    1.558390425269633E-2    9.771676037028653E-1   -6.320005343198545E-2
 2.688797383277575E7     9.768255276993912E-1   -6.605822191283109E-2    2.185983355815168E-2    1.598334969411609E-2    2.196639845016849E-2    1.575859634781719E-2    9.771209242747918E-1   -6.371549217445815E-2
 2.709312537996687E7     9.768166507581573E-1   -6.653055208265773E-2    2.189996860387080E-2    1.615205632496422E-2    2.195541653385386E-2    1.602043753138090E-2    9.771168162008042E-1   -6.430435499820800E-2
 2.729984220528475E7     9.767914093141957E-1   -6.708615930484299E-2    2.190832267569214E-2    1.633219275837738E-2    2.196796470303516E-2    1.620082218409188E-2    9.770657933452652E-1   -6.486328817844715E-2
 2.750813625158667E7     9.767825880144250E-1   -6.764569791481237E-2    2.191960687762527E-2    1.651270392981059E-2    2.197784486210501E-2    1.638217615764818E-2    9.770440530121353E-1   -6.540176814872833E-2
 2.771801955285188E7     9.767249253178304E-1   -6.845924330678575E-2    2.184606689068764E-2    1.668788392772197E-2    2.219396445278294E-2    1.623408383777735E-2    9.770293476335776E-1   -6.591268419840894E-2
 2.792950423487763E7     9.766814121114000E-1   -6.891814723560281E-2    2.189065252357085E-2    1.688038488169322E-2    2.205336869296679E-2    1.658914973460628E-2    9.770091202461122E-1   -6.646674292739044E-2
 2.814260251597910E7     9.766610168148542E-1   -6.951271857811120E-2    2.190159746207713E-2    1.706256292036690E-2    2.206444312303188E-2    1.676897355394930E-2    9.769740635065525E-1   -6.705317549002113E-2
 2.835732670769557E7     9.766244125527738E-1   -7.008873215703941E-2    2.191247521526425E-2    1.724623766073336E-2    2.207702725554908E-2    1.695311153703490E-2    9.769573047769429E-1   -6.761737687021376E-2
 2.857368921550186E7     9.766312501387734E-1   -7.053169383930497E-2    2.200070039897456E-2    1.741323129600084E-2    2.203535033524335E-2    1.733814018126326E-2    9.768918035931642E-1   -6.825077886938619E-2
 2.879170253952448E7     9.766109234537066E-1   -7.111236836493007E-2    2.201102602052466E-2    1.760215649714523E-2    2.204712058127304E-2    1.752234818393834E-2    9.768290174737256E-1   -6.881809965036706E-2
 2.901137927526460E7     9.765715862189996E-1   -7.172429497390374E-2    2.202349119825112E-2    1.778730720659592E-2    2.205906074738574E-2    1.771141072586787E-2    9.768273832242429E-1   -6.940994835861987E-2
 2.923273211432508E7     9.765396203002926E-1   -7.231939924739297E-2    2.203469222041536E-2    1.797570612884296E-2    2.207378561092538E-2    1.789837617956614E-2    9.767783390464284E-1   -6.998800347561508E-2
 2.945577384514398E7     9.764864257395393E-1   -7.293256670145606E-2    2.204739350665485E-2    1.816615903707136E-2    2.208605151060825E-2    1.808839379443345E-2    9.767270804070013E-1   -7.059516219799382E-2
 2.968051735373363E7     9.764635040947748E-1   -7.353984067698831E-2    2.206115324012349E-2    1.835811227004362E-2    2.209860968948370E-2    1.827819904669514E-2    9.766871929119930E-1   -7.118218377182978E-2
 2.990697562442441E7     9.763773204845339E-1   -7.428188482040757E-2    2.203304256080859E-2    1.856377969973289E-2    2.212221667529476E-2    1.838290579096760E-2    9.767098366378829E-1   -7.171850324931286E-2
 3.013516174061584E7     9.763495848710704E-1   -7.483202510115676E-2    2.206185400043865E-2    1.875392241802101E-2    2.212858217550424E-2    1.861637191377883E-2    9.766581598949559E-1   -7.231873430868216E-2
 3.036508888553168E7     9.762819816917617E-1   -7.546713920162695E-2    2.206092234583686E-2    1.895124353672516E-2    2.215290626744744E-2    1.877081624536420E-2    9.766255308075230E-1   -7.293237226804421E-2
 3.059677034298190E7     9.762499360058217E-1   -7.609610508926272E-2    2.207686369449946E-2    1.914749371089515E-2    2.216711608135016E-2    1.896553281085719E-2    9.765847304797222E-1   -7.353891027746985E-2
 3.083021949813037E7     9.762273060987819E-1   -7.703072823990971E-2    2.201967084437088E-2    1.931460947409352E-2    2.259770543985521E-2    1.878145893978617E-2    9.765336353236576E-1   -7.410310294376928E-2
 3.106544983826748E7     9.761841757593549E-1   -7.768187043305977E-2    2.203695953119181E-2    1.951383395442192E-2    2.262052959433488E-2    1.897822563010438E-2    9.765007056086393E-1   -7.470225397157634E-2
 3.130247495359022E7     9.761584615386376E-1   -7.797917517557768E-2    2.216863830723456E-2    1.973104405990805E-2    2.220727455960545E-2    1.965091110385426E-2    9.764210201524750E-1   -7.544347868983867E-2
 3.154130853798668E7     9.761090144693307E-1   -7.865563580083919E-2    2.218524434210140E-2    1.993245691335789E-2    2.222477486049379E-2    1.985324694382647E-2    9.763757782633501E-1   -7.606086797531808E-2
 3.178196438982744E7     9.760770582661346E-1   -7.929982668943886E-2    2.220536471287217E-2    2.013544944057472E-2    2.224498518217534E-2    2.005441740314431E-2    9.763353619431853E-1   -7.669640240640947E-2
 3.202445641276293E7     9.759914653396494E-1   -7.995868770432014E-2    2.219549672969377E-2    2.034843304193950E-2    2.226614442965283E-2    2.020510449990265E-2    9.763057228572992E-1   -7.732420816504544E-2
 3.226879861652631E7     9.759771008689764E-1   -8.058941944414277E-2    2.224096437097274E-2    2.054439891702733E-2    2.228265019502287E-2    2.046366614706039E-2    9.762310604740307E-1   -7.800943704679948E-2
 3.251500511774320E7     9.758216103156123E-1   -8.155341081017525E-2    2.215504395187598E-2    2.074085374685727E-2    2.257404822721576E-2    2.026829244457957E-2    9.762408101498288E-1   -7.852779604873374E-2
 3.276309014074709E7     9.757818698876428E-1   -8.223855138991150E-2    2.217489582284644E-2    2.094886764837274E-2    2.259656531607941E-2    2.047351439180850E-2    9.762000957074292E-1   -7.916939156533931E-2
 3.301306801840112E7     9.757209243939153E-1   -8.291714546886228E-2    2.219661581290094E-2    2.115394876274772E-2    2.262171315378000E-2    2.068084543089609E-2    9.761513002113372E-1   -7.983142141350706E-2
 3.326495319292643E7     9.756867027627467E-1   -8.358835781815650E-2    2.221785677908785E-2    2.136445245954446E-2    2.264635179529441E-2    2.088785935390971E-2    9.760979687121263E-1   -8.049959658004499E-2
 3.351876021673609E7     9.757329130392032E-1   -8.400922653627949E-2    2.234198435180904E-2    2.158740930661832E-2    2.238704227468148E-2    2.150173096668642E-2    9.759969943108500E-1   -8.125504739957734E-2
 3.377450375327612E7     9.756672624354664E-1   -8.467659163023267E-2    2.236347014107645E-2    2.179790618105676E-2    2.240641957107396E-2    2.171264244887407E-2    9.759438272785901E-1   -8.193867726599627E-2
 3.403219857787284E7     9.755726647614757E-1   -8.546002831913983E-2    2.233718142328713E-2    2.202133211782878E-2    2.244436379476853E-2    2.182841620567006E-2    9.759334865072750E-1   -8.256777358576577E-2
 3.429185957858586E7     9.755159672547723E-1   -8.617813251001499E-2    2.235866375374841E-2    2.223456649732937E-2    2.246443790341615E-2    2.204189028257374E-2    9.758697629680173E-1   -8.326053033269130E-2
 3.455350175706909E7     9.754355916511354E-1   -8.688337008474331E-2    2.237860320268421E-2    2.244749926761636E-2    2.248254944462579E-2    2.225726438718649E-2    9.758101570294911E-1   -8.390228719683714E-2
 3.481714022943672E7     9.753226436694150E-1   -8.783428817053432E-2    2.234233173697423E-2    2.264052498873730E-2    2.278803848212835E-2    2.216079827066179E-2    9.757528269743138E-1   -8.457684999743093E-2
 3.508279022713681E7     9.752410812771615E-1   -8.859761632088085E-2    2.235564232918882E-2    2.285966816860954E-2    2.280722393175104E-2    2.237701482736803E-2    9.756959149867929E-1   -8.525823469311795E-2
 3.535046709783159E7     9.751654575906682E-1   -8.926894197020410E-2    2.236815390224148E-2    2.308211822980075E-2    2.282377702458290E-2    2.259988367640478E-2    9.756255055740171E-1   -8.594885202771824E-2
 3.562018630628331E7     9.750630766994151E-1   -8.999981288482924E-2    2.237518708222046E-2    2.331252216074518E-2    2.283447101681139E-2    2.282864838984892E-2    9.755539561023036E-1   -8.665898874606380E-2
 3.589196343524875E7     9.749621876484499E-1   -9.071967666413164E-2    2.237951650926663E-2    2.356138589529031E-2    2.284514933390642E-2    2.307732937795485E-2    9.754791990288397E-1   -8.733403093908554E-2
 3.616581418637872E7     9.748776048816127E-1   -9.140666550917637E-2    2.240471138439685E-2    2.382907019775510E-2    2.287610792760328E-2    2.334284122466166E-2    9.754072469811390E-1   -8.800786569729990E-2
 3.644175438112541E7     9.748592063115655E-1   -9.213065602522683E-2    2.245785463872660E-2    2.408845349571072E-2    2.293281551928264E-2    2.360098114913722E-2    9.753571007931814E-1   -8.871208797261353E-2
 3.671979996165685E7     9.748457100014226E-1   -9.272823284135920E-2    2.253726814074690E-2    2.434704803182997E-2    2.276635691464853E-2    2.402342299524847E-2    9.753217146844928E-1   -8.945734014088405E-2
 3.699996699177712E7     9.747833749817352E-1   -9.348259406804697E-2    2.258751919034997E-2    2.457523690472568E-2    2.282045750812605E-2    2.425136740367022E-2    9.752672029655188E-1   -9.018944429133734E-2
 3.728227165785540E7     9.747314408012882E-1   -9.426130804687437E-2    2.263219953689204E-2    2.480642557812552E-2    2.286661993365940E-2    2.447872998253179E-2    9.752127137926171E-1   -9.091960030633110E-2
 3.756673026976037E7     9.746680626232422E-1   -9.502467539622635E-2    2.267086280299190E-2    2.503486923469615E-2    2.290823357104918E-2    2.470770655542788E-2    9.751486666777047E-1   -9.167184963383643E-2
 3.785335926180276E7     9.747110537484942E-1   -9.562738386540880E-2    2.278917052273705E-2    2.527201808608170E-2    2.283589439411891E-2    2.518185422836331E-2    9.750178266361919E-1   -9.251224035331115E-2
 3.814217519368506E7     9.746623365814375E-1   -9.642074947945546E-2    2.282591163402860E-2    2.550707388762512E-2    2.287672963255061E-2    2.541699927182624E-2    9.749676625096360E-1   -9.325822481675632E-2
 3.843319475145779E7     9.745699489528865E-1   -9.720881823904030E-2    2.286391266288037E-2    2.574482704434521E-2    2.291310028525334E-2    2.565449579619513E-2    9.748718542628946E-1   -9.402851213650271E-2
 3.872643474848381E7     9.744980875213498E-1   -9.799235615100610E-2    2.290368706398587E-2    2.598725457889930E-2    2.295502556853713E-2    2.589743441499698E-2    9.748152372256325E-1   -9.477823775959279E-2
 3.902191212640966E7     9.744346435319116E-1   -9.879831738100497E-2    2.294233876396566E-2    2.622824611407898E-2    2.299377203764113E-2    2.613657502157633E-2    9.747409391471814E-1   -9.554775728434063E-2
 3.931964395614420E7     9.743673755091214E-1   -9.960233238585542E-2    2.298421414553421E-2    2.647216221585825E-2    2.303516764617219E-2    2.637986599676720E-2    9.746725198135873E-1   -9.630191307673101E-2
 3.961964743884522E7     9.742351775947219E-1   -1.004299269719254E-1    2.299093027607811E-2    2.672152400339571E-2    2.308682302277975E-2    2.656253694206233E-2    9.746374971924772E-1   -9.705339668004909E-2
 3.992193990691278E7     9.741563781673391E-1   -1.012657144144419E-1    2.303069082895152E-2    2.696832189711865E-2    2.312782883028822E-2    2.680956592225550E-2    9.745477188312236E-1   -9.785276835105501E-2
 4.022653882499073E7     9.739905315136251E-1   -1.022204414975754E-1    2.302702296282401E-2    2.720643702062837E-2    2.328263231737619E-2    2.686882780680729E-2    9.745069371371982E-1   -9.859311317352605E-2
 4.053346179097611E7     9.739019814178086E-1   -1.030493968279237E-1    2.306798175352553E-2    2.745687865961605E-2    2.332993968622292E-2    2.711874535297320E-2    9.744388213932131E-1   -9.941706382972258E-2
 4.084272653703488E7     9.738052461272335E-1   -1.038599566269233E-1    2.310895050834157E-2    2.770785286947938E-2    2.337522748562158E-2    2.736726980280656E-2    9.743481759554177E-1   -1.002199347137450E-1
 4.115435093062763E7     9.736911232208068E-1   -1.048028604862775E-1    2.314156950122679E-2    2.795251488047539E-2    2.355057921327609E-2    2.750634950939453E-2    9.742691639069764E-1   -1.010003110136813E-1
 4.146835297554084E7     9.735897000763957E-1   -1.056788753826928E-1    2.318539784376070E-2    2.820598235638789E-2    2.359956414529340E-2    2.775908071212917E-2    9.741772810045130E-1   -1.018231512918295E-1
 4.178475081292742E7     9.735245822958150E-1   -1.067500463789999E-1    2.323400718289472E-2    2.845059461869038E-2    2.403184907660571E-2    2.787113978174235E-2    9.740931368521804E-1   -1.026298770278767E-1
 4.210356272235513E7     9.734305792142818E-1   -1.075864508347656E-1    2.327858651643313E-2    2.870948334579563E-2    2.408290441330759E-2    2.812911479045822E-2    9.740060831735186E-1   -1.034288294609849E-1
 4.242480712286174E7     9.733439853663117E-1   -1.084745050251655E-1    2.332756201856530E-2    2.897173794043219E-2    2.414110029967773E-2    2.839066939877720E-2    9.739095372877540E-1   -1.042808809990364E-1
 4.274850257402029E7     9.732507894561666E-1   -1.093553178999828E-1    2.337762645536812E-2    2.923508860663484E-2    2.419648462489704E-2    2.865256384573156E-2    9.738235410399554E-1   -1.051292981802497E-1
 4.307466777701053E7     9.733086122724665E-1   -1.097107536020550E-1    2.351250417652692E-2    2.954313355719900E-2    2.357714816238475E-2    2.944110647957853E-2    9.736626341442122E-1   -1.060831929974709E-1
 4.340332157569963E7     9.730536009867070E-1   -1.111214347297663E-1    2.347781275465108E-2    2.976914777900922E-2    2.430660688300459E-2    2.918297579512411E-2    9.736317884240763E-1   -1.067991668867406E-1
 4.373448295773120E7     9.729244165493360E-1   -1.120035434207036E-1    2.352637377680926E-2    3.003823483483269E-2    2.436641176476354E-2    2.944977475205500E-2    9.735372706101051E-1   -1.076608435219524E-1
 4.406817105562137E7     9.728154437182785E-1   -1.126755429138069E-1    2.357332248639802E-2    3.032520455258178E-2    2.402020121778051E-2    2.986192709165940E-2    9.734378465969807E-1   -1.085450076155808E-1
 4.440440514786536E7     9.727131397299086E-1   -1.135874324045349E-1    2.362664177136044E-2    3.059743555202392E-2    2.407503450674896E-2    3.013396019029006E-2    9.733366160915771E-1   -1.094250559515604E-1
 4.474320466005030E7     9.726109458622780E-1   -1.145032622461951E-1    2.367958161425536E-2    3.087153227790152E-2    2.413267812460416E-2    3.040781931103339E-2    9.732301599438734E-1   -1.102938481792707E-1
 4.508458916597787E7     9.725726396758839E-1   -1.152431523277870E-1    2.375730461171114E-2    3.116710585418327E-2    2.397794040693552E-2    3.088444928740665E-2    9.731211534542540E-1   -1.112116232138387E-1
 4.542857838879555E7     9.724638576819203E-1   -1.161569383406531E-1    2.381495172994942E-2    3.144872088191509E-2    2.403397482210127E-2    3.116362600000844E-2    9.730119249898402E-1   -1.120884567745851E-1
 4.577519220213508E7     9.723470355437919E-1   -1.171035893242573E-1    2.387211633833146E-2    3.172831843633585E-2    2.409455084751980E-2    3.144353533887532E-2    9.729037612133626E-1   -1.129774156786300E-1
 4.612445063126191E7     9.722486004848430E-1   -1.180454459363723E-1    2.392889838636649E-2    3.201365259118726E-2    2.415648102633669E-2    3.172610581223325E-2    9.727855151530651E-1   -1.139171458228185E-1
 4.647637385423118E7     9.721218590007334E-1   -1.189810919100360E-1    2.398654586311349E-2    3.229912868517614E-2    2.421377057706188E-2    3.201020682541179E-2    9.726789753744350E-1   -1.147977455041956E-1
 4.683098220305377E7     9.719803916094659E-1   -1.199305327162004E-1    2.404696616213666E-2    3.258521987942175E-2    2.427575064638490E-2    3.229488227659174E-2    9.725590129378952E-1   -1.157563696824718E-1
 4.718829616487134E7     9.718610709770762E-1   -1.208810408449357E-1    2.410667581441859E-2    3.287514503891596E-2    2.433920308937151E-2    3.258432806034881E-2    9.724439724209637E-1   -1.166941735376011E-1
 4.754833638313931E7     9.716535728029305E-1   -1.220369022156207E-1    2.414279296855674E-2    3.314868804438955E-2    2.463224152349390E-2    3.266725077759913E-2    9.723471826096242E-1   -1.175619333882004E-1
 4.791112365881994E7     9.715185364893352E-1   -1.230173993228841E-1    2.420349437885236E-2    3.344219858158046E-2    2.470101808269878E-2    3.295978912338976E-2    9.722114966284015E-1   -1.184938862445567E-1
 4.827667895158397E7     9.713822965062494E-1   -1.239740639749952E-1    2.426532603142088E-2    3.374009431326201E-2    2.476837108288927E-2    3.325509773865651E-2    9.720740610361859E-1   -1.194443030670161E-1
 4.864502338102144E7     9.712520330860287E-1   -1.249567146555030E-1    2.432817542047070E-2    3.404171897051533E-2    2.483711327548902E-2    3.355301196223445E-2    9.719484522834676E-1   -1.203800603755649E-1
 4.901617822786229E7     9.711031779387695E-1   -1.259418412882596E-1    2.439536847501369E-2    3.434846930348960E-2    2.490786897971539E-2    3.385437188675450E-2    9.718316351463977E-1   -1.213132488654582E-1
 4.939016493520518E7     9.709779417216514E-1   -1.269496464582096E-1    2.446510357232091E-2    3.465266469263900E-2    2.498397937954825E-2    3.415855996896437E-2    9.716973747806783E-1   -1.222971327910803E-1
 4.976700510975666E7     9.708390656342567E-1   -1.279737123353962E-1    2.453670563776390E-2    3.496205423827134E-2    2.505672970249414E-2    3.446171633297348E-2    9.715498321564892E-1   -1.232722064366513E-1
 5.014672052307993E7     9.707162890634508E-1   -1.289824765190010E-1    2.460731969937660E-2    3.527205241626813E-2    2.513382795658238E-2    3.477439676335128E-2    9.714191248307803E-1   -1.242368190580659E-1
 5.052933311285146E7     9.705714688928733E-1   -1.299874263804626E-1    2.468146595632555E-2    3.558333098188979E-2    2.521471452861251E-2    3.508192581651989E-2    9.712995580874489E-1   -1.252258079821853E-1
 5.091486498412994E7     9.704137001910029E-1   -1.309993982489522E-1    2.475651744785328E-2    3.589924378917869E-2    2.529930508399865E-2    3.539574503176245E-2    9.711470216489855E-1   -1.262208326840236E-1
 5.130333841063219E7     9.702541254697099E-1   -1.320287455557393E-1    2.483514001336845E-2    3.621623878728594E-2    2.538569091800908E-2    3.570875265829983E-2    9.710004405371109E-1   -1.272567897682678E-1
 5.169477583602042E7     9.701214990913370E-1   -1.330920916800334E-1    2.491562621675113E-2    3.653191858378778E-2    2.547552706666839E-2    3.602392708723117E-2    9.708684354476123E-1   -1.282441233226112E-1
 5.208919987519933E7     9.699968277034292E-1   -1.341343359012743E-1    2.499689904671258E-2    3.685319831747492E-2    2.556343229234914E-2    3.633968186930360E-2    9.707220320114957E-1   -1.292566148361016E-1
 5.248663331562151E7     9.698250303769982E-1   -1.352065011779171E-1    2.507936208385410E-2    3.717259268564643E-2    2.565040236127968E-2    3.665810993872620E-2    9.705685220224651E-1   -1.302673209870729E-1
 5.288709911860541E7     9.696881406440045E-1   -1.362803600879530E-1    2.516546287216406E-2    3.749568088895096E-2    2.573735470587511E-2    3.697775725106415E-2    9.704192295886017E-1   -1.312835726553153E-1
 5.329062042066076E7     9.695093814884842E-1   -1.373048393055592E-1    2.524848583722752E-2    3.781677075745952E-2    2.582990117504352E-2    3.729932714759566E-2    9.702718887610778E-1   -1.323061021397079E-1
 5.369722053482568E7     9.693464917746653E-1   -1.384291971002151E-1    2.533584782733204E-2    3.814515944666803E-2    2.592655804585075E-2    3.762389674033947E-2    9.701071419292692E-1   -1.333965462344184E-1
 5.410692295201402E7     9.691842556136774E-1   -1.395082568439274E-1    2.542184878800937E-2    3.847387760529902E-2    2.601760472070184E-2    3.794771766747076E-2    9.699533567067260E-1   -1.344402186959998E-1
 5.451975134237129E7     9.690261545718446E-1   -1.406210440458658E-1    2.550875883004571E-2    3.880647379638598E-2    2.611000016526928E-2    3.827782786682801E-2    9.697750175670378E-1   -1.355098383155678E-1
 5.493572955664375E7     9.688330646128105E-1   -1.417289290413800E-1    2.559901695269697E-2    3.913756433732235E-2    2.621025538563430E-2    3.860878769218092E-2    9.696157466008418E-1   -1.365944182769393E-1
 5.535488162755510E7     9.686829882685460E-1   -1.428479273258336E-1    2.569050139185795E-2    3.947517880727366E-2    2.630662227699193E-2    3.894109961314454E-2    9.694645452964609E-1   -1.376505722579163E-1
 5.577723177119546E7     9.684973358983542E-1   -1.439736093550692E-1    2.578058881571209E-2    3.981355398130591E-2    2.640783408488157E-2    3.927775573812159E-2    9.692659039680934E-1   -1.387174544309359E-1
 5.620280438842070E7     9.683000043060070E-1   -1.450940242197599E-1    2.587478049499799E-2    4.015641523300290E-2    2.650891488054945E-2    3.961650986148571E-2    9.690884113527840E-1   -1.398174155466349E-1
 5.663162406626155E7     9.681224246731076E-1   -1.462494463943503E-1    2.596935757234772E-2    4.050246481822989E-2    2.661168828953558E-2    3.995860042742432E-2    9.689206992511182E-1   -1.409509260551279E-1
 5.706371557934452E7     9.679316046248991E-1   -1.473809225316045E-1    2.606845279675796E-2    4.084859434125707E-2    2.671836271317098E-2    4.030259123926030E-2    9.687470040300329E-1   -1.420608745062927E-1
 5.749910389132310E7     9.677325774722272E-1   -1.485415576448018E-1    2.616657429921716E-2    4.119639346127851E-2    2.682352869813839E-2    4.065011431045872E-2    9.685637291724974E-1   -1.431899952853455E-1
 5.793781415631992E7     9.675605160734346E-1   -1.497170428731263E-1    2.626539793354787E-2    4.155083435344225E-2    2.693333575167870E-2    4.099478940330094E-2    9.683676216827414E-1   -1.442928201582200E-1
 5.837987172038046E7     9.675671430040512E-1   -1.504391328845153E-1    2.649599714837318E-2    4.192119165585876E-2    2.661594770382635E-2    4.181057952088087E-2    9.681138975412232E-1   -1.455406402047494E-1
 5.882530212293670E7     9.673539985939730E-1   -1.516249072086479E-1    2.660234844521272E-2    4.227572660062141E-2    2.672403924733942E-2    4.216974215473911E-2    9.678985895966016E-1   -1.466833522227318E-1
 5.927413109828297E7     9.671360470966450E-1   -1.528071039844436E-1    2.670898467306725E-2    4.263685773665676E-2    2.683515438324918E-2    4.252832569011404E-2    9.676961841709357E-1   -1.478236441863668E-1
 5.972638457706322E7     9.669324773219488E-1   -1.539861788142391E-1    2.681997706461940E-2    4.299726596184503E-2    2.694621890443571E-2    4.289081857378903E-2    9.675068292223673E-1   -1.489611697654218E-1
 6.018208868776779E7     9.667324330018192E-1   -1.551899510114575E-1    2.693122019124297E-2    4.336238056173553E-2    2.706008061280795E-2    4.325887993640039E-2    9.673062366348201E-1   -1.501186197905870E-1
 6.064126975824468E7     9.665157301038867E-1   -1.564072614061993E-1    2.704674940860247E-2    4.373056048941327E-2    2.717853440509501E-2    4.362543115570270E-2    9.670961348171876E-1   -1.513323097644393E-1
 6.110395431721926E7     9.663042932347979E-1   -1.576413189379023E-1    2.716437702274166E-2    4.410107110041400E-2    2.729824988143079E-2    4.399603127926139E-2    9.668800518121703E-1   -1.525003900802484E-1
 6.157016909582742E7     9.660591957522976E-1   -1.588537299043483E-1    2.728121655764823E-2    4.447186524162178E-2    2.741813626348694E-2    4.436839658088428E-2    9.666737007954497E-1   -1.537083961461016E-1
 6.203994102916045E7     9.658314116800493E-1   -1.600866393108367E-1    2.740354440226827E-2    4.484574774954157E-2    2.754086304397845E-2    4.474425477163160E-2    9.664360847216700E-1   -1.548941186828861E-1
 6.251329725781982E7     9.655972172796502E-1   -1.613445763943129E-1    2.752349435463347E-2    4.522397901297661E-2    2.766517683246595E-2    4.511976893631062E-2    9.661985545698591E-1   -1.561132674305885E-1
 6.299026512948693E7     9.653406398612921E-1   -1.626125043230536E-1    2.764689682254450E-2    4.560018802504158E-2    2.779175777975841E-2    4.549854864565482E-2    9.659857868410421E-1   -1.573210097127367E-1
 6.347087220050172E7     9.651018867803389E-1   -1.638496961829585E-1    2.777380440931072E-2    4.597881534432930E-2    2.791922035564235E-2    4.587973264600115E-2    9.657553480748957E-1   -1.585496524058036E-1
 6.395514623745525E7     9.648720287510241E-1   -1.651324106457191E-1    2.789904627534711E-2    4.636680966792348E-2    2.805025519879072E-2    4.626567379681712E-2    9.655231417993462E-1   -1.598074840095539E-1
 6.444311521879433E7     9.646363622248996E-1   -1.664212906717769E-1    2.802610339833599E-2    4.675586496398224E-2    2.818019355718043E-2    4.665435135542979E-2    9.653001783507091E-1   -1.610713393504258E-1
 6.493480733643661E7     9.643636820781658E-1   -1.677310385599873E-1    2.815763190430194E-2    4.714326203317664E-2    2.831280548173098E-2    4.704303687943796E-2    9.650334074782897E-1   -1.623373484627629E-1
 6.543025099740107E7     9.641141342864524E-1   -1.690362015017979E-1    2.829060559125668E-2    4.753598110847494E-2    2.844671828696401E-2    4.743646424157485E-2    9.647923106785158E-1   -1.636163626546325E-1
 6.592947482544785E7     9.637628381441308E-1   -1.712365516115215E-1    2.817056165658757E-2    4.795019509831378E-2    2.963076177879374E-2    4.720140556135839E-2    9.646109053832900E-1   -1.647579971622950E-1
 6.643250766273243E7     9.635149709296554E-1   -1.725747912991381E-1    2.830321075403358E-2    4.835526781659227E-2    2.979636733334457E-2    4.759668423611751E-2    9.643512262126075E-1   -1.660362967355073E-1
 6.693937857147253E7     9.632554292776270E-1   -1.738992162663870E-1    2.843499514973152E-2    4.875904086754133E-2    2.994782531493845E-2    4.799560040569438E-2    9.640981473454376E-1   -1.673161765785576E-1
 6.745011683562562E7     9.629801331483859E-1   -1.752743397748269E-1    2.856127235370055E-2    4.917258592613784E-2    3.009965036779179E-2    4.840216068654361E-2    9.638282559171918E-1   -1.686199311803034E-1
 6.796475196258274E7     9.627067225709854E-1   -1.766079628042332E-1    2.869373174020707E-2    4.959587881122734E-2    3.025180372112734E-2    4.882418338589953E-2    9.635644127611868E-1   -1.699391946877935E-1
 6.848331368487169E7     9.624171031733254E-1   -1.779222933028149E-1    2.883504141305039E-2    5.002867624969166E-2    3.041148123339345E-2    4.925543976148376E-2    9.632919428396624E-1   -1.712593096071604E-1
 6.900583196187538E7     9.619858721808702E-1   -1.788441690227140E-1    2.905712807799790E-2    5.045303616756126E-2    2.994636943949587E-2    4.981035586706181E-2    9.630326725718440E-1   -1.725889576840524E-1
 6.953233698156311E7     9.616896916251713E-1   -1.802170277260969E-1    2.921071482601221E-2    5.088149801800492E-2    3.011845424022155E-2    5.022648707366095E-2    9.627146523262123E-1   -1.739757946777491E-1
 7.006285916223384E7     9.613876785440706E-1   -1.816438265996105E-1    2.936065053050316E-2    5.131005413028658E-2    3.030007616706153E-2    5.063959215725617E-2    9.624259335731442E-1   -1.753352311921653E-1
 7.059742915427396E7     9.610696337169837E-1   -1.831248796199657E-1    2.952202864204804E-2    5.173776916847277E-2    3.047069472475512E-2    5.106700705483695E-2    9.621380717469356E-1   -1.766757242781438E-1
 7.113607784192866E7     9.607841849191956E-1   -1.845097334941950E-1    2.968974489434227E-2    5.216416718547189E-2    3.064505579433392E-2    5.149123398868977E-2    9.618505494954591E-1   -1.780660144204818E-1
 7.167883634508467E7     9.604839814396466E-1   -1.859177066001808E-1    2.985629086962847E-2    5.259704971131569E-2    3.082231449324922E-2    5.192256413018138E-2    9.615479338860258E-1   -1.794437644203915E-1
 7.222573602107021E7     9.601839323693182E-1   -1.873817646590173E-1    3.002294970097759E-2    5.303088163918600E-2    3.099725874827110E-2    5.235610923392840E-2    9.612521828481297E-1   -1.808190811392826E-1
 7.277680846646504E7     9.598335973670270E-1   -1.888001462336961E-1    3.018020657256159E-2    5.347115285615268E-2    3.116712841847228E-2    5.279370806948597E-2    9.609376589480921E-1   -1.822371830874179E-1
 7.333208551892644E7     9.595095742834054E-1   -1.902299986645371E-1    3.033870057081100E-2    5.392448265747599E-2    3.134443236863456E-2    5.323591840370119E-2    9.605794303499795E-1   -1.837372397809909E-1
 7.389159925902925E7     9.591704506907553E-1   -1.917373861471245E-1    3.050586424776850E-2    5.438193998937004E-2    3.153857237201518E-2    5.368305606853703E-2    9.602554306561281E-1   -1.851856060620178E-1
 7.445538201211768E7     9.588211175195158E-1   -1.932604062933056E-1    3.068943427312000E-2    5.483995298718247E-2    3.173785163612438E-2    5.413337704016717E-2    9.599306606256411E-1   -1.865883278624640E-1
 7.502346635017487E7     9.585002061192781E-1   -1.947519324913469E-1    3.088270819222521E-2    5.528917961881426E-2    3.193182640542094E-2    5.458734682320523E-2    9.596068706547963E-1   -1.880262019558297E-1
 7.559588509370317E7     9.581530318749381E-1   -1.962394968336869E-1    3.106579687468885E-2    5.574536402049161E-2    3.212642991786315E-2    5.504167178185014E-2    9.592713373630029E-1   -1.894877425467064E-1
 7.617267131362079E7     9.578186281318670E-1   -1.977571988057949E-1    3.125217135606721E-2    5.620516094207587E-2    3.231636604959026E-2    5.549948984017183E-2    9.589383992219004E-1   -1.909627600812950E-1
 7.675385833317320E7     9.574328487948598E-1   -1.992470158279087E-1    3.142988088887001E-2    5.667203466128459E-2    3.250933040478363E-2    5.596363255185061E-2    9.585513070655193E-1   -1.924453315606648E-1
 7.733947972985649E7     9.570756350476147E-1   -2.007899389416573E-1    3.160890150380440E-2    5.715030058208333E-2    3.271907359240955E-2    5.642851546409561E-2    9.581620876832242E-1   -1.939876526364762E-1
 7.792956933735959E7     9.566702769335085E-1   -2.023554809579643E-1    3.179497014827807E-2    5.763024975743517E-2    3.293587320258615E-2    5.689807033326824E-2    9.578017315971900E-1   -1.955068932184477E-1
 7.852416124751715E7     9.562862344425873E-1   -2.039522327572920E-1    3.199548337225991E-2    5.811345127812969E-2    3.314761222973586E-2    5.737730966244927E-2    9.574369278113638E-1   -1.969914295485616E-1
 7.912328981227988E7     9.559009332947199E-1   -2.054572568729501E-1    3.219748183837424E-2    5.860126631599865E-2    3.335866298576286E-2    5.786354516367873E-2    9.570671688228546E-1   -1.985151369443921E-1
 7.972698964569975E7     9.555262483956160E-1   -2.070435975490011E-1    3.240485245056536E-2    5.909494380721122E-2    3.357231755958529E-2    5.835279366630812E-2    9.566770796294999E-1   -2.000498666984217E-1
 8.033529562592810E7     9.551524971904254E-1   -2.086321940978607E-1    3.261352314238866E-2    5.959469088174312E-2    3.380257209133465E-2    5.885093560052898E-2    9.562942674883029E-1   -2.015894138622270E-1
 8.094824289723292E7     9.547564934047749E-1   -2.102442771647773E-1    3.283724529971808E-2    6.009777062082794E-2    3.403838896063326E-2    5.934970331151024E-2    9.558939266582561E-1   -2.031346933915176E-1
 8.156586687202743E7     9.543471808755112E-1   -2.118477927562516E-1    3.306374870329383E-2    6.060046744421510E-2    3.427979572293503E-2    5.984951266951346E-2    9.555091515548426E-1   -2.047066197428225E-1
 8.218820323291673E7     9.539192943265573E-1   -2.134840850070366E-1    3.329649794094343E-2    6.110434049217785E-2    3.452423899677256E-2    6.035118844562058E-2    9.551244008284908E-1   -2.063025203260975E-1
 8.281528793475981E7     9.534852316901103E-1   -2.150897603721273E-1    3.353046668312808E-2    6.161083993788918E-2    3.476914470159583E-2    6.085553847013715E-2    9.547330282619052E-1   -2.079006997965528E-1
 8.344715720674579E7     9.530816567088446E-1   -2.167600043447997E-1    3.376836767340232E-2    6.212054337692292E-2    3.502451407374202E-2    6.136121452898440E-2    9.542913768709097E-1   -2.095193119918846E-1
 8.408384755448765E7     9.526472722768399E-1   -2.184146969589620E-1    3.400732859648344E-2    6.263440322532382E-2    3.527538749322720E-2    6.186908095084952E-2    9.539207617820736E-1   -2.111783683311698E-1
 8.472539576213124E7     9.522105631166393E-1   -2.201000059182728E-1    3.424467929020149E-2    6.315119655585881E-2    3.552652154952556E-2    6.238153341275522E-2    9.534885540973459E-1   -2.128178664515957E-1
 8.537183889448020E7     9.517431249295256E-1   -2.217689483992101E-1    3.448247677142357E-2    6.368067686058368E-2    3.577858155255303E-2    6.290864559333098E-2    9.530539886762392E-1   -2.144643989942803E-1
 8.602321429913802E7     9.512917086388900E-1   -2.234609397535942E-1    3.473714476513859E-2    6.421974771615997E-2    3.605121889204665E-2    6.344362726521449E-2    9.526118777882689E-1   -2.161190008978032E-1
 8.667955960866481E7     9.508273137499795E-1   -2.251623889627083E-1    3.499996757303683E-2    6.475246396628465E-2    3.632643142666665E-2    6.397086006004227E-2    9.521942538841780E-1   -2.178091560409043E-1
 8.734091274275188E7     9.503499032667946E-1   -2.268904013893609E-1    3.525522450295632E-2    6.528805820857840E-2    3.659303348317622E-2    6.450521018940057E-2    9.517215759595541E-1   -2.194941763835671E-1
 8.800731191041334E7     9.498677935935212E-1   -2.286099966213369E-1    3.551416599953740E-2    6.584366374940819E-2    3.686663524206757E-2    6.505390926812293E-2    9.512490738622513E-1   -2.211765681371127E-1
 8.867879561219153E7     9.493829317047036E-1   -2.303232261046258E-1    3.578789268167372E-2    6.640730229632530E-2    3.715511318891966E-2    6.561414256660845E-2    9.508056915344393E-1   -2.228808695217808E-1
 8.935540264238395E7     9.489221963357419E-1   -2.320860552241960E-1    3.608629492399396E-2    6.697619531971126E-2    3.746214435418169E-2    6.617574064543086E-2    9.503459685112102E-1   -2.245845348345149E-1
 9.003717209128250E7     9.484291944262608E-1   -2.338274827969639E-1    3.637305408022429E-2    6.751974587246780E-2    3.775129531059752E-2    6.671699497277726E-2    9.498731097074519E-1   -2.263012624261559E-1
 9.072414334743266E7     9.479481986405368E-1   -2.356203770851453E-1    3.667959410056846E-2    6.807637915627784E-2    3.807139562672474E-2    6.727049724481790E-2    9.494097841001513E-1   -2.280670580465726E-1
 9.141635609990983E7     9.474531089888591E-1   -2.374578452758999E-1    3.698381409238417E-2    6.863620767096124E-2    3.838892115780455E-2    6.782803422057508E-2    9.489262043294479E-1   -2.298430551329383E-1
 9.211385034061028E7     9.469089100501042E-1   -2.392607019862558E-1    3.729580854077567E-2    6.920648878601014E-2    3.871477907062171E-2    6.839605553219820E-2    9.484450751251646E-1   -2.316316620177108E-1
 9.281666636656430E7     9.463813086543202E-1   -2.410736186150400E-1    3.762194005720988E-2    6.977826231578660E-2    3.905570696662677E-2    6.896292790344566E-2    9.479687043367281E-1   -2.334465948393609E-1
 9.352484478226222E7     9.458607243716974E-1   -2.429423874470047E-1    3.795544429866542E-2    7.034100556132863E-2    3.939381298656694E-2    6.952089762859162E-2    9.474537621770979E-1   -2.352539405340167E-1
 9.423842650200106E7     9.452975428238046E-1   -2.448230816470806E-1    3.828518275033246E-2    7.090350633102352E-2    3.973578304452762E-2    7.007802631717226E-2    9.469151929611603E-1   -2.370817462362227E-1
 9.495745275224906E7     9.447229535012045E-1   -2.466790033401665E-1    3.861563628687633E-2    7.146651191537454E-2    4.008164410033043E-2    7.064103025005801E-2    9.463847367992078E-1   -2.389515373182474E-1
 9.568196507402541E7     9.441419092675348E-1   -2.485917909667571E-1    3.895271835674778E-2    7.204237137023727E-2    4.042607010441843E-2    7.120849296690050E-2    9.458200143509430E-1   -2.407929177054280E-1
 9.641200532530291E7     9.435514578893561E-1   -2.505153675655349E-1    3.929277280870362E-2    7.262332084945960E-2    4.077519180862425E-2    7.177931801724600E-2    9.452667015063564E-1   -2.426764825959281E-1
 9.714761568342420E7     9.429558950270140E-1   -2.524418001622155E-1    3.963253381533147E-2    7.320834745734510E-2    4.112003097230853E-2    7.235994480185068E-2    9.446513863031101E-1   -2.445446074320605E-1
 9.788883864753923E7     9.423040375423417E-1   -2.543742498666047E-1    3.998379480055922E-2    7.380251950366150E-2    4.148125477416984E-2    7.295008768143618E-2    9.440551282884213E-1   -2.464322641417913E-1
 9.863571704106140E7     9.416706151445204E-1   -2.563379873526786E-1    4.033904508969744E-2    7.439911591652017E-2    4.184441331953562E-2    7.353983176189938E-2    9.434412331323341E-1   -2.483293321986494E-1
 9.938829401413949E7     9.410149898731651E-1   -2.582963509631241E-1    4.069772519262500E-2    7.500346556325581E-2    4.220840398977831E-2    7.414043667431712E-2    9.428254952647918E-1   -2.502507242071589E-1
 1.001466130461536E8     9.403457024928860E-1   -2.602945899464343E-1    4.106614838752137E-2    7.562298879289804E-2    4.258339352683422E-2    7.475509184100265E-2    9.421821572033963E-1   -2.521632826952775E-1
 1.009107179482240E8     9.396560256339128E-1   -2.622759313445898E-1    4.144360015424407E-2    7.624632227263178E-2    4.297267841468220E-2    7.537865664091964E-2    9.415687054832476E-1   -2.541010709777273E-1
 1.016806528657447E8     9.389158382037437E-1   -2.642796765085045E-1    4.183831211312601E-2    7.687926452781263E-2    4.337577881117450E-2    7.600143181351307E-2    9.409351221725885E-1   -2.560424686409393E-1
 1.024564622809335E8     9.381975227205471E-1   -2.663235764833494E-1    4.224601605847682E-2    7.751602986012758E-2    4.379025040141193E-2    7.663161504438919E-2    9.402982457072656E-1   -2.580131904412271E-1
 1.032381910153997E8     9.374735308947154E-1   -2.683664366039438E-1    4.267247585409253E-2    7.815438769734562E-2    4.422369548973322E-2    7.726174578382039E-2    9.396322054192273E-1   -2.599943948293965E-1
 1.040258842327368E8     9.367180609820375E-1   -2.704228390323204E-1    4.311728274589421E-2    7.878143174798068E-2    4.467151352017907E-2    7.788015530300313E-2    9.389512144576139E-1   -2.619786422153075E-1
 1.048195874411304E8     9.359190787298665E-1   -2.724886191485236E-1    4.355941861935553E-2    7.939784359375834E-2    4.511784085913674E-2    7.849286578852759E-2    9.382546556264620E-1   -2.639739897976358E-1
 1.056193464959857E8     9.350975096792101E-1   -2.745535105279916E-1    4.399945822777734E-2    8.001348262517743E-2    4.556377973463494E-2    7.910496966674710E-2    9.375738554150096E-1   -2.659903419664843E-1
 1.064252076025801E8     9.343023336835125E-1   -2.766200054519159E-1    4.443305069087824E-2    8.063451989258674E-2    4.600487971708196E-2    7.971518322055351E-2    9.368820751725764E-1   -2.680315281461790E-1
 1.072372173187304E8     9.334737901818958E-1   -2.786908934145059E-1    4.486958593078938E-2    8.127652242600013E-2    4.644207296926390E-2    8.035550846116010E-2    9.361706161119995E-1   -2.700948513500833E-1
 1.080554225574824E8     9.326268153479931E-1   -2.808173378707568E-1    4.532928389971709E-2    8.192342832959880E-2    4.690335825695595E-2    8.099727563026247E-2    9.354568347254304E-1   -2.721623842396601E-1
 1.088798705898232E8     9.317667159769981E-1   -2.829136907267528E-1    4.579586593917329E-2    8.257984873779556E-2    4.737425962368619E-2    8.164284142846692E-2    9.347037288354050E-1   -2.742623952092644E-1
 1.097106090474096E8     9.308730446865742E-1   -2.850127656174579E-1    4.628871965830351E-2    8.323978037149471E-2    4.786434025543289E-2    8.229663532890566E-2    9.339453302082467E-1   -2.763936390141347E-1
 1.105476859253232E8     9.299915880720843E-1   -2.870995913783729E-1    4.680053546572571E-2    8.388210077475368E-2    4.837672881878373E-2    8.293084944136071E-2    9.331591784144818E-1   -2.785253084560959E-1
 1.113911495848395E8     9.291615079663770E-1   -2.892289935514791E-1    4.730127412518800E-2    8.451027224336426E-2    4.888027120980337E-2    8.355058171832032E-2    9.323764392275076E-1   -2.806831851713024E-1
 1.122410487562254E8     9.283349488040453E-1   -2.914107956001659E-1    4.779121058169764E-2    8.515017616646275E-2    4.936936938910138E-2    8.417672892251013E-2    9.315707903091944E-1   -2.828506724587121E-1
 1.130974325415529E8     9.274853073069698E-1   -2.936100976810282E-1    4.828227948949670E-2    8.580818269625110E-2    4.985708770516962E-2    8.482772980439003E-2    9.307655404842853E-1   -2.850362644324499E-1
 1.139603504175348E8     9.266202337778767E-1   -2.958470502979113E-1    4.879172017289949E-2    8.647577088945896E-2    5.036565950278633E-2    8.549028318615176E-2    9.299445954919581E-1   -2.872209057832546E-1
 1.148298522383858E8     9.257169819504574E-1   -2.981173191675666E-1    4.930975218646326E-2    8.714470517356578E-2    5.088212409250428E-2    8.615526119955681E-2    9.290960404711758E-1   -2.894559173582932E-1
 1.157059882387014E8     9.248236215643643E-1   -3.003881101903833E-1    4.983347435132225E-2    8.782307217871135E-2    5.140679971610434E-2    8.682642056698982E-2    9.282224385312037E-1   -2.916864641670807E-1
 1.165888090363587E8     9.238767530592361E-1   -3.027261851932622E-1    5.037469370625176E-2    8.850208953339402E-2    5.194283175133354E-2    8.750206115036697E-2    9.273455881360703E-1   -2.939517268490774E-1
 1.174783656354443E8     9.228745234550892E-1   -3.050543062002228E-1    5.092344214138888E-2    8.917907474446733E-2    5.249173851111626E-2    8.816856808559990E-2    9.264220236086210E-1   -2.962191546264707E-1
 1.183747094291968E8     9.218757031140390E-1   -3.073489732129301E-1    5.147599668288783E-2    8.984840389463446E-2    5.303690284575100E-2    8.883535530061114E-2    9.255254329425006E-1   -2.985112975467311E-1
 1.192778922029803E8     9.209487353779117E-1   -3.096834557239503E-1    5.201313285084933E-2    9.054313807766315E-2    5.357258866226208E-2    8.952049261767489E-2    9.246106170532855E-1   -3.008277238657660E-1
 1.201879661372721E8     9.199846601411227E-1   -3.120949707639080E-1    5.258166058415829E-2    9.126250697478951E-2    5.413439115858337E-2    9.023875115911000E-2    9.236636144525689E-1   -3.031684967890932E-1
 1.211049838106809E8     9.189673901499731E-1   -3.145164315578065E-1    5.318491541310999E-2    9.196650610452219E-2    5.474111549457661E-2    9.093629009448306E-2    9.226728944241410E-1   -3.055042480909697E-1
 1.220289982029829E8     9.179886949265975E-1   -3.169195931861341E-1    5.377179833178806E-2    9.264451701286758E-2    5.532604211077548E-2    9.160302692831429E-2    9.217053805212879E-1   -3.078348970615997E-1
 1.229600626981811E8     9.169898920665812E-1   -3.193955219656335E-1    5.433242206916910E-2    9.334625309906724E-2    5.589397028612135E-2    9.230099108513805E-2    9.207351754818848E-1   -3.102103322863259E-1
 1.238982310875929E8     9.159906649890485E-1   -3.219255998203276E-1    5.490658338798254E-2    9.408751823694962E-2    5.646794279286603E-2    9.303342012741533E-2    9.197543199175099E-1   -3.126155920037653E-1
 1.248435575729559E8     9.149101166388429E-1   -3.245044448668908E-1    5.552356141996596E-2    9.484972806884770E-2    5.708078462896700E-2    9.378877813441766E-2    9.186985290019289E-1   -3.150559577861601E-1
 1.257960967695579E8     9.137768669046666E-1   -3.270745701067755E-1    5.616714909475830E-2    9.557428723069908E-2    5.771493760944058E-2    9.450767623009315E-2    9.176268547816412E-1   -3.174598998538352E-1
 1.267559037093956E8     9.126461650097697E-1   -3.296333744026794E-1    5.680019485966880E-2    9.626897497223411E-2    5.835017299295239E-2    9.519650725723473E-2    9.165858705797951E-1   -3.198437984626157E-1
 1.277230338443520E8     9.115372591820601E-1   -3.322449363527600E-1    5.738668569679579E-2    9.701769002292067E-2    5.894336627287618E-2    9.593530340916757E-2    9.155820170335806E-1   -3.223086027363162E-1
 1.286975430493991E8     9.103940565550942E-1   -3.349081954584540E-1    5.801237841008017E-2    9.781916921933179E-2    5.957548408204558E-2    9.672521687850182E-2    9.145293809008209E-1   -3.248458240693222E-1
 1.296794876258291E8     9.091802437436997E-1   -3.375727844869967E-1    5.869027067367950E-2    9.861561563175582E-2    6.025487181920517E-2    9.751273779345782E-2    9.134147625459550E-1   -3.273805436356635E-1
 1.306689243045034E8     9.079588543125154E-1   -3.402225100681568E-1    5.938200465779339E-2    9.940460428744716E-2    6.094707618798738E-2    9.828535360053978E-2    9.122956384630766E-1   -3.299073558760057E-1
 1.316659102491341E8     9.067417362518398E-1   -3.428932019821647E-1    6.007952256949860E-2    1.001917000565749E-1    6.164505234368070E-2    9.906036689601389E-2    9.111657922506008E-1   -3.324727808815425E-1
 1.326705030595824E8     9.055353777498396E-1   -3.455872500282704E-1    6.078925696958772E-2    1.009937258058903E-1    6.235387261421372E-2    9.985165782791021E-2    9.100092248259565E-1   -3.350576298987786E-1
 1.336827607751903E8     9.042990801159299E-1   -3.483127573365923E-1    6.151558996828422E-2    1.018003195974641E-1    6.309211522635436E-2    1.006490515261648E-1    9.088282456074326E-1   -3.376588727533266E-1
 1.347027418781318E8     9.030445420152295E-1   -3.510820257073015E-1    6.225987488341882E-2    1.026006981161127E-1    6.384046692912025E-2    1.014440755633182E-1    9.076388328405195E-1   -3.402967175368987E-1
 1.357305052967905E8     9.017552649617879E-1   -3.538724986673128E-1    6.301950233588202E-2    1.034119644403266E-1    6.460403451022657E-2    1.022349631924255E-1    9.063919671819121E-1   -3.429332124507285E-1
 1.367661104091667E8     9.004534612394817E-1   -3.566837026387751E-1    6.378725267243690E-2    1.042212787869342E-1    6.538021306033413E-2    1.030323840183677E-1    9.050984623666936E-1   -3.455762190725933E-1
 1.378096170463071E8     8.991072884799982E-1   -3.595259155232485E-1    6.456835192990495E-2    1.050247576015945E-1    6.616862332452400E-2    1.038227929709407E-1    9.038130230787011E-1   -3.482001266689702E-1
 1.388610854957592E8     8.977471756491581E-1   -3.623900892674361E-1    6.534864027423468E-2    1.058330226079828E-1    6.695559772250761E-2    1.046162760534837E-1    9.025575097759083E-1   -3.508222268044797E-1
 1.399205765050585E8     8.963457779617867E-1   -3.652497131586640E-1    6.613083968528261E-2    1.066530251999008E-1    6.774400694730055E-2    1.054240690778135E-1    9.013052719391329E-1   -3.534752638851888E-1
 1.409881512852336E8     8.949225222242604E-1   -3.681386005767846E-1    6.692399434260517E-2    1.074898696805200E-1    6.854770853728211E-2    1.062438270700046E-1    9.000104767930941E-1   -3.562116676473479E-1
 1.420638715143470E8     8.935072597045240E-1   -3.710223935888165E-1    6.772940443219462E-2    1.083468901241843E-1    6.936560459988524E-2    1.070851776282128E-1    8.986945446842822E-1   -3.589428394503960E-1
 1.431477993410541E8     8.920604188864569E-1   -3.739320700253136E-1    6.855594768926135E-2    1.092116901266434E-1    7.019624035353558E-2    1.079361766406935E-1    8.973815869847673E-1   -3.616830773058607E-1
 1.442399973881980E8     8.905993591560848E-1   -3.768686370341026E-1    6.938997503195631E-2    1.100924300364353E-1    7.104658908109150E-2    1.088064262885633E-1    8.960268334018786E-1   -3.645116415442326E-1
 1.453405287564251E8     8.891018616349051E-1   -3.798343338074684E-1    7.025437251998448E-2    1.110001394356443E-1    7.192272517902075E-2    1.096977447109132E-1    8.946073722208825E-1   -3.673424140965940E-1
 1.464494570278296E8     8.875833936234305E-1   -3.828303943105896E-1    7.115958651202733E-2    1.119097030960579E-1    7.284190670013371E-2    1.105903238088656E-1    8.931530117922918E-1   -3.701731807273673E-1
 1.475668462696298E8     8.860079455519929E-1   -3.858456602813902E-1    7.208579478248479E-2    1.128063327642835E-1    7.377519450107613E-2    1.114735944631990E-1    8.916875135633807E-1   -3.730142131229991E-1
 1.486927610378684E8     8.843869667861889E-1   -3.888598844462520E-1    7.303273991389514E-2    1.137071333076427E-1    7.473371499415774E-2    1.123613383464687E-1    8.901796201067752E-1   -3.759051683720308E-1
 1.498272663811400E8     8.827591479277677E-1   -3.918996581553497E-1    7.399901078652699E-2    1.146049385062203E-1    7.571021282115593E-2    1.132476330926932E-1    8.886309471717335E-1   -3.788080420726410E-1
 1.509704278443526E8     8.811032936561446E-1   -3.949562196070134E-1    7.497512689710026E-2    1.154950985389180E-1    7.669413280130251E-2    1.141277073939800E-1    8.870355988913687E-1   -3.816846021862508E-1
 1.521223114725131E8     8.794282745949578E-1   -3.980443580510520E-1    7.594969739594537E-2    1.163979701477591E-1    7.768111893666396E-2    1.150173551602989E-1    8.854310795837741E-1   -3.845675553829270E-1
 1.532829838145407E8     8.777150406225283E-1   -4.011513852381124E-1    7.694039198461583E-2    1.173177346788768E-1    7.868669674689098E-2    1.159264522705849E-1    8.838714161072998E-1   -3.874551528894276E-1
 1.544525119271165E8     8.759564216008555E-1   -4.042879955452823E-1    7.795020950898343E-2    1.182652140192420E-1    7.972509864217898E-2    1.168510703622845E-1    8.823031932871918E-1   -3.904127910872068E-1
 1.556309633785520E8     8.741647713996114E-1   -4.074640153919480E-1    7.898677494635137E-2    1.192105707012088E-1    8.079250148858919E-2    1.177702166259418E-1    8.806925404282604E-1   -3.934233756441483E-1
 1.568184062526983E8     8.723538621735450E-1   -4.106080039575191E-1    8.001886449705248E-2    1.201766015775886E-1    8.187610929149415E-2    1.186975821878201E-1    8.790430925445369E-1   -3.964513575375923E-1
 1.580149091528745E8     8.705152292006388E-1   -4.138146169746567E-1    8.107454246787410E-2    1.211873773826913E-1    8.298301483657126E-2    1.196645316863006E-1    8.773598164728614E-1   -3.995045207584970E-1
 1.592205412058353E8     8.686235084373547E-1   -4.170416805426179E-1    8.218328419229104E-2    1.221984036930735E-1    8.415612394271721E-2    1.206328772913043E-1    8.756419743091999E-1   -4.025714367286844E-1
 1.604353720657634E8     8.667021805963205E-1   -4.201988257728550E-1    8.332412579130551E-2    1.232014872213239E-1    8.537331566083829E-2    1.215940587004434E-1    8.738683250765976E-1   -4.057102971525314E-1
 1.616594719182909E8     8.647384644105252E-1   -4.234220648288753E-1    8.450211845943495E-2    1.241956506979367E-1    8.660894556118602E-2    1.225413242923827E-1    8.720438416925206E-1   -4.088432873022108E-1
 1.628929114845590E8     8.627481838771910E-1   -4.265967600039897E-1    8.569789589835278E-2    1.251754543033231E-1    8.786666295091826E-2    1.234791536305739E-1    8.701406430514077E-1   -4.120102301200438E-1
 1.641357620253014E8     8.608169998991794E-1   -4.296751980334912E-1    8.688703147767921E-2    1.261608766099149E-1    8.911218909896969E-2    1.244243440918180E-1    8.682172410781459E-1   -4.151854361939340E-1
 1.653880953449593E8     8.587723003475454E-1   -4.329336612671580E-1    8.812070187931263E-2    1.271263172502307E-1    9.037068388340733E-2    1.253732575385935E-1    8.662498579809702E-1   -4.183557661736025E-1
 1.666499837958347E8     8.566846108726527E-1   -4.362276091405693E-1    8.938450851135703E-2    1.280852847378052E-1    9.165578076456132E-2    1.263194742770574E-1    8.642225846293278E-1   -4.215659154790848E-1
 1.679215002822650E8     8.545736618558741E-1   -4.395672263631790E-1    9.066138967999191E-2    1.290727021240156E-1    9.293975615142040E-2    1.272939584533516E-1    8.621876532239403E-1   -4.247930398082260E-1
 1.692027182648404E8     8.523962625462884E-1   -4.429617513308811E-1    9.198102461537651E-2    1.300737805760821E-1    9.427657280773265E-2    1.282865553410027E-1    8.600787139863127E-1   -4.280512857526692E-1
 1.704937117646426E8     8.501086949059299E-1   -4.464025670230968E-1    9.333316694155902E-2    1.310844198788470E-1    9.565501567201040E-2    1.292754428864107E-1    8.579665858659614E-1   -4.313094285058232E-1
 1.717945553675260E8     8.478354689024821E-1   -4.498243190465500E-1    9.472135045243402E-2    1.320787373982739E-1    9.707998474006398E-2    1.302499885087134E-1    8.557797844212692E-1   -4.346196526635110E-1
 1.731053242284249E8     8.454910631931847E-1   -4.532671285426948E-1    9.610777019124518E-2    1.330620757754343E-1    9.849985837774226E-2    1.312162697652582E-1    8.535483819566190E-1   -4.379000165892711E-1
 1.744260940756933E8     8.431133124946518E-1   -4.567898007890802E-1    9.753596559993420E-2    1.340810810224071E-1    9.995213154265176E-2    1.322056763172139E-1    8.512680364558456E-1   -4.412480729522846E-1
 1.757569412154842E8     8.406687512724406E-1   -4.602953902822945E-1    9.894597396498993E-2    1.350706520352610E-1    1.013872816707576E-1    1.331706701909528E-1    8.489044928712133E-1   -4.445509375147141E-1
 1.770979425361561E8     8.381226744781897E-1   -4.638304921853795E-1    1.003550288335481E-1    1.361216476168041E-1    1.028226917208634E-1    1.341954723094130E-1    8.465553194684172E-1   -4.478242449966271E-1
 1.784491755127131E8     8.354657953023736E-1   -4.673602370751516E-1    1.018233053538151E-1    1.372340066669960E-1    1.043210987903839E-1    1.352836456414712E-1    8.442111213883294E-1   -4.511808611590652E-1
 1.798107182112848E8     8.327669289285684E-1   -4.708604170407743E-1    1.033825220183108E-1    1.383576389512824E-1    1.059016147055562E-1    1.363770787522623E-1    8.417716144613770E-1   -4.545856489553420E-1
 1.811826492936349E8     8.299809672287838E-1   -4.743622038800010E-1    1.049814604843842E-1    1.394555220774353E-1    1.075104991830082E-1    1.374474316153157E-1    8.392599944268303E-1   -4.580028849661018E-1
 1.825650480217040E8     8.271089252957780E-1   -4.778267848153261E-1    1.066386419026366E-1    1.405369758984518E-1    1.091968935934636E-1    1.385014510588231E-1    8.366933493353720E-1   -4.614928979615632E-1
 1.839579942621904E8     8.241798918815559E-1   -4.812876038361024E-1    1.083379114745671E-1    1.416209863022513E-1    1.109071303511421E-1    1.395516646903351E-1    8.340276993832747E-1   -4.649263520161367E-1
 1.853615684911660E8     8.212532647075752E-1   -4.846985542670437E-1    1.100641581254200E-1    1.426988008696649E-1    1.126599001585112E-1    1.405916805190359E-1    8.313660401598235E-1   -4.683661962048101E-1
 1.867758517987237E8     8.182489550714800E-1   -4.881667985064379E-1    1.118204055018192E-1    1.437410910288379E-1    1.144041674358976E-1    1.416087391383324E-1    8.286236813487470E-1   -4.718844538032444E-1
 1.882009258936609E8     8.152217885992822E-1   -4.916173052551785E-1    1.135933428911258E-1    1.448294635157303E-1    1.161893650446646E-1    1.426748581876178E-1    8.257932926915054E-1   -4.753860498149905E-1
 1.896368731082037E8     8.121114848940483E-1   -4.950480446326238E-1    1.154124591778500E-1    1.459033997758783E-1    1.180147227530690E-1    1.437308274767443E-1    8.228577076145142E-1   -4.789227901980049E-1
 1.910837764027621E8     8.089891416163482E-1   -4.985863818512644E-1    1.172754567990847E-1    1.469886740601593E-1    1.198782197382112E-1    1.447888434791705E-1    8.199324297647120E-1   -4.823922050241373E-1
 1.925417193707203E8     8.057362788759087E-1   -5.021713923034264E-1    1.191472483294547E-1    1.480494476426911E-1    1.217601141141090E-1    1.458254323203631E-1    8.169104151006629E-1   -4.859439122078155E-1
 1.940107862432706E8     8.023192339870796E-1   -5.057523085957579E-1    1.209928721057387E-1    1.491203028981821E-1    1.236111090266696E-1    1.468704473077106E-1    8.138002961253407E-1   -4.895292755331694E-1
 1.954910618942780E8     7.987256478164982E-1   -5.093401885026864E-1    1.228128614190386E-1    1.503015734099186E-1    1.254235494787051E-1    1.480325613445329E-1    8.105656401001015E-1   -4.930577075690279E-1
 1.969826318451810E8     7.950211915023702E-1   -5.128541865066502E-1    1.247771886997214E-1    1.516198514710394E-1    1.273847290592609E-1    1.493310020061198E-1    8.073757445095426E-1   -4.965382685935331E-1
 1.984855822699381E8     7.912062084121306E-1   -5.162381310934937E-1    1.268429589642979E-1    1.529086912011126E-1    1.294433799899326E-1    1.506066314945405E-1    8.041289310673114E-1   -5.001226126993954E-1
 2.000000000000000E8     7.873499941652883E-1   -5.195153819110181E-1    1.289586268685237E-1    1.542576211123060E-1    1.315564211809109E-1    1.519414809439074E-1    8.007592843363538E-1   -5.037181260905718E-1
