#  HZ   S   RI   R     50.00 
! Rohde & Schwarz Vector Network Analyzer 
! Rohde-Schwarz,ZNLE6-2Port,1323001256200024,1.71.1.10-23.02.1.238
! Created: UTC 4/11/2025, 6:15:13 AM
! freq[Hz]                re:S11                  im:S11                  re:S21                  im:S21                  re:S12                  im:S12                  re:S22                  im:S22
 1.000000000000000E5     9.266993304900015E-1    5.714267013183864E-2    7.423190118538822E-2   -5.755011265671487E-2    7.433989879504292E-2   -5.761625169730680E-2    9.264789367870254E-1    5.701465405435553E-2
 1.007629862646662E5     9.268550430919924E-1    5.692518138619963E-2    7.408993442950679E-2   -5.733482170197834E-2    7.418685646922579E-2   -5.738941894445092E-2    9.266034514641760E-1    5.678428576519654E-2
 1.015317940097331E5     9.270122269188212E-1    5.671204771230479E-2    7.393873686365444E-2   -5.711383264752713E-2    7.403830330064415E-2   -5.716960948498930E-2    9.267223653511153E-1    5.657124174421373E-2
 1.023064676522963E5     9.271323892783485E-1    5.647089945697320E-2    7.379183401909227E-2   -5.689786535777385E-2    7.388429892829873E-2   -5.695082780873269E-2    9.268784951705564E-1    5.634546355089452E-2
 1.030870519483485E5     9.272388015795312E-1    5.623866708410733E-2    7.363636448309409E-2   -5.667892026713728E-2    7.373376659807139E-2   -5.672931849714404E-2    9.270115259404337E-1    5.613519066288108E-2
 1.038735919953636E5     9.273875931397468E-1    5.601960061995915E-2    7.349016105306753E-2   -5.645988050853370E-2    7.359016267061289E-2   -5.651493177731313E-2    9.272099163526553E-1    5.590458410076827E-2
 1.046661332349037E5     9.275009154157272E-1    5.579791036959340E-2    7.333798930442473E-2   -5.623935759264713E-2    7.344006215506242E-2   -5.629924113800362E-2    9.273420013072246E-1    5.571176066394273E-2
 1.054647214552430E5     9.276633093871394E-1    5.558336990222738E-2    7.318588084307973E-2   -5.603099156769754E-2    7.329163612983482E-2   -5.608566893908679E-2    9.274844635397692E-1    5.549082655861822E-2
 1.062694027940149E5     9.278006343595702E-1    5.536554529356860E-2    7.303837047324928E-2   -5.582211505984571E-2    7.314184217625284E-2   -5.587330850231496E-2    9.276221219950306E-1    5.528086611164608E-2
 1.070802237408760E5     9.279465918743391E-1    5.515005521245584E-2    7.289188163113852E-2   -5.560999415728715E-2    7.298680750724569E-2   -5.566217866967249E-2    9.277642252642019E-1    5.508087432313195E-2
 1.078972311401927E5     9.280983090969335E-1    5.493755472849060E-2    7.274055035750658E-2   -5.539941219080222E-2    7.284130175851342E-2   -5.545342525177215E-2    9.279350924550003E-1    5.487889612849953E-2
 1.087204721937475E5     9.282917698448998E-1    5.471526033996787E-2    7.259120172810780E-2   -5.519336616685034E-2    7.269099803980633E-2   -5.525121810920929E-2    9.280938859088558E-1    5.465524139536362E-2
 1.095499944634658E5     9.284453722537738E-1    5.449874297359459E-2    7.242618297638836E-2   -5.497525247818245E-2    7.254255331436299E-2   -5.504521141068386E-2    9.282397912273970E-1    5.445814039881378E-2
 1.103858458741646E5     9.285942003753321E-1    5.428992480091797E-2    7.225413159442916E-2   -5.475566990139132E-2    7.239556610416857E-2   -5.483673070782884E-2    9.283608635494490E-1    5.424410533458273E-2
 1.112280747163201E5     9.287194986523057E-1    5.410044562100605E-2    7.210576837260617E-2   -5.455133253830355E-2    7.223881447422378E-2   -5.463619392336503E-2    9.284817264395228E-1    5.405800222114979E-2
 1.120767296488583E5     9.288434465161248E-1    5.386370907546453E-2    7.196148999121446E-2   -5.434897851800011E-2    7.208583579707706E-2   -5.443732901321074E-2    9.286324620476584E-1    5.384061057444550E-2
 1.129318597019661E5     9.289644630842245E-1    5.369373834408563E-2    7.183864426953060E-2   -5.417781986672433E-2    7.193228244924624E-2   -5.423248508351815E-2    9.287566493035476E-1    5.364567391313122E-2
 1.137935142799240E5     9.291160343639080E-1    5.352598645754212E-2    7.169266062023556E-2   -5.397920974797980E-2    7.178415462147697E-2   -5.403280670137306E-2    9.289223942275641E-1    5.344767975169400E-2
 1.146617431639607E5     9.292913738494203E-1    5.332298142862035E-2    7.154071404164100E-2   -5.378496341391471E-2    7.162804335136791E-2   -5.383616654800356E-2    9.290582300473105E-1    5.325102056135270E-2
 1.155365965151286E5     9.294526126362869E-1    5.310985269512194E-2    7.138768291739736E-2   -5.358273911650901E-2    7.148081164488415E-2   -5.364474475092227E-2    9.292140154612157E-1    5.305356483432118E-2
 1.164181248772018E5     9.296074897062084E-1    5.291543360112461E-2    7.121933957291421E-2   -5.337274128756715E-2    7.133116487914100E-2   -5.344487463403948E-2    9.293648608793427E-1    5.286566053927912E-2
 1.173063791795965E5     9.297481024971177E-1    5.270783825912896E-2    7.106908740073380E-2   -5.317823581041409E-2    7.117593280551360E-2   -5.325398289596438E-2    9.295292380953962E-1    5.267197826353249E-2
 1.182014107403141E5     9.299069709862999E-1    5.252616993601653E-2    7.091986770066300E-2   -5.298798222710523E-2    7.102833274464115E-2   -5.306109366979059E-2    9.296723388298016E-1    5.249607564896053E-2
 1.191032712689044E5     9.300516653445888E-1    5.232481742544377E-2    7.076267863935286E-2   -5.279751088128334E-2    7.087185100558277E-2   -5.287254970407063E-2    9.298173594303366E-1    5.228303518840904E-2
 1.200120128694542E5     9.302078391403176E-1    5.213739209231328E-2    7.061616657875198E-2   -5.260736719156330E-2    7.072093523057306E-2   -5.268175281519682E-2    9.299831145087641E-1    5.210887063562610E-2
 1.209276880435975E5     9.303357974118373E-1    5.195281176869439E-2    7.046858731548260E-2   -5.242284298494043E-2    7.057410057253878E-2   -5.249430740504699E-2    9.301283476161920E-1    5.191312533007651E-2
 1.218503496935483E5     9.304745133056195E-1    5.176066980625952E-2    7.032100746244131E-2   -5.224106433460571E-2    7.041758880463847E-2   -5.230465878296006E-2    9.302935962275943E-1    5.174702819292237E-2
 1.227800511251578E5     9.306523908296622E-1    5.158997233028479E-2    7.017692741141643E-2   -5.206329518383215E-2    7.026268600223638E-2   -5.212083390068898E-2    9.304378956797268E-1    5.154646796013505E-2
 1.237168460509929E5     9.307810194836150E-1    5.139946246307443E-2    7.002698548177549E-2   -5.188578928491199E-2    7.011424343762490E-2   -5.193352068603407E-2    9.305902804507549E-1    5.137602347834709E-2
 1.246607885934402E5     9.309297607453662E-1    5.122417922522574E-2    6.987065136149229E-2   -5.169913136653934E-2    6.995578900674884E-2   -5.175346293055169E-2    9.307250413473860E-1    5.116451118517322E-2
 1.256119332878327E5     9.310876695322778E-1    5.102925823777921E-2    6.971766269541106E-2   -5.152022309896778E-2    6.980796104639470E-2   -5.157204417026720E-2    9.308823029874866E-1    5.099539362231632E-2
 1.265703350856002E5     9.312305557742439E-1    5.085543378995992E-2    6.956533357102435E-2   -5.133898686739469E-2    6.965377323053756E-2   -5.139375479826287E-2    9.310514225790073E-1    5.080825066391682E-2
 1.275360493574453E5     9.313850508286982E-1    5.067501621684633E-2    6.941523580583434E-2   -5.115907509936266E-2    6.949996610555395E-2   -5.120805152412702E-2    9.311862304452724E-1    5.062481212608729E-2
 1.285091318965405E5     9.315285253111284E-1    5.048705105594995E-2    6.926092653241189E-2   -5.098029054106596E-2    6.934907120309983E-2   -5.102942283159104E-2    9.313443228835276E-1    5.046223633458631E-2
 1.294896389217529E5     9.316413152435373E-1    5.030449963957817E-2    6.910813803115046E-2   -5.080311217423118E-2    6.919521434807258E-2   -5.085018973482677E-2    9.314881979893381E-1    5.027580790176267E-2
 1.304776270808914E5     9.318220675548841E-1    5.013688326590598E-2    6.895499661369528E-2   -5.062789162529144E-2    6.903535490228853E-2   -5.067657125059992E-2    9.316520699558608E-1    5.010911383102993E-2
 1.314731534539810E5     9.319606717466848E-1    4.996839696635328E-2    6.880117356316338E-2   -5.045542280548149E-2    6.888794337879549E-2   -5.050084771086261E-2    9.318120429464074E-1    4.993374106356702E-2
 1.324762755565583E5     9.321367331558509E-1    4.980731831457429E-2    6.864888253445464E-2   -5.027878198908725E-2    6.873205054510281E-2   -5.032588642901163E-2    9.319541500114502E-1    4.973314146831170E-2
 1.334870513429962E5     9.322756835806993E-1    4.960071813521811E-2    6.849138214307515E-2   -5.011079733476655E-2    6.857909135795824E-2   -5.015490579842386E-2    9.321322323648973E-1    4.958628487946001E-2
 1.345055392098512E5     9.324389897977465E-1    4.943681730366990E-2    6.834132130642588E-2   -4.993256930249799E-2    6.842437712446900E-2   -4.998022699254908E-2    9.322437666495219E-1    4.940184127899015E-2
 1.355317979992373E5     9.326065197615298E-1    4.925722940636978E-2    6.818917266386010E-2   -4.976354450650625E-2    6.826641427648930E-2   -4.980844889184726E-2    9.324298326956486E-1    4.923723816629223E-2
 1.365658870022265E5     9.327503709168953E-1    4.909772766304879E-2    6.803611803630237E-2   -4.959425980264491E-2    6.811680696185950E-2   -4.963739719183068E-2    9.325780437488816E-1    4.907883228874215E-2
 1.376078659622731E5     9.329191595236890E-1    4.892818188384036E-2    6.787852763757096E-2   -4.942566681434941E-2    6.795732949298446E-2   -4.946855696369416E-2    9.327177766358383E-1    4.888257598399629E-2
 1.386577950786655E5     9.330614348016636E-1    4.875891296234185E-2    6.772420405923690E-2   -4.925653074602302E-2    6.780318581091392E-2   -4.930146521105486E-2    9.328652925148130E-1    4.871369043855470E-2
 1.397157350100044E5     9.331931378366143E-1    4.856622302165875E-2    6.756661371398014E-2   -4.908621000962780E-2    6.764597906453956E-2   -4.912992880208751E-2    9.329921774234065E-1    4.853991141034308E-2
 1.407817468777081E5     9.333347251785634E-1    4.840439759407257E-2    6.741101017755816E-2   -4.892167567997043E-2    6.749563099997739E-2   -4.896479786805151E-2    9.331572692471869E-1    4.836754134082763E-2
 1.418558922695422E5     9.334877580760544E-1    4.823430260942808E-2    6.725997588710254E-2   -4.875706462345655E-2    6.733638956883323E-2   -4.879693432769995E-2    9.333028910252825E-1    4.821623524078864E-2
 1.429382332431784E5     9.336425304230063E-1    4.805529150191975E-2    6.710525014718627E-2   -4.858994810624660E-2    6.718190524630753E-2   -4.863542250098226E-2    9.334779302208358E-1    4.806594402847404E-2
 1.440288323297804E5     9.338034782866536E-1    4.790569131742858E-2    6.694541570003212E-2   -4.842932753505753E-2    6.702724523564868E-2   -4.847190616262915E-2    9.336615387408533E-1    4.788656048913967E-2
 1.451277525376154E5     9.339547031781753E-1    4.775812667042278E-2    6.679441551598941E-2   -4.826188887496986E-2    6.686909486065426E-2   -4.830888219543165E-2    9.337960100793348E-1    4.773649343326344E-2
 1.462350573556962E5     9.340922095277986E-1    4.759761423417318E-2    6.663796377543389E-2   -4.810198741125652E-2    6.672002156173447E-2   -4.814899604323390E-2    9.339660390647273E-1    4.757053888874901E-2
 1.473508107574468E5     9.342391297875123E-1    4.743738116873586E-2    6.648378063091195E-2   -4.794043382947680E-2    6.655958473414519E-2   -4.798249920074184E-2    9.340846018739042E-1    4.739847873936751E-2
 1.484750772044004E5     9.344011659966817E-1    4.724999292998527E-2    6.632500208350758E-2   -4.778341982464997E-2    6.640905884107422E-2   -4.782559072116307E-2    9.342360862355926E-1    4.725059615623239E-2
 1.496079216499225E5     9.345581098034789E-1    4.709727690633464E-2    6.617318249913279E-2   -4.761833727916301E-2    6.625186702319912E-2   -4.766435996397157E-2    9.344011895913409E-1    4.708204416508525E-2
 1.507494095429637E5     9.347131169799699E-1    4.694380801276968E-2    6.601927216557647E-2   -4.745987585354625E-2    6.609305078646915E-2   -4.750472191936436E-2    9.345703249878612E-1    4.692924126618150E-2
 1.518996068318418E5     9.348494205274656E-1    4.677709213868200E-2    6.586041277990318E-2   -4.730280383384573E-2    6.593543150731174E-2   -4.734421531934641E-2    9.347240884299940E-1    4.676167365886844E-2
 1.530585799680507E5     9.349676608583016E-1    4.661700476710236E-2    6.570325462004842E-2   -4.714247651379432E-2    6.578684807902047E-2   -4.718915833561881E-2    9.348831564992806E-1    4.659281149311132E-2
 1.542263959101001E5     9.351386616785313E-1    4.644974221234559E-2    6.555041462107704E-2   -4.699012469220472E-2    6.562783322430304E-2   -4.703482190301007E-2    9.350358483313790E-1    4.644533571904236E-2
 1.554031221273835E5     9.353091064750461E-1    4.630395213867754E-2    6.539458369234068E-2   -4.683458790654911E-2    6.546735503326209E-2   -4.687569813489888E-2    9.351617074480201E-1    4.628231161218058E-2
 1.565888266040779E5     9.354856719899091E-1    4.616319525784186E-2    6.523969971130737E-2   -4.667887467268345E-2    6.531499401738236E-2   -4.672032271470816E-2    9.353433119640721E-1    4.614414218134359E-2
 1.577835778430689E5     9.356307775623662E-1    4.598812226350042E-2    6.508808045613092E-2   -4.652569303658791E-2    6.515654816935652E-2   -4.656608776834187E-2    9.354478585053346E-1    4.597455820022502E-2
 1.589874448699104E5     9.357711839131483E-1    4.583581289699951E-2    6.492931719851543E-2   -4.636880537695335E-2    6.500113376551432E-2   -4.641757404435120E-2    9.356441752282888E-1    4.582466383612843E-2
 1.602004972368116E5     9.359180307990570E-1    4.568395116329426E-2    6.476884178731698E-2   -4.621804041057475E-2    6.484611966797912E-2   -4.626197582043685E-2    9.357954500622226E-1    4.566282056780793E-2
 1.614228050266550E5     9.361119239543715E-1    4.552832649528409E-2    6.461334219800315E-2   -4.606671345070580E-2    6.469152291024124E-2   -4.611240955778267E-2    9.359389531590372E-1    4.552065393469464E-2
 1.626544388570473E5     9.362412851550794E-1    4.536858400840393E-2    6.445386983125011E-2   -4.591724944580643E-2    6.453209394621620E-2   -4.595598697643980E-2    9.360944178051175E-1    4.534885432849603E-2
 1.638954698843964E5     9.363907196831139E-1    4.522484293823841E-2    6.430027338256401E-2   -4.575884353642347E-2    6.437748595319683E-2   -4.580603762753951E-2    9.362499975195907E-1    4.520125627662890E-2
 1.651459698080244E5     9.365532778857313E-1    4.505858000208247E-2    6.413832663657587E-2   -4.561198574320033E-2    6.421846080064308E-2   -4.565924444091563E-2    9.364211076034259E-1    4.504999273201427E-2
 1.664060108743095E5     9.367205037090177E-1    4.492424056840850E-2    6.398667602913190E-2   -4.545953791579140E-2    6.406362643128806E-2   -4.550618790817484E-2    9.365702985929264E-1    4.490758847875462E-2
 1.676756658808590E5     9.368731445837979E-1    4.477303241692015E-2    6.383152782211576E-2   -4.531267491253540E-2    6.390324718185948E-2   -4.535675432425476E-2    9.367235815714524E-1    4.474964980964233E-2
 1.689550081807175E5     9.370558133882634E-1    4.461927552254257E-2    6.363678134965924E-2   -4.516467129576502E-2    6.374719563909195E-2   -4.520956589751313E-2    9.368648736258710E-1    4.461511267883248E-2
 1.702441116866020E5     9.373108356904729E-1    4.448339518105213E-2    6.340869846519381E-2   -4.503966272834496E-2    6.359091617373393E-2   -4.506083840953932E-2    9.370234320757073E-1    4.445762344437112E-2
 1.715430508751738E5     9.374535634105798E-1    4.434931675605868E-2    6.325040169372394E-2   -4.489036848334654E-2    6.343532799321229E-2   -4.491393387346809E-2    9.371746859898765E-1    4.431308911399683E-2
 1.728519007913403E5     9.376153481169408E-1    4.418960772209747E-2    6.309746507543021E-2   -4.475111964719965E-2    6.327824076651700E-2   -4.476611493333574E-2    9.373055753610504E-1    4.416573273144583E-2
 1.741707370525927E5     9.377954345104512E-1    4.404876763752931E-2    6.293982786607484E-2   -4.460282120737079E-2    6.312144483706367E-2   -4.462015350284070E-2    9.374399278856179E-1    4.401067397572860E-2
 1.754996358533718E5     9.379173792756913E-1    4.392141507085674E-2    6.277894533597629E-2   -4.445927784807763E-2    6.296498285759189E-2   -4.447335080050165E-2    9.376165395936426E-1    4.386567702701745E-2
 1.768386739694722E5     9.380479014391530E-1    4.377580703993716E-2    6.262480917522481E-2   -4.431678868734178E-2    6.280898284337687E-2   -4.433238677903432E-2    9.378231995801692E-1    4.372870397138131E-2
 1.781879287624771E5     9.382108649161734E-1    4.359316404447423E-2    6.246534170693937E-2   -4.415553226060790E-2    6.265381606865322E-2   -4.418569064921405E-2    9.379613728555154E-1    4.357874303191932E-2
 1.795474781842276E5     9.383546513112807E-1    4.345654132916593E-2    6.231115815617444E-2   -4.400375341884875E-2    6.249347045613161E-2   -4.403977186642701E-2    9.381118426145117E-1    4.344028724448703E-2
 1.809174007813277E5     9.384636550866645E-1    4.325987545582239E-2    6.220105502839826E-2   -4.382089279448548E-2    6.234100404486788E-2   -4.389669327741598E-2    9.382448268373361E-1    4.329992056465256E-2
 1.822977756996804E5     9.386489960598255E-1    4.310905745790299E-2    6.202968226542323E-2   -4.368344730121458E-2    6.218141780260713E-2   -4.374921015359236E-2    9.383804618706688E-1    4.315121801433481E-2
 1.836886826890609E5     9.388400584745786E-1    4.299213126721955E-2    6.185542976623001E-2   -4.355326278290667E-2    6.202614174251034E-2   -4.361252372815691E-2    9.385413183241151E-1    4.300064268316252E-2
 1.850902021077247E5     9.389910001084090E-1    4.285819656754648E-2    6.169188110924721E-2   -4.342314822394603E-2    6.186730972529796E-2   -4.347125239915531E-2    9.387103997192350E-1    4.286318270968822E-2
 1.865024149270491E5     9.391309751560571E-1    4.270532772673478E-2    6.154179204732615E-2   -4.327420012813649E-2    6.171197830128673E-2   -4.332832835681493E-2    9.388523537560711E-1    4.271274516543522E-2
 1.879254027362132E5     9.392630975621460E-1    4.253825252535524E-2    6.141561048602746E-2   -4.311425156791766E-2    6.155751170179208E-2   -4.318614202818154E-2    9.390545497779098E-1    4.257072175009880E-2
 1.893592477469092E5     9.394234700118624E-1    4.240582171660306E-2    6.128509917770322E-2   -4.297406753014604E-2    6.139713895491693E-2   -4.304732692715966E-2    9.391971842223918E-1    4.243772531212429E-2
 1.908040327980933E5     9.395805262575913E-1    4.226764191056705E-2    6.111075456292103E-2   -4.283479827485917E-2    6.124473046181645E-2   -4.290682155619392E-2    9.393456535884557E-1    4.229846051748325E-2
 1.922598413607715E5     9.396259091914249E-1    4.215500646885998E-2    6.101444029848026E-2   -4.272262022589895E-2    6.109042732143372E-2   -4.276652318773751E-2    9.394862087013232E-1    4.214652400218319E-2
 1.937267575428232E5     9.397597971705188E-1    4.200367369380997E-2    6.085128396091573E-2   -4.258171243019469E-2    6.092944682400200E-2   -4.262945508485785E-2    9.396393549158102E-1    4.200858610416743E-2
 1.952048660938581E5     9.399352111076439E-1    4.185587455843027E-2    6.069793774993131E-2   -4.244094983074481E-2    6.077307299107387E-2   -4.248903596252627E-2    9.398111887496677E-1    4.187244689285975E-2
 1.966942524101142E5     9.400970110162132E-1    4.171773888488750E-2    6.054605210068881E-2   -4.231148773821528E-2    6.061728485909149E-2   -4.234957167261232E-2    9.399774549853982E-1    4.173266571381771E-2
 1.981950025393913E5     9.402737097446234E-1    4.158495955758789E-2    6.039084176610447E-2   -4.217256655732420E-2    6.046300540904162E-2   -4.221257522139737E-2    9.401211357444182E-1    4.158543565414533E-2
 1.997072031860212E5     9.404584473391935E-1    4.147044069032267E-2    6.024083223838187E-2   -4.203250612461960E-2    6.030224161787447E-2   -4.207349140447667E-2    9.402948119965461E-1    4.145812978504065E-2
 2.012309417158795E5     9.405867519019704E-1    4.131975612692603E-2    6.007608904393000E-2   -4.189742942156358E-2    6.014957796754323E-2   -4.193589451469813E-2    9.404211506578187E-1    4.129988619946703E-2
 2.027663061614301E5     9.407593736030264E-1    4.117144055349158E-2    5.992398904579374E-2   -4.175876060305398E-2    5.999659290202130E-2   -4.180331248455810E-2    9.405518271459464E-1    4.116765297045122E-2
 2.043133852268128E5     9.408695648031514E-1    4.104581436498154E-2    5.976903773696413E-2   -4.162191082629066E-2    5.983716600063983E-2   -4.166186813388888E-2    9.406854769566906E-1    4.101723309631401E-2
 2.058722682929675E5     9.410461031229662E-1    4.091525005219919E-2    5.961622244404702E-2   -4.148655481575135E-2    5.967997350964746E-2   -4.152293041395949E-2    9.408148369599496E-1    4.088568420844859E-2
 2.074430454227995E5     9.412107268943081E-1    4.076142694049016E-2    5.946005528713880E-2   -4.135362183393482E-2    5.952100571608293E-2   -4.139057302834640E-2    9.410056577754106E-1    4.074234248217235E-2
 2.090258073663807E5     9.413755713983487E-1    4.062630871933706E-2    5.930043353289651E-2   -4.121574078677429E-2    5.936707788536231E-2   -4.125550069052081E-2    9.411530078937146E-1    4.060460690812068E-2
 2.106206455661938E5     9.415208569024354E-1    4.047072750074143E-2    5.913724729467623E-2   -4.107128448792350E-2    5.921246363867479E-2   -4.111754718672617E-2    9.413150940367243E-1    4.048274085361090E-2
 2.122276521624151E5     9.416851701328778E-1    4.030489852615896E-2    5.893885271690781E-2   -4.091317640236088E-2    5.905747384358461E-2   -4.098370134295734E-2    9.414520106763710E-1    4.033163965145313E-2
 2.138469199982374E5     9.418594011919916E-1    4.017327908094232E-2    5.877035130572104E-2   -4.077861006523385E-2    5.890399677554649E-2   -4.085093322734673E-2    9.416179277041418E-1    4.019761009759223E-2
 2.154785426252357E5     9.420135906011673E-1    4.003478409642314E-2    5.863644127205135E-2   -4.064119319056066E-2    5.874944834016058E-2   -4.071007259299059E-2    9.418073990147015E-1    4.006027609681490E-2
 2.171226143087691E5     9.421241356724186E-1    3.989540844679045E-2    5.848122126770574E-2   -4.050792823365357E-2    5.859447199364369E-2   -4.057796691395615E-2    9.419352359894461E-1    3.993350353608327E-2
 2.187792300334291E5     9.423309305791515E-1    3.976367071956102E-2    5.833519071968139E-2   -4.037997431575353E-2    5.843906615328671E-2   -4.044633660740503E-2    9.420982851805112E-1    3.978985410184008E-2
 2.204484855085266E5     9.424767045660963E-1    3.963083102988559E-2    5.818274597228151E-2   -4.024345030054877E-2    5.828402138452905E-2   -4.031520424294156E-2    9.422479123198481E-1    3.963119046270845E-2
 2.221304771736209E5     9.426289075107193E-1    3.949594273494717E-2    5.802622342012368E-2   -4.011198762540900E-2    5.813493481111399E-2   -4.017864846817255E-2    9.423754422376163E-1    3.951098929167576E-2
 2.238253022040931E5     9.427645607896602E-1    3.937132800532556E-2    5.787607623205759E-2   -3.997830773107720E-2    5.798271185899596E-2   -4.004892151357436E-2    9.425591635292686E-1    3.939312496311602E-2
 2.255330585167579E5     9.428957369896676E-1    3.922417106416475E-2    5.772074883329410E-2   -3.984603093724257E-2    5.782511346665924E-2   -3.991534045296408E-2    9.426888823263271E-1    3.924466006496764E-2
 2.272538447755223E5     9.430769125773929E-1    3.910218907588252E-2    5.756397571935788E-2   -3.971129859795776E-2    5.767164665272295E-2   -3.977776646827984E-2    9.428655313406756E-1    3.911407553273724E-2
 2.289877603970853E5     9.432439963747072E-1    3.895555566942571E-2    5.741292400322193E-2   -3.958509040915781E-2    5.751476539888278E-2   -3.964808019837670E-2    9.430136789554469E-1    3.899214962322222E-2
 2.307349055566813E5     9.433769579209191E-1    3.882512998033219E-2    5.726406013082237E-2   -3.944787415613840E-2    5.735881022783663E-2   -3.951723429613137E-2    9.431326197856895E-1    3.882567814784017E-2
 2.324953811938693E5     9.435173246352155E-1    3.868955661600928E-2    5.711175450590592E-2   -3.931518675326279E-2    5.721400431502033E-2   -3.938213057224894E-2    9.432954898630110E-1    3.869952031438425E-2
 2.342692890183618E5     9.436449068521339E-1    3.858770081865064E-2    5.699166658867166E-2   -3.921671133991284E-2    5.705828150727804E-2   -3.925406478452170E-2    9.434408861887911E-1    3.857824785776931E-2
 2.360567315159030E5     9.438232764337769E-1    3.845254198231417E-2    5.683815667385306E-2   -3.908552002458015E-2    5.690699258160963E-2   -3.911931040192680E-2    9.436027418045387E-1    3.843708221511014E-2
 2.378578119541888E5     9.439857636442373E-1    3.831813412816130E-2    5.668451978404576E-2   -3.895848856575515E-2    5.675202980582797E-2   -3.899191641166713E-2    9.437616108980514E-1    3.830735938532772E-2
 2.396726343888348E5     9.441205023343460E-1    3.818147662340092E-2    5.653350110542200E-2   -3.882413505637300E-2    5.660366814389028E-2   -3.886033650845402E-2    9.439031594913413E-1    3.817149473630595E-2
 2.415013036693852E5     9.443011250838177E-1    3.806069804626991E-2    5.638063883941744E-2   -3.869143839594312E-2    5.645418513033326E-2   -3.872964805957878E-2    9.440790085151861E-1    3.805303618512261E-2
 2.433439254453724E5     9.443996730906929E-1    3.791415419752345E-2    5.623273731976126E-2   -3.856301311363123E-2    5.630179953896038E-2   -3.859788060570115E-2    9.442050154308510E-1    3.790056185107057E-2
 2.452006061724201E5     9.445590828530788E-1    3.777627506890002E-2    5.608477449690160E-2   -3.843094761203850E-2    5.615009857781389E-2   -3.846888682341184E-2    9.443846486893075E-1    3.778109488473923E-2
 2.470714531183934E5     9.447039791527018E-1    3.764036993721910E-2    5.593032424367345E-2   -3.830142098889275E-2    5.599749157022307E-2   -3.833781395707458E-2    9.445262201361181E-1    3.764777913827640E-2
 2.489565743695979E5     9.449009197379050E-1    3.752057215527270E-2    5.577972412076861E-2   -3.816799267319166E-2    5.584478166979825E-2   -3.820791425893421E-2    9.446642224862686E-1    3.751764740893784E-2
 2.508560788370214E5     9.450313506949718E-1    3.738817597554619E-2    5.562966820179230E-2   -3.804188481875321E-2    5.569583116597002E-2   -3.807854031426305E-2    9.448320827345068E-1    3.738967525244733E-2
 2.527700762626280E5     9.451596017180710E-1    3.724632474100554E-2    5.547960700603900E-2   -3.791094631280980E-2    5.554315306250964E-2   -3.794983867076433E-2    9.449471270302383E-1    3.725634635584175E-2
 2.546986772256976E5     9.452939788624090E-1    3.709253498865446E-2    5.532883437427576E-2   -3.778116677577198E-2    5.539582669345557E-2   -3.781721768094398E-2    9.450881666287617E-1    3.712146618467028E-2
 2.566419931492161E5     9.454393625604411E-1    3.697550655764438E-2    5.518314215032372E-2   -3.764900036282096E-2    5.524885218947477E-2   -3.768882404915671E-2    9.452415299351578E-1    3.700009434545710E-2
 2.586001363063102E5     9.455670363698482E-1    3.682876164130089E-2    5.503114543097693E-2   -3.752119229033332E-2    5.510065070309289E-2   -3.755833143280183E-2    9.453715619264135E-1    3.686847975498363E-2
 2.605732198267354E5     9.457014123105301E-1    3.672168042030204E-2    5.488663440055841E-2   -3.739008307577395E-2    5.495084861346296E-2   -3.742997709944452E-2    9.455495883310553E-1    3.673637519054831E-2
 2.625613577034118E5     9.458666813336047E-1    3.657943500097229E-2    5.473684164132615E-2   -3.726416833584518E-2    5.480507415003445E-2   -3.730551701814068E-2    9.456756997425262E-1    3.659316700238647E-2
 2.645646647990093E5     9.459891587261995E-1    3.645197628832780E-2    5.459202556138017E-2   -3.713451393182886E-2    5.465772803957512E-2   -3.717264408805798E-2    9.458072561216914E-1    3.647044239122237E-2
 2.665832568525859E5     9.461120573402089E-1    3.631809516964578E-2    5.442878639357832E-2   -3.699732613120644E-2    5.450801270083620E-2   -3.704428290414499E-2    9.459501524343417E-1    3.632956010897242E-2
 2.686172504862709E5     9.463067012589460E-1    3.616059316381472E-2    5.423492347402432E-2   -3.684283554318531E-2    5.436336431396367E-2   -3.691585395254278E-2    9.460872621966023E-1    3.620461137682777E-2
 2.706667632120051E5     9.464774196248241E-1    3.605992370370074E-2    5.404400862432487E-2   -3.673577493973628E-2    5.421316006733284E-2   -3.678623336513979E-2    9.462481061007473E-1    3.608401984276652E-2
 2.727319134383292E5     9.466441432764142E-1    3.591441867776814E-2    5.390838704230765E-2   -3.659979622145793E-2    5.406909110207074E-2   -3.665879322998911E-2    9.464265866917796E-1    3.595730544059647E-2
 2.748128204772244E5     9.467603497698978E-1    3.578433577246351E-2    5.376871066567834E-2   -3.646525943232351E-2    5.392268011531691E-2   -3.653244900476554E-2    9.465526408019206E-1    3.582936458552559E-2
 2.769096045510074E5     9.469178333377026E-1    3.565945812605857E-2    5.363854883120852E-2   -3.633347504392073E-2    5.377797237892572E-2   -3.640452529299427E-2    9.466900738198378E-1    3.568257252040871E-2
 2.790223867992730E5     9.470810869866820E-1    3.552896798622248E-2    5.349876052994727E-2   -3.620955326530165E-2    5.363355217062943E-2   -3.627854280592992E-2    9.468337483322258E-1    3.555986634386715E-2
 2.811512892858952E5     9.472551474834283E-1    3.542187435974643E-2    5.332597328492834E-2   -3.610204718494622E-2    5.349130916436245E-2   -3.615065424082994E-2    9.469766544302607E-1    3.543558846159992E-2
 2.832964350060779E5     9.473900474290186E-1    3.527065590486868E-2    5.321171518473558E-2   -3.595071723326796E-2    5.334834921822389E-2   -3.602135062495280E-2    9.470875586054727E-1    3.530262683302096E-2
 2.854579478934632E5     9.474636723177425E-1    3.513312069227469E-2    5.308156216529267E-2   -3.581927119276396E-2    5.320481130690493E-2   -3.589916540679386E-2    9.472320555032501E-1    3.516963482487763E-2
 2.876359528272883E5     9.476094736225211E-1    3.499207863711578E-2    5.294617428213284E-2   -3.569449740614627E-2    5.306238585714702E-2   -3.577406771831377E-2    9.473785465348273E-1    3.503716544743520E-2
 2.898305756396023E5     9.477335937621177E-1    3.486879554775858E-2    5.280973344839933E-2   -3.556612733411296E-2    5.292534726466028E-2   -3.564604881943833E-2    9.475398973527215E-1    3.490471303418996E-2
 2.920419431225354E5     9.478685783963273E-1    3.475027578242908E-2    5.267763802718458E-2   -3.544109101976271E-2    5.278210354968159E-2   -3.551977916582471E-2    9.476831326470079E-1    3.478974342240716E-2
 2.942701830356239E5     9.479864206915993E-1    3.461199829505982E-2    5.254892803793136E-2   -3.532194802198826E-2    5.264519238861536E-2   -3.539253099917428E-2    9.478604689460414E-1    3.466841843089854E-2
 2.965154241131938E5     9.481049218183614E-1    3.448293908086635E-2    5.241502010910079E-2   -3.519634421617232E-2    5.250556979052444E-2   -3.526878650862715E-2    9.479991317131256E-1    3.453164231619452E-2
 2.987777960717941E5     9.482596649162569E-1    3.436224531152290E-2    5.227503650193048E-2   -3.507243077308646E-2    5.236366868055939E-2   -3.514146235948082E-2    9.481031329928227E-1    3.439748503761076E-2
 3.010574296176943E5     9.484475771051154E-1    3.424006738714006E-2    5.214127882020705E-2   -3.495155826928564E-2    5.222631438141860E-2   -3.501841700455385E-2    9.482578997363406E-1    3.427282047446450E-2
 3.033544564544337E5     9.485579715386612E-1    3.410968091981297E-2    5.200177961775917E-2   -3.482082402048713E-2    5.209014354339295E-2   -3.489387561998863E-2    9.483933466033584E-1    3.415250428626463E-2
 3.056690092904338E5     9.487093682108271E-1    3.398991395212240E-2    5.186939422392001E-2   -3.470472365579735E-2    5.195150403271305E-2   -3.477405543466202E-2    9.485166602891587E-1    3.402169735899431E-2
 3.080012218466610E5     9.488328223267684E-1    3.389575908776140E-2    5.177147401433689E-2   -3.460888042666924E-2    5.181398196168742E-2   -3.464862696854283E-2    9.486434575185361E-1    3.390666610384150E-2
 3.103512288643551E5     9.489611034244900E-1    3.376946186055193E-2    5.162997192409095E-2   -3.448370156492503E-2    5.167794726686584E-2   -3.452489891467785E-2    9.487861730572155E-1    3.376476221437788E-2
 3.127191661128128E5     9.490780117018391E-1    3.363211308665275E-2    5.149497521891802E-2   -3.436469001799473E-2    5.153919410691719E-2   -3.439859384224518E-2    9.489017020066672E-1    3.363498096328297E-2
 3.151051703972316E5     9.492042938624586E-1    3.352790479574034E-2    5.136425255553353E-2   -3.424227965698772E-2    5.140639523368314E-2   -3.427658853334192E-2    9.490180232449661E-1    3.351167535559446E-2
 3.175093795666154E5     9.493271567528514E-1    3.338183766598648E-2    5.122941006347468E-2   -3.411958261689579E-2    5.127118486780326E-2   -3.415547442632469E-2    9.491745354226188E-1    3.339228096457587E-2
 3.199319325217355E5     9.494747905942351E-1    3.325660237939820E-2    5.109182340544727E-2   -3.400169420699959E-2    5.113523281176630E-2   -3.402816778188737E-2    9.492819789983629E-1    3.326499832740455E-2
 3.223729692231574E5     9.495526152763502E-1    3.312835113670594E-2    5.095832942281524E-2   -3.387580297813630E-2    5.100034832271594E-2   -3.391210671605890E-2    9.494222204926389E-1    3.312938528565199E-2
 3.248326306993267E5     9.497242151157047E-1    3.300766632607130E-2    5.082679809442445E-2   -3.375555872628175E-2    5.087037565743915E-2   -3.378641967820410E-2    9.495914173688936E-1    3.301785452966161E-2
 3.273110590547157E5     9.498459289097755E-1    3.287254726132146E-2    5.069681016182439E-2   -3.363362660245715E-2    5.073972180049588E-2   -3.366771804143870E-2    9.497212517967059E-1    3.288978076148640E-2
 3.298083974780366E5     9.500020662054021E-1    3.276612742842597E-2    5.056144666393304E-2   -3.351075293936842E-2    5.060869596254871E-2   -3.354752741190181E-2    9.498344231209455E-1    3.277065257962680E-2
 3.323247902505097E5     9.501850822618022E-1    3.260851144165969E-2    5.039694979101992E-2   -3.336449556764172E-2    5.047484661879193E-2   -3.342814242270579E-2    9.499632256385047E-1    3.265542799486357E-2
 3.348603827542018E5     9.503055462788869E-1    3.248541367994458E-2    5.024491874049633E-2   -3.324217452888224E-2    5.034676506622328E-2   -3.331093267583091E-2    9.501210369899820E-1    3.252579245391405E-2
 3.374153214804250E5     9.504451403018920E-1    3.235943886585779E-2    5.008011555901536E-2   -3.313430625203038E-2    5.021366561229280E-2   -3.319058890708260E-2    9.502204468917272E-1    3.239857114695789E-2
 3.399897540381991E5     9.505875425660316E-1    3.223620022168504E-2    4.995940310379744E-2   -3.301147950582156E-2    5.008607499972632E-2   -3.306971379852493E-2    9.503909572129646E-1    3.226653276383876E-2
 3.425838291627830E5     9.507308059827002E-1    3.211042407663067E-2    4.982851226721695E-2   -3.289280393585679E-2    4.995624397562327E-2   -3.295300773148523E-2    9.504741276119396E-1    3.215038907428789E-2
 3.451976967242625E5     9.508753732169432E-1    3.200592341655165E-2    4.968341137835963E-2   -3.278499280303776E-2    4.982586565637298E-2   -3.283472348442333E-2    9.506130643670748E-1    3.202898074214947E-2
 3.478315077362126E5     9.509968903168282E-1    3.189008844978613E-2    4.955068824142118E-2   -3.267011907483417E-2    4.969983963856692E-2   -3.271606023945602E-2    9.507335055434415E-1    3.191170098261731E-2
 3.504854143644205E5     9.511132869196300E-1    3.176984430228034E-2    4.941276275318039E-2   -3.256743442757072E-2    4.956759471996964E-2   -3.259773170199732E-2    9.508734555672651E-1    3.178540528959030E-2
 3.531595699356794E5     9.512701804423780E-1    3.163182321049671E-2    4.930808107172023E-2   -3.243433750448099E-2    4.944237302502294E-2   -3.248664049308947E-2    9.510091820833873E-1    3.168034182161195E-2
 3.558541289466428E5     9.513618421657719E-1    3.149508240756935E-2    4.921881302298288E-2   -3.229968055570238E-2    4.931513196866049E-2   -3.236635578259135E-2    9.511417094268922E-1    3.155039300448442E-2
 3.585692470727532E5     9.514700901650910E-1    3.137640355195664E-2    4.908106480207250E-2   -3.218981833013582E-2    4.918958972965287E-2   -3.224910809891268E-2    9.512765533813947E-1    3.143175788736071E-2
 3.613050811772345E5     9.515857099625368E-1    3.126775080125945E-2    4.894603901384999E-2   -3.207620153848784E-2    4.905925923905999E-2   -3.213003188060391E-2    9.513769608805678E-1    3.132208522664084E-2
 3.640617893201578E5     9.517419335271166E-1    3.115515844758380E-2    4.880459157499316E-2   -3.197330313755288E-2    4.893802908526609E-2   -3.202036429303134E-2    9.515249437087868E-1    3.119163900887379E-2
 3.668395307675686E5     9.518621676724907E-1    3.103429419124917E-2    4.868664709849899E-2   -3.185021119738785E-2    4.881375644088611E-2   -3.190427877683562E-2    9.516257062562998E-1    3.106971705732567E-2
 3.696384660006910E5     9.519521206265072E-1    3.091356206844564E-2    4.857102090674353E-2   -3.173602801994864E-2    4.868937256169258E-2   -3.179053412619208E-2    9.517671143809052E-1    3.094071203628202E-2
 3.724587567251991E5     9.520768734323567E-1    3.078646537775221E-2    4.845882871466699E-2   -3.161851319340524E-2    4.856813068027874E-2   -3.167968038629516E-2    9.518675019436039E-1    3.083484810729890E-2
 3.753005658805580E5     9.522037838355007E-1    3.065844916085290E-2    4.833807219190961E-2   -3.150686344161686E-2    4.843966232346084E-2   -3.156656779758690E-2    9.519862912446154E-1    3.072634873827206E-2
 3.781640576494411E5     9.523337194824892E-1    3.056786715105959E-2    4.819999115109859E-2   -3.139965973885964E-2    4.831654182403013E-2   -3.145476792884128E-2    9.521264158384041E-1    3.059747712770018E-2
 3.810493974672107E5     9.524841483288889E-1    3.044120063077660E-2    4.806944437752763E-2   -3.128973440376925E-2    4.819666569158582E-2   -3.134063714468216E-2    9.522388130798880E-1    3.049813358445373E-2
 3.839567520314787E5     9.525860910324013E-1    3.032871059258526E-2    4.793848136836171E-2   -3.118509440110691E-2    4.807094864293978E-2   -3.123045983305683E-2    9.523839371058834E-1    3.035971255167031E-2
 3.868862893117373E5     9.526946027551649E-1    3.021269125006399E-2    4.783296281394966E-2   -3.106779025775385E-2    4.795349369599619E-2   -3.112108560806220E-2    9.525065477608760E-1    3.024166298303752E-2
 3.898381785590618E5     9.528047957433684E-1    3.008447687424782E-2    4.773107691314488E-2   -3.095413136802011E-2    4.783027109455196E-2   -3.100859048564312E-2    9.526210576196771E-1    3.014037554825835E-2
 3.928125903158922E5     9.528755482878920E-1    2.999433224490372E-2    4.765747275437317E-2   -3.086686469599052E-2    4.770806320695134E-2   -3.089766677667610E-2    9.526995414075267E-1    3.002947237681718E-2
 3.958096964258819E5     9.529965578148207E-1    2.989430093781371E-2    4.754806766545080E-2   -3.077196028895811E-2    4.758648780834183E-2   -3.078739692445508E-2    9.528192221175208E-1    2.990016652968101E-2
 3.988296700438284E5     9.531289106741310E-1    2.977311357398155E-2    4.743010878667214E-2   -3.066660095225424E-2    4.746586556618201E-2   -3.067971662468498E-2    9.529590760073886E-1    2.978359151947364E-2
 4.018726856456762E5     9.532740413186782E-1    2.966460672140206E-2    4.730872989804093E-2   -3.055725144999488E-2    4.734871105622625E-2   -3.057089675972495E-2    9.530793891935402E-1    2.966916447557749E-2
 4.049389190385970E5     9.533553402524449E-1    2.955576262759837E-2    4.718857892646641E-2   -3.044904886774792E-2    4.722607441657528E-2   -3.046300555127665E-2    9.531972062388266E-1    2.955346702334567E-2
 4.080285473711492E5     9.534187801905784E-1    2.943216887797445E-2    4.706562489605785E-2   -3.033871400913982E-2    4.710666523258338E-2   -3.035522115787702E-2    9.533246757477232E-1    2.944187788873369E-2
 4.111417491435081E5     9.535733100708966E-1    2.930400913407028E-2    4.692507566945076E-2   -3.021414570436360E-2    4.698915349920327E-2   -3.024406816221694E-2    9.534184506871765E-1    2.933244430837842E-2
 4.142787042177814E5     9.537394777012839E-1    2.917289701869183E-2    4.678907390188784E-2   -3.009154469274622E-2    4.687029261499571E-2   -3.014080593504904E-2    9.535424125919510E-1    2.920724886358735E-2
 4.174395938283992E5     9.538795594335449E-1    2.906113362575501E-2    4.665507879414900E-2   -2.998286004252853E-2    4.674974498468389E-2   -3.003099857937795E-2    9.536582518716459E-1    2.910179478636611E-2
 4.206246005925882E5     9.540213702898690E-1    2.894387506898159E-2    4.652721842167407E-2   -2.987914678364792E-2    4.663410928495184E-2   -2.992556661702987E-2    9.538076807774127E-1    2.898298159886210E-2
 4.238339085209167E5     9.541053843733204E-1    2.883774605459080E-2    4.643480150831177E-2   -2.977657302221002E-2    4.651320631800920E-2   -2.982015113286746E-2    9.539159928626487E-1    2.889431810218100E-2
 4.270677030279291E5     9.542016369873971E-1    2.872743540292834E-2    4.631668515296379E-2   -2.967097163700932E-2    4.639476008439032E-2   -2.971373126404494E-2    9.540078870467147E-1    2.877483157613266E-2
 4.303261709428567E5     9.543220291035126E-1    2.862498511750188E-2    4.622038081447103E-2   -2.958031324631339E-2    4.627901976150103E-2   -2.960734169484609E-2    9.541045744630334E-1    2.865106742111240E-2
 4.336095005204146E5     9.544584324778694E-1    2.850756157694774E-2    4.610732489887527E-2   -2.947909204854577E-2    4.616291388388452E-2   -2.950139483256710E-2    9.542498033863731E-1    2.855023851566426E-2
 4.369178814516730E5     9.545791547681196E-1    2.841079971046310E-2    4.598616302883685E-2   -2.937121578291765E-2    4.604649347079572E-2   -2.940155530899147E-2    9.543947567438101E-1    2.842785693349323E-2
 4.402515048750198E5     9.547034369429691E-1    2.830022583125415E-2    4.586828996879205E-2   -2.927142559290417E-2    4.592669867898122E-2   -2.929594803188997E-2    9.545147908502637E-1    2.832323142895167E-2
 4.436105633872023E5     9.548151846861833E-1    2.818249946078722E-2    4.575404514427228E-2   -2.916580973610796E-2    4.581147673515044E-2   -2.918725259695908E-2    9.546178641846285E-1    2.821449185386328E-2
 4.469952510544541E5     9.549148161709111E-1    2.807724938192998E-2    4.563944882577193E-2   -2.906301586739532E-2    4.569162868277785E-2   -2.908447814304469E-2    9.547461928660939E-1    2.811537499713758E-2
 4.504057634237097E5     9.550302689869166E-1    2.796222351873655E-2    4.551809455474945E-2   -2.895665989252256E-2    4.557378687727373E-2   -2.897983991876155E-2    9.548649146277913E-1    2.799694929424286E-2
 4.538422975338975E5     9.551130654473780E-1    2.784825383921566E-2    4.540149327870677E-2   -2.885032292537395E-2    4.546113839291394E-2   -2.887699631819084E-2    9.549860444496749E-1    2.789131643770722E-2
 4.573050519273265E5     9.552212764348469E-1    2.773376795684534E-2    4.528464774994623E-2   -2.875306821625358E-2    4.534454987418798E-2   -2.877444534523122E-2    9.550871539480845E-1    2.777664112936011E-2
 4.607942266611566E5     9.553951514468525E-1    2.762938130974626E-2    4.517130291877700E-2   -2.864752516930573E-2    4.523098825381402E-2   -2.867121816096406E-2    9.551956759743468E-1    2.765847655721847E-2
 4.643100233189550E5     9.554999637541213E-1    2.751726013576120E-2    4.505616373921219E-2   -2.854249328825484E-2    4.511561333868793E-2   -2.856826136958464E-2    9.553338674750081E-1    2.755245134583688E-2
 4.678526450223470E5     9.555912958943136E-1    2.739542814087729E-2    4.493364006933274E-2   -2.843313316465332E-2    4.500250971060975E-2   -2.846633361518951E-2    9.554525372636660E-1    2.744284232170076E-2
 4.714222964427450E5     9.557181893279975E-1    2.727943761685208E-2    4.481039164604914E-2   -2.832036374110264E-2    4.488468641775420E-2   -2.836392679426878E-2    9.555563097947789E-1    2.734006231845708E-2
 4.750191838131770E5     9.558345268288166E-1    2.716777699411580E-2    4.467723639136864E-2   -2.821342384917625E-2    4.477220840072678E-2   -2.826217558769679E-2    9.556436596057325E-1    2.722189552200070E-2
 4.786435149402010E5     9.559432542757991E-1    2.706929092801582E-2    4.458118531156695E-2   -2.812002319926278E-2    4.465597675921586E-2   -2.815791523016354E-2    9.557738920947445E-1    2.710986238873477E-2
 4.822954992159092E5     9.560344077147588E-1    2.697740942887522E-2    4.449014271504020E-2   -2.803801241641229E-2    4.454350230963520E-2   -2.805378598236816E-2    9.558391885801540E-1    2.699600454286180E-2
 4.859753476300298E5     9.561306992490215E-1    2.686625968163304E-2    4.437666732768833E-2   -2.793279754180228E-2    4.442922026620755E-2   -2.795466717897996E-2    9.559575746594440E-1    2.688516585178397E-2
 4.896832727821107E5     9.562706292959745E-1    2.675877072573713E-2    4.426355325679113E-2   -2.783718410786401E-2    4.431527350359172E-2   -2.785001412461316E-2    9.560766729222990E-1    2.679684430678744E-2
 4.934194888938060E5     9.563591321427911E-1    2.664473281232215E-2    4.415445120715370E-2   -2.773321111509967E-2    4.420496295185904E-2   -2.775055578067412E-2    9.562160227366880E-1    2.667981065473254E-2
 4.971842118212518E5     9.564344484231849E-1    2.654667162220374E-2    4.403774448373810E-2   -2.763428437098371E-2    4.409469925880116E-2   -2.764852334946461E-2    9.563236195838567E-1    2.658384159386103E-2
 5.009776590675358E5     9.565615293520493E-1    2.642470945293927E-2    4.393112518889590E-2   -2.753123518059070E-2    4.397909383927660E-2   -2.754868589150765E-2    9.564098007543418E-1    2.644773351972870E-2
 5.048000497952673E5     9.566985943178885E-1    2.631076457049978E-2    4.382083129234449E-2   -2.742915275781949E-2    4.387203425685372E-2   -2.744964588130807E-2    9.565622638124290E-1    2.634503914496686E-2
 5.086516048392332E5     9.568568116811295E-1    2.619855320137341E-2    4.371160928695314E-2   -2.732895105110625E-2    4.376040329912610E-2   -2.734595099431740E-2    9.566460899832180E-1    2.623746806296297E-2
 5.125325467191607E5     9.569023984929761E-1    2.609497102739707E-2    4.359973151173714E-2   -2.722537185402981E-2    4.364940942777120E-2   -2.724341431712056E-2    9.567241233972700E-1    2.613851949806171E-2
 5.164430996525706E5     9.570005586923691E-1    2.599187450733096E-2    4.348716341746982E-2   -2.712336514122536E-2    4.354373833579972E-2   -2.715162683622802E-2    9.568735543154037E-1    2.603795654965402E-2
 5.203834895677360E5     9.571410232849361E-1    2.587377296068829E-2    4.338783368691736E-2   -2.702657970765362E-2    4.343269528360681E-2   -2.704696294918505E-2    9.569572777427998E-1    2.592900958567855E-2
 5.243539441167285E5     9.572353189483502E-1    2.575947170653696E-2    4.327455654726256E-2   -2.692638657808670E-2    4.332044271130034E-2   -2.694550024135696E-2    9.570845656144468E-1    2.580564760948932E-2
 5.283546926885745E5     9.573508046192023E-1    2.562881718384062E-2    4.314270681993450E-2   -2.680047863748457E-2    4.321156202016000E-2   -2.684382205998175E-2    9.571662419909316E-1    2.570445079324976E-2
 5.323859664225065E5     9.574650686873654E-1    2.552714195709480E-2    4.303506003557853E-2   -2.669967321384397E-2    4.310256125721731E-2   -2.674253570188545E-2    9.572739374346615E-1    2.559416192574442E-2
 5.364479982213206E5     9.575453110432497E-1    2.541350646063240E-2    4.292778845948134E-2   -2.659906764891554E-2    4.299542858562855E-2   -2.664349220597643E-2    9.573658180926696E-1    2.546829347064438E-2
 5.405410227648258E5     9.576607945668522E-1    2.531798113466125E-2    4.282502083139861E-2   -2.650431323939179E-2    4.289255849316165E-2   -2.654646389133221E-2    9.574751511379096E-1    2.537913372866552E-2
 5.446652765234077E5     9.577211706216643E-1    2.519698028790617E-2    4.271711319401672E-2   -2.640206294058495E-2    4.278421230194684E-2   -2.644712573458550E-2    9.576317426743600E-1    2.526045221263613E-2
 5.488209977716873E5     9.578706781798341E-1    2.508997622454735E-2    4.261111245594015E-2   -2.630147580039611E-2    4.268085540833623E-2   -2.634806052227727E-2    9.577185262563762E-1    2.515598148500653E-2
 5.530084266022880E5     9.579732923683004E-1    2.498766641957482E-2    4.250176513324359E-2   -2.619893262450066E-2    4.257482480807992E-2   -2.624933707498392E-2    9.578046864203995E-1    2.506328030945050E-2
 5.572278049397101E5     9.580841071302317E-1    2.487307274728149E-2    4.240201949106120E-2   -2.610642445806850E-2    4.247051567175664E-2   -2.615202694605639E-2    9.579163605790371E-1    2.494590249194434E-2
 5.614793765543010E5     9.581701565262518E-1    2.475237185534977E-2    4.230075795694800E-2   -2.601112417995769E-2    4.237172550422744E-2   -2.605741531739296E-2    9.580344341176265E-1    2.483832653240520E-2
 5.657633870763436E5     9.583094268422492E-1    2.465282314358536E-2    4.219707422562433E-2   -2.591210205140648E-2    4.226412475948416E-2   -2.595506154144905E-2    9.581261432605515E-1    2.471983598210170E-2
 5.700800840102463E5     9.584135349554085E-1    2.456756007552773E-2    4.209590991500201E-2   -2.581076075150299E-2    4.216229730575357E-2   -2.586060912227636E-2    9.582308884670711E-1    2.461611764015501E-2
 5.744297167488408E5     9.584788097972632E-1    2.446876312093826E-2    4.199135259984495E-2   -2.571759987346096E-2    4.205703033816725E-2   -2.576084561448383E-2    9.583214847685860E-1    2.451977511932085E-2
 5.788125365877954E5     9.585880856010930E-1    2.434856403690419E-2    4.188739647589657E-2   -2.562070426403541E-2    4.195800993040742E-2   -2.566875422965938E-2    9.584192799428496E-1    2.443206534777699E-2
 5.832287967401261E5     9.586969280283948E-1    2.424406642615049E-2    4.178520039981599E-2   -2.551896648760117E-2    4.185738437131132E-2   -2.557408700312296E-2    9.585275308502207E-1    2.432313622106939E-2
 5.876787523508312E5     9.587930208462880E-1    2.416104137336162E-2    4.170203803309069E-2   -2.544285135544719E-2    4.175400589812685E-2   -2.547093983750861E-2    9.585850436214641E-1    2.420975751853115E-2
 5.921626605116295E5     9.589025218912889E-1    2.404277977753444E-2    4.160740559870142E-2   -2.535297699938915E-2    4.165376702187654E-2   -2.537988543053662E-2    9.586969554046920E-1    2.410780770553064E-2
 5.966807802758140E5     9.589776278245449E-1    2.393511950811316E-2    4.150986817647996E-2   -2.526083872463554E-2    4.155374748535905E-2   -2.528435208070771E-2    9.588443894924880E-1    2.401071716941085E-2
 6.012333726732214E5     9.590995964556337E-1    2.382847025166697E-2    4.140384804430170E-2   -2.515658844193450E-2    4.145703294171126E-2   -2.519203231032010E-2    9.588972601134955E-1    2.390032994001857E-2
 6.058207007253073E5     9.591866688926238E-1    2.372680100728636E-2    4.129549084322876E-2   -2.505102253003207E-2    4.135537118124372E-2   -2.509757894997284E-2    9.589688333080892E-1    2.380698913497678E-2
 6.104430294603459E5     9.592836863826892E-1    2.361738651376640E-2    4.119905152078853E-2   -2.495651573166737E-2    4.125951264961857E-2   -2.500309659262141E-2    9.590632265624577E-1    2.370710361912425E-2
 6.151006259287392E5     9.593711321479531E-1    2.355438691015014E-2    4.111398933164304E-2   -2.488455678866754E-2    4.115653761649967E-2   -2.490746672274698E-2    9.592138430405862E-1    2.361146511520332E-2
 6.197937592184512E5     9.594458247042925E-1    2.345094652428137E-2    4.101698323663105E-2   -2.479163974037788E-2    4.106107660238724E-2   -2.482120248523016E-2    9.592921088080359E-1    2.348995269228596E-2
 6.245227004705463E5     9.595476678877092E-1    2.335358017745894E-2    4.092319767503942E-2   -2.470169277305615E-2    4.096258798561987E-2   -2.472677725190915E-2    9.593698908529881E-1    2.339174623190874E-2
 6.292877228948588E5     9.596428623438003E-1    2.324752991523266E-2    4.082670908278185E-2   -2.460600890731052E-2    4.086518560974162E-2   -2.463160953161969E-2    9.594420519716071E-1    2.329759183180534E-2
 6.340891017857760E5     9.597521229049290E-1    2.314547128947475E-2    4.073095536015672E-2   -2.452076832035712E-2    4.077057989757499E-2   -2.454110534187360E-2    9.595402485507335E-1    2.320663445475573E-2
 6.389271145381465E5     9.598074329401448E-1    2.304790207054899E-2    4.063087444400531E-2   -2.442745362389458E-2    4.067349104919198E-2   -2.445027815080901E-2    9.596565845971405E-1    2.308836987063293E-2
 6.438020406633007E5     9.598998534532389E-1    2.295373364860892E-2    4.053718158700870E-2   -2.433596235170456E-2    4.057543170869911E-2   -2.436095411443284E-2    9.597243670779534E-1    2.298164310067502E-2
 6.487141618052023E5     9.600081628401436E-1    2.285248747985269E-2    4.044120210164986E-2   -2.424860474259180E-2    4.048058713720151E-2   -2.427064828323443E-2    9.598305264847538E-1    2.288688455410017E-2
 6.536637617567203E5     9.600927436788872E-1    2.274858864030667E-2    4.034630519599132E-2   -2.415731126870102E-2    4.038395099585879E-2   -2.418456543236914E-2    9.599866841459668E-1    2.277857644397882E-2
 6.586511264760230E5     9.601837856353116E-1    2.266727390282919E-2    4.024951619622138E-2   -2.407008613333558E-2    4.028931322258741E-2   -2.409154421688132E-2    9.600384628621654E-1    2.268877969095818E-2
 6.636765441031042E5     9.602703754933096E-1    2.255210318376831E-2    4.015449681171414E-2   -2.398050906409257E-2    4.019417506728064E-2   -2.400470133570238E-2    9.601784063840922E-1    2.258744224065289E-2
 6.687403049764220E5     9.603647873061063E-1    2.244502186371546E-2    4.006240015533143E-2   -2.389310254193824E-2    4.010341954533060E-2   -2.391927677775225E-2    9.602639388232695E-1    2.249394692836093E-2
 6.738427016496789E5     9.604530232536815E-1    2.236732226026398E-2    3.996760858338994E-2   -2.380284513013995E-2    4.000196924239259E-2   -2.382885972203102E-2    9.603406159404662E-1    2.239392965623211E-2
 6.789840289087215E5     9.605075860498377E-1    2.227035887113626E-2    3.987118407857161E-2   -2.371547703534460E-2    3.990803687484210E-2   -2.374075972898828E-2    9.604365519705480E-1    2.230610909247099E-2
 6.841645837885707E5     9.606381449414395E-1    2.216792444038845E-2    3.977882307813033E-2   -2.363277787148096E-2    3.981683706418302E-2   -2.365617999414277E-2    9.605561954720020E-1    2.220917463383133E-2
 6.893846655905881E5     9.607813179945565E-1    2.206762630075419E-2    3.968595371415056E-2   -2.354187622713283E-2    3.972385781696205E-2   -2.357158104627396E-2    9.606394486803543E-1    2.211192318937379E-2
 6.946445758997592E5     9.608221826906559E-1    2.198196989308101E-2    3.959057374847366E-2   -2.345888795935042E-2    3.962790137041090E-2   -2.348435371272668E-2    9.607854500750679E-1    2.198896962839723E-2
 6.999446186021230E5     9.608915303911746E-1    2.188137703493511E-2    3.949966031927468E-2   -2.337376730657781E-2    3.953592147621698E-2   -2.339924578171446E-2    9.608478918418202E-1    2.189200853113004E-2
 7.052850999023273E5     9.610307160744009E-1    2.176933099402402E-2    3.940145896053803E-2   -2.328793451197493E-2    3.944029640828148E-2   -2.330947777805261E-2    9.609120714052661E-1    2.181642191767058E-2
 7.106663283413178E5     9.611192691224963E-1    2.168619148323638E-2    3.930947973158083E-2   -2.320358492167595E-2    3.934564426042633E-2   -2.322703433106236E-2    9.610097208032932E-1    2.173172830244264E-2
 7.160886148141696E5     9.612333040433773E-1    2.156971868040821E-2    3.921482222860644E-2   -2.311964582725028E-2    3.925567380439991E-2   -2.314390503585545E-2    9.610956915251520E-1    2.162635254787634E-2
 7.215522725880400E5     9.612993298582724E-1    2.148304609624531E-2    3.912328724547714E-2   -2.303481110887659E-2    3.916380104548948E-2   -2.305897479698818E-2    9.611634897144911E-1    2.153669713087550E-2
 7.270576173202734E5     9.614001106750347E-1    2.138613811173734E-2    3.902778435558955E-2   -2.294810029191090E-2    3.906722366746439E-2   -2.297682188580780E-2    9.612558861384687E-1    2.144931867985607E-2
 7.326049670766364E5     9.614619270388007E-1    2.129113031017706E-2    3.893940898580373E-2   -2.286693529092480E-2    3.897624883055500E-2   -2.289372300605040E-2    9.613994031527963E-1    2.133881395162351E-2
 7.381946423496918E5     9.615419387516883E-1    2.120837338819664E-2    3.884453187324657E-2   -2.278067548960617E-2    3.888021698546956E-2   -2.280604858031838E-2    9.614802033323882E-1    2.125330208218808E-2
 7.438269660773217E5     9.616567016424051E-1    2.110991562467008E-2    3.875042585846893E-2   -2.270012119466453E-2    3.878648310366098E-2   -2.272285990443175E-2    9.615566322707104E-1    2.115916584394043E-2
 7.495022636613748E5     9.617578709641871E-1    2.101579939891687E-2    3.865837506266465E-2   -2.261692041894765E-2    3.869300318554798E-2   -2.263993696095186E-2    9.616504304708269E-1    2.105053350660403E-2
 7.552208629864733E5     9.618220749221600E-1    2.092240538757228E-2    3.856844530490747E-2   -2.253605899919811E-2    3.860333963028977E-2   -2.255682596724187E-2    9.617490946456468E-1    2.094421333703893E-2
 7.609830944389519E5     9.618929572414742E-1    2.082562169857862E-2    3.847498353887218E-2   -2.244893594779166E-2    3.850696053903957E-2   -2.247360832261908E-2    9.618085184356054E-1    2.087227439665683E-2
 7.667892909259528E5     9.620074961644002E-1    2.073101433007939E-2    3.838041036720400E-2   -2.236563909018553E-2    3.841732442412130E-2   -2.239390385170275E-2    9.619129672820624E-1    2.079553871128615E-2
 7.726397878946491E5     9.621016343584404E-1    2.063562851599086E-2    3.829119519868883E-2   -2.228390169156556E-2    3.831944883474170E-2   -2.230906188870044E-2    9.619716580103881E-1    2.072707053961828E-2
 7.785349233516312E5     9.622025738788207E-1    2.052962258329303E-2    3.819819230528199E-2   -2.220062404971282E-2    3.823205629415324E-2   -2.222147956636319E-2    9.620531643646381E-1    2.063067248864375E-2
 7.844750378824320E5     9.622485535910709E-1    2.047105815295481E-2    3.810236890914312E-2   -2.211564784941221E-2    3.813675233769436E-2   -2.214139086452160E-2    9.621605519707324E-1    2.052593877942508E-2
 7.904604746712097E5     9.623457246730154E-1    2.036655808631149E-2    3.801071265584754E-2   -2.203625830397647E-2    3.804907431648710E-2   -2.205870886101519E-2    9.622628715309474E-1    2.041090927031411E-2
 7.964915795205662E5     9.624403188884508E-1    2.026060182939217E-2    3.791905528405805E-2   -2.195458319521863E-2    3.795507816353420E-2   -2.197653592581731E-2    9.623653968045153E-1    2.032595827943074E-2
 8.025687008715309E5     9.625188264962167E-1    2.015758838238327E-2    3.782842744460516E-2   -2.187177071077235E-2    3.786329863236038E-2   -2.189618263391703E-2    9.624285953185240E-1    2.022744207090194E-2
 8.086921898236905E5     9.626212117898171E-1    2.008073747402410E-2    3.774107720951037E-2   -2.178776342501415E-2    3.777113115973955E-2   -2.181104493728157E-2    9.625193660203804E-1    2.013987356855087E-2
 8.148624001554718E5     9.627180727627459E-1    1.997956342941980E-2    3.764939879415621E-2   -2.170454200631865E-2    3.768295878553606E-2   -2.172538149478074E-2    9.626267161843327E-1    2.003951545717356E-2
 8.210796883445872E5     9.628194629039674E-1    1.987558037562364E-2    3.755862493654381E-2   -2.162162086406052E-2    3.759069212795210E-2   -2.164479015227825E-2    9.626748448617245E-1    1.995986173280568E-2
 8.273444135886204E5     9.628705536183805E-1    1.979448225232266E-2    3.746814829157398E-2   -2.154097495018535E-2    3.749681042527179E-2   -2.156280370300274E-2    9.627665846650818E-1    1.986345257271052E-2
 8.336569378257846E5     9.629842993912492E-1    1.968262371141035E-2    3.738257939469573E-2   -2.145835287467841E-2    3.741004390995842E-2   -2.147984180757711E-2    9.628930037052879E-1    1.975785174761563E-2
 8.400176257558319E5     9.630877643157157E-1    1.955442245955065E-2    3.728855100856676E-2   -2.137699966770699E-2    3.732446339098604E-2   -2.140224192052248E-2    9.630044798769851E-1    1.963707641544408E-2
 8.464268448611222E5     9.631763475720955E-1    1.948362694949130E-2    3.720274645458115E-2   -2.129120010682435E-2    3.723693678780266E-2   -2.131695235606364E-2    9.630606491571706E-1    1.953588191172258E-2
 8.528849654278599E5     9.633206110216888E-1    1.937544894302647E-2    3.711470216225128E-2   -2.121038633989580E-2    3.714425815231346E-2   -2.123332232536131E-2    9.631448423620649E-1    1.946517745340936E-2
 8.593923605674774E5     9.633755920373804E-1    1.925398137349164E-2    3.702695186384845E-2   -2.112991286188385E-2    3.705736987073736E-2   -2.115196319072237E-2    9.632250463730602E-1    1.936305943748126E-2
 8.659494062381978E5     9.634615938402926E-1    1.917883608696788E-2    3.694053892620571E-2   -2.104783300192013E-2    3.696792786900530E-2   -2.106823176461620E-2    9.633231535444784E-1    1.927679820088114E-2
 8.725564812667536E5     9.635463955548360E-1    1.904197985602957E-2    3.685446136673955E-2   -2.096304678314647E-2    3.688008837475848E-2   -2.098775461702005E-2    9.633918370088821E-1    1.920613031823398E-2
 8.792139673702718E5     9.636063341278939E-1    1.898905759591500E-2    3.676663119813549E-2   -2.088023830942769E-2    3.679456099677381E-2   -2.090675593423702E-2    9.634425885882556E-1    1.914039541412502E-2
 8.859222491783336E5     9.636851374226056E-1    1.890542067369670E-2    3.667751167784326E-2   -2.079960524203684E-2    3.670785417129994E-2   -2.082027725249087E-2    9.634864342355057E-1    1.904720165477346E-2
 8.926817142551860E5     9.637709718199593E-1    1.880872885957574E-2    3.659281080355844E-2   -2.071828455655065E-2    3.662652874343859E-2   -2.074371608432830E-2    9.636149055166364E-1    1.893458636968883E-2
 8.994927531221397E5     9.638150135702566E-1    1.871218603630957E-2    3.651057864640023E-2   -2.063679759206093E-2    3.653711903616268E-2   -2.066580635894409E-2    9.637253344032652E-1    1.883391320993695E-2
 9.063557592801275E5     9.639329000864655E-1    1.861763328251658E-2    3.642392618414829E-2   -2.055399044481661E-2    3.645554630933418E-2   -2.058002615319828E-2    9.637980610931076E-1    1.874053492425248E-2
 9.132711292324457E5     9.640125083712241E-1    1.851830966712515E-2    3.634112575629757E-2   -2.047514126440812E-2    3.637080118315414E-2   -2.050114262329836E-2    9.638935970899728E-1    1.864544666970461E-2
 9.202392625076511E5     9.640998564524922E-1    1.842817240012847E-2    3.625868306575415E-2   -2.039435724602114E-2    3.628587789860626E-2   -2.041873110091038E-2    9.639749318417963E-1    1.857240223935179E-2
 9.272605616826499E5     9.641347737387767E-1    1.833928914650875E-2    3.617471123963003E-2   -2.031237118595254E-2    3.620624669706861E-2   -2.033872735944152E-2    9.640467541717580E-1    1.845502526854056E-2
 9.343354324059531E5     9.642533931891698E-1    1.822444950364937E-2    3.609323810507500E-2   -2.023732062661651E-2    3.612068421451504E-2   -2.025897476775867E-2    9.641303112472809E-1    1.836456467150907E-2
 9.414642834211199E5     9.643152639815130E-1    1.816781834008207E-2    3.600985889821263E-2   -2.015414338146865E-2    3.603628825336991E-2   -2.017712675030682E-2    9.641806660332862E-1    1.824934571726238E-2
 9.486475265903610E5     9.644124987660690E-1    1.806985793496905E-2    3.592761826872428E-2   -2.007258967717195E-2    3.595667767561797E-2   -2.010038306078270E-2    9.642781155002751E-1    1.818176019576020E-2
 9.558855769183410E5     9.645069198422718E-1    1.794520862710969E-2    3.584676021648590E-2   -1.999694572242713E-2    3.587440669612792E-2   -2.001786789260508E-2    9.643439268363810E-1    1.809361688188044E-2
 9.631788525761530E5     9.645794020625891E-1    1.783697048328775E-2    3.576397274606810E-2   -1.991675175562194E-2    3.579220082349797E-2   -1.994000922733905E-2    9.644320103013199E-1    1.801419596007849E-2
 9.705277749254764E5     9.646210224716143E-1    1.777835533263223E-2    3.568260930013462E-2   -1.984087275243403E-2    3.570952819769303E-2   -1.986441758111144E-2    9.645134992926639E-1    1.790211730934124E-2
 9.779327685429282E5     9.646834883085335E-1    1.770192476279315E-2    3.560361100462019E-2   -1.976106390166937E-2    3.562818551168724E-2   -1.978216851857689E-2    9.645779180064725E-1    1.783152556991578E-2
 9.853942612445805E5     9.647951724377377E-1    1.759718013958407E-2    3.552201703654858E-2   -1.968104274997177E-2    3.554935484268152E-2   -1.970674837823888E-2    9.646558381869303E-1    1.772346629078668E-2
 9.929126841106854E5     9.648787651982502E-1    1.750604259580082E-2    3.544278073818542E-2   -1.960393890415198E-2    3.546704788600755E-2   -1.963028050379437E-2    9.647288636460407E-1    1.762803751551114E-2
 1.000488471510578E6     9.649713288583613E-1    1.742393789511179E-2    3.536610854246696E-2   -1.952846414708240E-2    3.539133082595326E-2   -1.955091985617940E-2    9.648014718180271E-1    1.750296272041680E-2
 1.008122061127771E6     9.650327926434331E-1    1.733174715668439E-2    3.528805850175798E-2   -1.945372010873500E-2    3.530933385926321E-2   -1.947741717950100E-2    9.649098134145159E-1    1.741849281417795E-2
 1.015813893985245E6     9.651167348103729E-1    1.723212619144761E-2    3.520598353783997E-2   -1.937605951582198E-2    3.522927656600609E-2   -1.940091806607055E-2    9.649892923569710E-1    1.734081546204982E-2
 1.023564414470923E6     9.651969131188904E-1    1.711780519575510E-2    3.512636175585366E-2   -1.930295443814758E-2    3.515296769584018E-2   -1.932528257620205E-2    9.650599489572395E-1    1.727722108915934E-2
 1.031374070363347E6     9.652636992977772E-1    1.702300389891032E-2    3.505029012131380E-2   -1.922924902676013E-2    3.507223641601061E-2   -1.925229479608821E-2    9.651246122983410E-1    1.718069985702913E-2
 1.039243312857548E6     9.653461388604584E-1    1.692268449531482E-2    3.497030569335378E-2   -1.915405127072590E-2    3.499532743935885E-2   -1.917443693102822E-2    9.652220541302439E-1    1.709807084765082E-2
 1.047172596591111E6     9.654208295558698E-1    1.682696517390892E-2    3.489361363760494E-2   -1.907878462103113E-2    3.491470260335234E-2   -1.910100880847508E-2    9.652941660079333E-1    1.699277083041279E-2
 1.055162379670449E6     9.654967416138694E-1    1.674201460306931E-2    3.481434763712549E-2   -1.900144301837535E-2    3.483775090873103E-2   -1.902693081775150E-2    9.653722256023098E-1    1.689659341445919E-2
 1.063213123697260E6     9.655964721022539E-1    1.667840369924644E-2    3.473637779863709E-2   -1.892865302322894E-2    3.476088782894806E-2   -1.895496400400887E-2    9.654352879506120E-1    1.681975629378108E-2
 1.071325293795198E6     9.656692113792483E-1    1.658258791079796E-2    3.465920648321202E-2   -1.885464269968713E-2    3.468512616060145E-2   -1.887869539767871E-2    9.655447974161516E-1    1.670694383221959E-2
 1.079499358636750E6     9.657442575855406E-1    1.644544128990304E-2    3.457839477500053E-2   -1.878284394135216E-2    3.460341564349253E-2   -1.880920706580793E-2    9.656507966320163E-1    1.660336662044272E-2
 1.087735790470306E6     9.657936256573626E-1    1.639781229161460E-2    3.450105860515114E-2   -1.870781036104126E-2    3.452530978100624E-2   -1.873424070579452E-2    9.657059628301561E-1    1.652844660788423E-2
 1.096035065147453E6     9.658401367397924E-1    1.633222118127650E-2    3.442544916649174E-2   -1.863895620408415E-2    3.444292536541876E-2   -1.866073486551222E-2    9.657960718322657E-1    1.642067753410049E-2
 1.104397662150453E6     9.658930460692292E-1    1.624487054295978E-2    3.434485875508837E-2   -1.856586799069513E-2    3.436446133299415E-2   -1.858890943149596E-2    9.658390543056837E-1    1.631965314465138E-2
 1.112824064619953E6     9.659637671741247E-1    1.615383416603439E-2    3.426484148106191E-2   -1.849293415451220E-2    3.428880899783862E-2   -1.851765541948370E-2    9.659277803661851E-1    1.622169349660471E-2
 1.121314759382903E6     9.660633845473253E-1    1.607247946491835E-2    3.418872282744113E-2   -1.841764908512232E-2    3.421444215774651E-2   -1.844293515727747E-2    9.659718911079201E-1    1.614090711030143E-2
 1.129870236980669E6     9.661716203180165E-1    1.598079729534441E-2    3.407579628413599E-2   -1.832004487617764E-2    3.412999749965398E-2   -1.837341080516106E-2    9.660486867227350E-1    1.606715442253492E-2
 1.138490991697383E6     9.662605229376516E-1    1.587732893485655E-2    3.396346093970123E-2   -1.823656695625446E-2    3.405126578845387E-2   -1.829629660789675E-2    9.661094065373683E-1    1.598381462439730E-2
 1.147177521588496E6     9.663461333000543E-1    1.580949487446472E-2    3.388807059147412E-2   -1.816536958901724E-2    3.397585135680798E-2   -1.822066850976823E-2    9.662079599395303E-1    1.588324594299908E-2
 1.155930328509552E6     9.664380667327053E-1    1.572418321999217E-2    3.380931638298571E-2   -1.809706978314748E-2    3.389656074115551E-2   -1.814934661729252E-2    9.662609419323958E-1    1.583144470057983E-2
 1.164749918145190E6     9.665165456817513E-1    1.560472961714047E-2    3.373886768934974E-2   -1.802324290645671E-2    3.381842357466348E-2   -1.807871569429139E-2    9.663546375638944E-1    1.573306657278180E-2
 1.173636800038349E6     9.665607277710658E-1    1.550349448091066E-2    3.365981439573969E-2   -1.795087812740920E-2    3.374090391051547E-2   -1.800964469281075E-2    9.664362343046179E-1    1.559570817821675E-2
 1.182591487619709E6     9.666688154499872E-1    1.540219159014752E-2    3.358693420653474E-2   -1.787927287734239E-2    3.366386916886501E-2   -1.793495789062696E-2    9.664997186908361E-1    1.552058980933055E-2
 1.191614498237359E6     9.667205194540105E-1    1.531784027551984E-2    3.351293534169647E-2   -1.780935042206566E-2    3.358296958657356E-2   -1.786048062230320E-2    9.665722643501699E-1    1.541086066580341E-2
 1.200706353186678E6     9.667219194140634E-1    1.527666391129218E-2    3.349252269478061E-2   -1.776505670804207E-2    3.350674488754011E-2   -1.779040632454748E-2    9.666452806863859E-1    1.533621917974215E-2
 1.209867577740467E6     9.667977240557136E-1    1.516666883461550E-2    3.341407245272962E-2   -1.769872676391615E-2    3.342967345258014E-2   -1.771508066326481E-2    9.666897912107614E-1    1.527657016551118E-2
 1.219098701179276E6     9.668772896342964E-1    1.509361400202928E-2    3.333839543586871E-2   -1.762257115633105E-2    3.335313952877250E-2   -1.764376424112269E-2    9.667845959061382E-1    1.519381769600751E-2
 1.228400256821998E6     9.669708617100635E-1    1.501889574618417E-2    3.326636987174821E-2   -1.755506955022279E-2    3.327912311526442E-2   -1.757106341029338E-2    9.668783939496237E-1    1.509638923885456E-2
 1.237772782056674E6     9.670257611692468E-1    1.490232145549364E-2    3.318598033134044E-2   -1.747930813429464E-2    3.319863145444940E-2   -1.750036873089699E-2    9.669089662754785E-1    1.497972797214153E-2
 1.247216818371540E6     9.670820468948174E-1    1.479954839299261E-2    3.310938202657948E-2   -1.740556807925981E-2    3.312717110043983E-2   -1.742723362916664E-2    9.670225128133920E-1    1.493141999805551E-2
 1.256732911386322E6     9.672036051645211E-1    1.470616842068943E-2    3.303546604882597E-2   -1.733342440981390E-2    3.305181235527361E-2   -1.735270885853078E-2    9.671205950370264E-1    1.485727184431041E-2
 1.266321610883739E6     9.672435440077742E-1    1.462029854118083E-2    3.295954620753641E-2   -1.726267830960999E-2    3.297924834830136E-2   -1.727928853902524E-2    9.671740444699737E-1    1.473433086552849E-2
 1.275983470841281E6     9.673415657622613E-1    1.455645644703573E-2    3.288822543820718E-2   -1.718902742868819E-2    3.289982860093101E-2   -1.720872649323535E-2    9.672783918481744E-1    1.462118944413669E-2
 1.285719049463211E6     9.674197554143958E-1    1.448520205909961E-2    3.281149439971324E-2   -1.711752854461017E-2    3.282404969217834E-2   -1.713447672548600E-2    9.673141634228881E-1    1.452939489815091E-2
 1.295528909212810E6     9.674764720706808E-1    1.435762826555608E-2    3.273755618427273E-2   -1.704405168547038E-2    3.275170971882223E-2   -1.706175853497297E-2    9.673899179167836E-1    1.448137903564845E-2
 1.305413616844883E6     9.675406708020899E-1    1.427637841392831E-2    3.266537987928692E-2   -1.697222957629058E-2    3.267821187189349E-2   -1.698855017194814E-2    9.674497679094678E-1    1.436344969364345E-2
 1.315373743438491E6     9.676561930498216E-1    1.416806249642335E-2    3.259324016990593E-2   -1.690154145697161E-2    3.260810737148023E-2   -1.691729544192537E-2    9.675306475344235E-1    1.429095613369002E-2
 1.325409864429950E6     9.677190946485100E-1    1.413837494325391E-2    3.251986553788583E-2   -1.682635528717980E-2    3.252976862993432E-2   -1.684316162316418E-2    9.675494799240326E-1    1.417316336703441E-2
 1.335522559646084E6     9.677694289197976E-1    1.400270382444477E-2    3.244811001415621E-2   -1.675859914318379E-2    3.246531347038875E-2   -1.676968703304747E-2    9.676417321089834E-1    1.410970213749071E-2
 1.345712413337699E6     9.678078992337702E-1    1.391284892250474E-2    3.237998240744051E-2   -1.668551091667340E-2    3.239058121277496E-2   -1.669748995330364E-2    9.677028868714190E-1    1.398976336188120E-2
 1.355980014213373E6     9.678681576707907E-1    1.385306076363906E-2    3.230757466528143E-2   -1.661157293541719E-2    3.232006953724776E-2   -1.662411063357276E-2    9.677786375358127E-1    1.391439371538331E-2
 1.366325955473440E6     9.679438527690890E-1    1.373147485322216E-2    3.223791254394669E-2   -1.653924683102060E-2    3.225200993019148E-2   -1.655258662903862E-2    9.678656534266975E-1    1.384412285096587E-2
 1.376750834844268E6     9.680182088472168E-1    1.364351722671587E-2    3.216793678588510E-2   -1.646995404963181E-2    3.218016542453628E-2   -1.648368451140744E-2    9.679498391816811E-1    1.375642561240590E-2
 1.387255254612807E6     9.680861727822317E-1    1.355219372250823E-2    3.209732564233451E-2   -1.639868383363783E-2    3.211052420194463E-2   -1.641067930073082E-2    9.680090020087647E-1    1.365341477658626E-2
 1.397839821661363E6     9.681403171891652E-1    1.349406859555550E-2    3.202917736531809E-2   -1.632546042561171E-2    3.204041198311794E-2   -1.633998767069512E-2    9.680838333919674E-1    1.356931328401611E-2
 1.408505147502673E6     9.682538063943449E-1    1.340709366406941E-2    3.195821956174398E-2   -1.625117444461708E-2    3.197213062995850E-2   -1.627033205136130E-2    9.681230947322713E-1    1.348145042713058E-2
 1.419251848315235E6     9.682959591573210E-1    1.330536322529887E-2    3.189300052748974E-2   -1.618795635282904E-2    3.190263186835609E-2   -1.619811712763489E-2    9.682159098587452E-1    1.340230763656695E-2
 1.430080544978898E6     9.683776360032468E-1    1.322519551819945E-2    3.182507796305990E-2   -1.611813394984879E-2    3.183712966606735E-2   -1.612676446926653E-2    9.682832029953726E-1    1.329240312568814E-2
 1.440991863110751E6     9.684352444974211E-1    1.314090044693528E-2    3.175576462316024E-2   -1.604435720897530E-2    3.177086230542567E-2   -1.605876198029087E-2    9.683670153230622E-1    1.320881787108644E-2
 1.451986433101243E6     9.684921240860851E-1    1.303752619386032E-2    3.168888741959783E-2   -1.597998679498281E-2    3.170151913520840E-2   -1.598688925265817E-2    9.684556904773898E-1    1.314176054822270E-2
 1.463064890150622E6     9.685530446303747E-1    1.295633817543415E-2    3.162287405455028E-2   -1.590724056368516E-2    3.163210198900605E-2   -1.592049318986434E-2    9.685218952778670E-1    1.305460376077250E-2
 1.474227874305625E6     9.686164899013714E-1    1.285752533450942E-2    3.155457971719046E-2   -1.583958020968577E-2    3.157022119016862E-2   -1.585262139804345E-2    9.685918717231651E-1    1.296561670922186E-2
 1.485476030496454E6     9.686939995151397E-1    1.276590471143012E-2    3.148586008078861E-2   -1.576797011815720E-2    3.150083819341716E-2   -1.578223448101662E-2    9.686821308060359E-1    1.285544293129954E-2
 1.496810008574050E6     9.687795030179767E-1    1.269637615396340E-2    3.141872794006872E-2   -1.570271942674261E-2    3.143429705991328E-2   -1.571373027952057E-2    9.687343688905732E-1    1.277776595690009E-2
 1.508230463347619E6     9.688287320550090E-1    1.257351410789076E-2    3.135241839803123E-2   -1.563717026883446E-2    3.136686920117459E-2   -1.564656514058608E-2    9.687980776058108E-1    1.271071684883399E-2
 1.519738054622472E6     9.689035656622537E-1    1.250130293916145E-2    3.128818057580780E-2   -1.556870659813724E-2    3.129649078504446E-2   -1.558055135060272E-2    9.688182155477864E-1    1.259429185486556E-2
 1.531333447238147E6     9.689379126367172E-1    1.241189766522245E-2    3.122052646026071E-2   -1.550051563392238E-2    3.123107267271549E-2   -1.551371442956555E-2    9.689046029320405E-1    1.251689171916501E-2
 1.543017311106810E6     9.689933848675537E-1    1.230662098751893E-2    3.115281053173597E-2   -1.543216079495781E-2    3.116676058563206E-2   -1.544464368952019E-2    9.689756092453297E-1    1.244247788794988E-2
 1.554790321251977E6     9.690809114697397E-1    1.223917589242587E-2    3.108596650350170E-2   -1.536987390126849E-2    3.109846994893272E-2   -1.537709143612504E-2    9.690785949208079E-1    1.235635416105963E-2
 1.566653157847488E6     9.691533233756494E-1    1.214015082599011E-2    3.102055317448609E-2   -1.529910899894318E-2    3.103019688392040E-2   -1.530931114996489E-2    9.690940915488971E-1    1.226781245312290E-2
 1.578606506256824E6     9.691992664924376E-1    1.204841541398728E-2    3.095051245261319E-2   -1.523623654122557E-2    3.096752332625078E-2   -1.524404013657574E-2    9.691564252132400E-1    1.217665586810251E-2
 1.590651057072690E6     9.692848454732657E-1    1.196403299421667E-2    3.088667238472184E-2   -1.516592744951100E-2    3.089766596137542E-2   -1.517658911798693E-2    9.692143181563376E-1    1.209478092819581E-2
 1.602787506156919E6     9.693719559465751E-1    1.188562409420493E-2    3.082067058713210E-2   -1.509645093759359E-2    3.083280575645148E-2   -1.510851229263053E-2    9.692498102443196E-1    1.200023539608853E-2
 1.615016554680682E6     9.693935732750542E-1    1.179486854765955E-2    3.074886880981147E-2   -1.502927864621786E-2    3.076470749354179E-2   -1.504519865457245E-2    9.693733394729651E-1    1.192005358242500E-2
 1.627338909164981E6     9.694904161632047E-1    1.170209132779519E-2    3.068793016950561E-2   -1.496356241545806E-2    3.070005085441964E-2   -1.497723821779246E-2    9.694225353404916E-1    1.184802304774097E-2
 1.639755281521474E6     9.695584807527732E-1    1.163223040935677E-2    3.062258143965479E-2   -1.489409741881205E-2    3.063329112156278E-2   -1.491184816624176E-2    9.695103908366978E-1    1.174716458501718E-2
 1.652266389093622E6     9.695951462580809E-1    1.152707183700955E-2    3.055188259778514E-2   -1.482645439744251E-2    3.056416625957057E-2   -1.484200279782079E-2    9.695535965850470E-1    1.165572065230628E-2
 1.664872954698102E6     9.696741397807968E-1    1.143309316765435E-2    3.048408006158980E-2   -1.476126085100422E-2    3.049731095936627E-2   -1.478067330543211E-2    9.696338357117961E-1    1.155897265945814E-2
 1.677575706666590E6     9.697193632823027E-1    1.133434833735763E-2    3.041922935689455E-2   -1.469310505036994E-2    3.042994422855342E-2   -1.470948209277877E-2    9.696612228399977E-1    1.144407886798512E-2
 1.690375378887833E6     9.697781883882605E-1    1.125156799195464E-2    3.035720718710440E-2   -1.462702859628222E-2    3.036609509883732E-2   -1.464108236417195E-2    9.697209679088771E-1    1.136511915764543E-2
 1.703272710850043E6     9.698269129805980E-1    1.115717388341045E-2    3.029163857110864E-2   -1.456097216246939E-2    3.029859382211274E-2   -1.457573533007554E-2    9.697773102630142E-1    1.129160827541585E-2
 1.716268447683636E6     9.699137351377427E-1    1.108566202088429E-2    3.022312076007973E-2   -1.448889760960878E-2    3.023286990670481E-2   -1.450629805779000E-2    9.698328277977096E-1    1.118465087980802E-2
 1.729363340204262E6     9.699874627098779E-1    1.099626300235700E-2    3.015780539157492E-2   -1.442366242685668E-2    3.016961278851154E-2   -1.443704377986485E-2    9.699211892286571E-1    1.108732687860018E-2
 1.742558144956193E6     9.700519829637213E-1    1.090730681661070E-2    3.009268159460854E-2   -1.435794959247459E-2    3.010249772490629E-2   -1.437613098432849E-2    9.699658594982501E-1    1.100257927365097E-2
 1.755853624256030E6     9.700405972307704E-1    1.078754086724002E-2    3.002819585859395E-2   -1.429042817686140E-2    3.004064539412346E-2   -1.430898673463827E-2    9.700241053302266E-1    1.089515918051942E-2
 1.769250546236744E6     9.701599188987539E-1    1.070870733104349E-2    2.996279066973924E-2   -1.422182439892457E-2    2.997536852056697E-2   -1.423747976643428E-2    9.700772873646297E-1    1.081027082325138E-2
 1.782749684892061E6     9.701810116935258E-1    1.059797915761613E-2    2.989734157058209E-2   -1.415314273203956E-2    2.991347143827259E-2   -1.417082876730350E-2    9.701810887217638E-1    1.071603754396786E-2
 1.796351820121167E6     9.702470556953249E-1    1.051682380073106E-2    2.983963531809469E-2   -1.408637241267609E-2    2.984471665944090E-2   -1.410444255099447E-2    9.702207706146592E-1    1.063813339378757E-2
 1.810057737773773E6     9.703030069922645E-1    1.042884335599086E-2    2.977491638016672E-2   -1.401612496433617E-2    2.978529737220079E-2   -1.403616641107619E-2    9.702707300999099E-1    1.053043492111459E-2
 1.823868229695514E6     9.704222612939505E-1    1.035330243867548E-2    2.971351671222609E-2   -1.395343815286745E-2    2.972191814783595E-2   -1.396606229588163E-2    9.703298844029460E-1    1.045447808139915E-2
 1.837784093773698E6     9.704621971882027E-1    1.024898385810090E-2    2.964947541087143E-2   -1.388412958096481E-2    2.966004037536910E-2   -1.390136317459605E-2    9.703965932158690E-1    1.036119516141119E-2
 1.851806133983411E6     9.705067590483052E-1    1.015932027036171E-2    2.958641475088598E-2   -1.381977301112939E-2    2.960117884545552E-2   -1.383304779245371E-2    9.704895179860422E-1    1.027586938531890E-2
 1.865935160433950E6     9.705629055288508E-1    1.006289867882588E-2    2.952458758073149E-2   -1.375263706078383E-2    2.953612960478987E-2   -1.376691346399859E-2    9.705427190652068E-1    1.019469945486286E-2
 1.880171989415638E6     9.706548134142843E-1    9.979596818201092E-3    2.946462591535995E-2   -1.368565643063509E-2    2.947263281771469E-2   -1.369884191599614E-2    9.705840183951762E-1    1.009219111228265E-2
 1.894517443446981E6     9.706803019189771E-1    9.889473465669818E-3    2.940200684875351E-2   -1.361732586763863E-2    2.941459286184590E-2   -1.363183634373568E-2    9.706409193741160E-1    9.988683077756574E-3
 1.908972351322182E6     9.707450338727955E-1    9.783709533652979E-3    2.934316914833413E-2   -1.355216708691710E-2    2.935298802326789E-2   -1.356502123791377E-2    9.706889709564231E-1    9.900969464486105E-3
 1.923537548159045E6     9.707878638666927E-1    9.699932355718545E-3    2.928650018844857E-2   -1.348632945800231E-2    2.929400571591980E-2   -1.349840679337293E-2    9.707119119196583E-1    9.822751333189730E-3
 1.938213875447196E6     9.708674946796532E-1    9.601661891367533E-3    2.922263168702524E-2   -1.342429128942272E-2    2.923278203249502E-2   -1.343202676797133E-2    9.707912127483123E-1    9.722485664144881E-3
 1.953002181096708E6     9.709010545242873E-1    9.516335825734029E-3    2.916523932409963E-2   -1.335234277065887E-2    2.917569491549151E-2   -1.336639738817395E-2    9.708748594985541E-1    9.626150074930789E-3
 1.967903319487111E6     9.709677728233769E-1    9.420867954293005E-3    2.910550070752840E-2   -1.328590049877785E-2    2.911692917213980E-2   -1.330471618521728E-2    9.709286318360598E-1    9.539052779301546E-3
 1.982918151516703E6     9.709915545523767E-1    9.323389882519146E-3    2.904933523469949E-2   -1.322105888082025E-2    2.905793503667678E-2   -1.323563151239474E-2    9.709919896670822E-1    9.451676771029949E-3
 1.998047544652348E6     9.710649559442751E-1    9.220994965356498E-3    2.898816501049630E-2   -1.316081862679630E-2    2.899640047025311E-2   -1.317115228921124E-2    9.710523746817744E-1    9.359144650985014E-3
 2.013292372979546E6     9.710838476622791E-1    9.134870123035892E-3    2.892776141450009E-2   -1.309613792008548E-2    2.893539481091071E-2   -1.310630507767693E-2    9.710545570553559E-1    9.260200790338411E-3
 2.028653517252947E6     9.711630861770005E-1    9.038390001942218E-3    2.887132591370869E-2   -1.302882836541263E-2    2.888083860806046E-2   -1.304666899608639E-2    9.711467736176302E-1    9.178719983706635E-3
 2.044131864947255E6     9.712342116604396E-1    8.949169995713288E-3    2.881189484035633E-2   -1.296487227123611E-2    2.881987220573799E-2   -1.297816456496498E-2    9.711822820975936E-1    9.068664252096206E-3
 2.059728310308467E6     9.712732140662027E-1    8.871053862228792E-3    2.875288524612717E-2   -1.289883705130187E-2    2.876095141333137E-2   -1.291410189097856E-2    9.712507443448632E-1    8.979791739752156E-3
 2.075443754405562E6     9.713230926466022E-1    8.774222746504468E-3    2.869257773409321E-2   -1.283644030373155E-2    2.870561669314291E-2   -1.284753157409806E-2    9.713125563076634E-1    8.896157963871604E-3
 2.091279105182548E6     9.713861850117634E-1    8.686441990783299E-3    2.863912206524202E-2   -1.277351851040317E-2    2.864451558223026E-2   -1.278548360253689E-2    9.713529523379697E-1    8.806903544059453E-3
 2.107235277510921E6     9.714171200829468E-1    8.597085177334710E-3    2.858039339164013E-2   -1.270913171438153E-2    2.858287606259435E-2   -1.272152814509874E-2    9.713839727710670E-1    8.712984546069634E-3
 2.123313193242529E6     9.714527922584539E-1    8.507301682035893E-3    2.851947668007731E-2   -1.264654655173863E-2    2.852499938844252E-2   -1.265859402602203E-2    9.714349666871226E-1    8.629071528081886E-3
 2.139513781262815E6     9.715260962938832E-1    8.414210840605733E-3    2.846171500154173E-2   -1.258424119837318E-2    2.846654787929503E-2   -1.259274699966273E-2    9.715117107817919E-1    8.526746419789974E-3
 2.155837977544490E6     9.716161516799223E-1    8.325341159388870E-3    2.840243656687157E-2   -1.252220343347335E-2    2.840878452072747E-2   -1.253048337902527E-2    9.715369226835329E-1    8.443939034951366E-3
 2.172286725201612E6     9.717187716059266E-1    8.246550634598560E-3    2.834533807278469E-2   -1.245732381072083E-2    2.834720745036961E-2   -1.246437383274076E-2    9.715703372697043E-1    8.361065819639135E-3
 2.188860974544063E6     9.717438328373614E-1    8.158122559429106E-3    2.828359340422979E-2   -1.239454620722376E-2    2.829159198332579E-2   -1.240220769034500E-2    9.716560389634908E-1    8.259348053619789E-3
 2.205561683132472E6     9.717957384849497E-1    8.074811527633943E-3    2.822689060981575E-2   -1.233001916626154E-2    2.823454013573759E-2   -1.233801537854651E-2    9.717395953429597E-1    8.155832832101761E-3
 2.222389815833514E6     9.718475822109073E-1    7.956988384758190E-3    2.816558032505306E-2   -1.226459816957932E-2    2.817693384629761E-2   -1.227484041307826E-2    9.718054840152078E-1    8.076756856612943E-3
 2.239346344875663E6     9.719023942928706E-1    7.874797206897230E-3    2.810952852224147E-2   -1.220326439268872E-2    2.811724674759528E-2   -1.220830799985010E-2    9.718462830568309E-1    7.982536763284195E-3
 2.256432249905369E6     9.719564164010904E-1    7.791314461799770E-3    2.805201186435912E-2   -1.213897717272232E-2    2.805649969644692E-2   -1.214162025804506E-2    9.718893621083114E-1    7.885183587263892E-3
 2.273648518043640E6     9.720463013455681E-1    7.689702648240906E-3    2.799539784825488E-2   -1.207412616160870E-2    2.800043107104364E-2   -1.207730740348426E-2    9.719722075711447E-1    7.780699485809933E-3
 2.290996143943099E6     9.721168615687843E-1    7.601479949589466E-3    2.793749738912272E-2   -1.200972421675983E-2    2.793905310981462E-2   -1.200835592447643E-2    9.719838041652509E-1    7.696629816665224E-3
 2.308476129845417E6     9.721903074141126E-1    7.504123535748627E-3    2.787698296642723E-2   -1.194549032539490E-2    2.788584689419087E-2   -1.194457263685308E-2    9.720471984930933E-1    7.598984041569928E-3
 2.326089485639235E6     9.722075464774583E-1    7.419801651458367E-3    2.782425812584047E-2   -1.188460444960230E-2    2.782744407582101E-2   -1.188113511445204E-2    9.721103939514187E-1    7.506528226463467E-3
 2.343837228918507E6     9.722922931335730E-1    7.337021990591137E-3    2.776610527109748E-2   -1.181767661684837E-2    2.777000850492880E-2   -1.181419580762513E-2    9.721500097800219E-1    7.416610984396296E-3
 2.361720385041283E6     9.723110382072917E-1    7.230035783778394E-3    2.770845645180638E-2   -1.175101761770959E-2    2.771908553458529E-2   -1.174746540294906E-2    9.722140153008455E-1    7.299521289141687E-3
 2.379739987188969E6     9.723727708161198E-1    7.152447707956212E-3    2.764995285670906E-2   -1.168553424432681E-2    2.766271991310486E-2   -1.168246861189417E-2    9.722617931840368E-1    7.214949052865861E-3
 2.397897076425990E6     9.724528367256219E-1    7.039153785324619E-3    2.759400926872312E-2   -1.162533932843227E-2    2.760934714323806E-2   -1.161347045807186E-2    9.722915552574593E-1    7.123553860047666E-3
 2.416192701759947E6     9.724752369151908E-1    6.944927605659560E-3    2.753991905611987E-2   -1.155631306953526E-2    2.755561073820983E-2   -1.155148707537108E-2    9.723848724783303E-1    7.023654443434984E-3
 2.434627920202243E6     9.725259929772612E-1    6.840153674166018E-3    2.748353807493783E-2   -1.149222357995183E-2    2.750487596607068E-2   -1.148570632264061E-2    9.724235784249786E-1    6.944177741516750E-3
 2.453203796829114E6     9.726013357751592E-1    6.733816723816185E-3    2.742475965169476E-2   -1.142824561330111E-2    2.744857733471776E-2   -1.142366951391631E-2    9.724804670875731E-1    6.810033557609960E-3
 2.471921404843189E6     9.726875829840532E-1    6.652332506501562E-3    2.737759816515411E-2   -1.136263324190309E-2    2.739641734858101E-2   -1.135649244037499E-2    9.725371696647542E-1    6.744093813376956E-3
 2.490781825635486E6     9.727338044732529E-1    6.553571548042779E-3    2.732538693356659E-2   -1.129931799665680E-2    2.734326737278148E-2   -1.129531535765372E-2    9.725877658167345E-1    6.620685167759890E-3
 2.509786148847881E6     9.728393123277297E-1    5.709606145780895E-3    2.743973896684238E-2   -1.109732304783518E-2    2.729688850391696E-2   -1.144560318414837E-2    9.727528385711274E-1    6.652338484259408E-3
 2.528935472436085E6     9.728848443333719E-1    5.729202585095644E-3    2.739408369598939E-2   -1.101079586408549E-2    2.723087138211988E-2   -1.139220461222423E-2    9.728458313505902E-1    6.554962742940170E-3
 2.548230902733043E6     9.729400075089515E-1    5.727098854285709E-3    2.734558807426241E-2   -1.094345976424405E-2    2.717585569323843E-2   -1.133772934958477E-2    9.728808729688654E-1    6.453410301798987E-3
 2.567673554512876E6     9.729799753443500E-1    5.516809222997700E-3    2.729197126445805E-2   -1.088126424137028E-2    2.712780889848554E-2   -1.127467742532724E-2    9.729566103957220E-1    6.426199578944475E-3
 2.587264551055275E6     9.730140923642498E-1    5.403654338031715E-3    2.724717563792512E-2   -1.081028018354398E-2    2.708020662344801E-2   -1.120142655373918E-2    9.730005479718721E-1    6.265421295990614E-3
 2.607005024210399E6     9.730163985095645E-1    5.114883185859977E-3    2.718281181946566E-2   -1.075092174861032E-2    2.703782012114304E-2   -1.112275828559870E-2    9.730649324499814E-1    6.255130134004968E-3
 2.626896114464281E6     9.731378070576606E-1    5.144615870433743E-3    2.713990629719333E-2   -1.069751016016991E-2    2.698605307787902E-2   -1.106331054443492E-2    9.730589232798950E-1    6.054533279136941E-3
 2.646938971004693E6     9.731175749342215E-1    4.835169067676647E-3    2.708553746954887E-2   -1.063199067661404E-2    2.693695805346846E-2   -1.099797167315789E-2    9.731429064518111E-1    6.092082534849206E-3
 2.667134751787555E6     9.731563850238456E-1    4.703180272102421E-3    2.702636204559183E-2   -1.058226311190818E-2    2.689390792129439E-2   -1.092177503981443E-2    9.731606454784660E-1    5.970432470887099E-3
 2.687484623603833E6     9.732291934409741E-1    4.478625254569364E-3    2.697755741451066E-2   -1.051585239574939E-2    2.684038187428803E-2   -1.086142970540268E-2    9.732582477672732E-1    5.835083184212672E-3
 2.707989762146940E6     9.732697263501561E-1    4.525617056933507E-3    2.692597589637783E-2   -1.045567079545429E-2    2.679535963450191E-2   -1.079740226672597E-2    9.732347089142709E-1    5.418202426548051E-3
 2.728651352080688E6     9.733149407471038E-1    4.470865196909692E-3    2.687704347390238E-2   -1.039069174648777E-2    2.675117621255136E-2   -1.072526601990834E-2    9.733496556640465E-1    5.584412079884311E-3
 2.749470587107692E6     9.733427471643508E-1    4.289730076726436E-3    2.682534512726212E-2   -1.032230989599308E-2    2.669934279185342E-2   -1.065710034223690E-2    9.733518243958836E-1    5.354637727995077E-3
 2.770448670038360E6     9.734406885973845E-1    4.294467763132540E-3    2.677075290365950E-2   -1.026478738901507E-2    2.665546262376654E-2   -1.058908168417141E-2    9.733943095099397E-1    5.315730982712068E-3
 2.791586812860380E6     9.735172742837283E-1    4.342903744516998E-3    2.672197800349413E-2   -1.020305694774886E-2    2.660661269972841E-2   -1.052647960378729E-2    9.734421489399746E-1    5.133507216106346E-3
 2.812886236808732E6     9.735828691087910E-1    4.165837912677329E-3    2.667384190150046E-2   -1.013999452495953E-2    2.655404940934638E-2   -1.046561977708706E-2    9.735109778317400E-1    5.014760266709706E-3
 2.834348172436268E6     9.735917127249942E-1    3.987142912752501E-3    2.662001408768069E-2   -1.007475930717223E-2    2.650715430281241E-2   -1.040029581958525E-2    9.735197140042621E-1    4.829152952520183E-3
 2.855973859684773E6     9.736136135957597E-1    3.905948585833548E-3    2.657071527973583E-2   -1.001210072189162E-2    2.645215586785074E-2   -1.033102033950003E-2    9.735862427686055E-1    4.890901423858709E-3
 2.877764547956619E6     9.736325627447412E-1    3.740861206696682E-3    2.652538036880987E-2   -9.941255169953502E-3    2.640469142444039E-2   -1.026503680910608E-2    9.736202230871462E-1    4.761501193192139E-3
 2.899721496186967E6     9.737787637373806E-1    3.916412377069126E-3    2.647545154093637E-2   -9.884431180255926E-3    2.636292039537852E-2   -1.019500749390037E-2    9.737039740641266E-1    4.704375175668892E-3
 2.921845972916440E6     9.738163395312018E-1    3.603546989183196E-3    2.641797974203797E-2   -9.825068575134932E-3    2.631315269348947E-2   -1.013382281437274E-2    9.737526449733158E-1    4.564151701585249E-3
 2.944139256364495E6     9.738632927011202E-1    3.650978188021146E-3    2.637091740960137E-2   -9.758645279277760E-3    2.626751868507089E-2   -1.006770189557044E-2    9.738351146105073E-1    4.504416240238895E-3
 2.966602634503201E6     9.738123394507088E-1    3.213425641602512E-3    2.631194630179558E-2   -9.701101328959606E-3    2.621908338631512E-2   -1.000316354211248E-2    9.739829934644292E-1    4.580719706900158E-3
 2.989237405131679E6     9.739262555084250E-1    3.267590097623692E-3    2.626692302737547E-2   -9.642388643563000E-3    2.616883476338890E-2   -9.933929272212604E-3    9.740414108533226E-1    4.589206447787359E-3
 3.012044875951098E6     9.738761440867940E-1    3.360068946619166E-3    2.622807375634221E-2   -9.631037494243624E-3    2.616483981229509E-2   -9.763420046531163E-3    9.741127621687171E-1    4.476143305231156E-3
 3.035026364640187E6     9.740104674611989E-1    3.326114063967027E-3    2.618302109846329E-2   -9.560288429063408E-3    2.611518560267792E-2   -9.698211735246138E-3    9.740642456090539E-1    4.212202967396733E-3
 3.058183198931389E6     9.740265891180842E-1    3.264975387136904E-3    2.612820156951626E-2   -9.504143509357578E-3    2.606451878768831E-2   -9.632498242978094E-3    9.741494386307191E-1    4.021874081921005E-3
 3.081516716687564E6     9.739731076128927E-1    3.045504110721380E-3    2.608119308338478E-2   -9.438744776657675E-3    2.602465081811695E-2   -9.564227506594433E-3    9.742180120012494E-1    4.010406365941994E-3
 3.105028265979277E6     9.740895238288882E-1    3.012145769713693E-3    2.603723805260608E-2   -9.372729966699250E-3    2.597903451570872E-2   -9.505699761331497E-3    9.741598546522917E-1    3.689613898751450E-3
 3.128719205162701E6     9.740667727289690E-1    2.776471527992258E-3    2.598839845957684E-2   -9.310995365154973E-3    2.592938168534953E-2   -9.437506631155003E-3    9.742454143425271E-1    3.669406839422672E-3
 3.152590902958065E6     9.740585867739189E-1    2.482760932105194E-3    2.593627364322161E-2   -9.248204483259281E-3    2.588190255061159E-2   -9.375627398915851E-3    9.742928516514995E-1    3.500562780959272E-3
 3.176644738528751E6     9.741451030808980E-1    2.400780212584092E-3    2.589170443179743E-2   -9.184582717992117E-3    2.583627007539626E-2   -9.311056307856195E-3    9.743678684952864E-1    3.420508784792277E-3
 3.200882101560967E6     9.741982732318619E-1    2.309370874116082E-3    2.584516072843568E-2   -9.121962193845080E-3    2.578068479767202E-2   -9.253217160034874E-3    9.743722266230593E-1    3.245612630721297E-3
 3.225304392344028E6     9.742568056121198E-1    2.194909916542869E-3    2.579671724558293E-2   -9.061602655344751E-3    2.574281367052472E-2   -9.182778590303673E-3    9.744752221077971E-1    3.251064275702251E-3
 3.249913021851289E6     9.742791155879842E-1    2.075015289276708E-3    2.575430246534108E-2   -8.992905274224593E-3    2.569742939156990E-2   -9.116029381986052E-3    9.745128111245123E-1    3.205717733550324E-3
 3.274709411821612E6     9.743310554463748E-1    1.856108760779530E-3    2.570769398482971E-2   -8.932452515983867E-3    2.565256709970182E-2   -9.053194693403053E-3    9.745661771875476E-1    3.112075897904801E-3
 3.299694994841541E6     9.743961081185424E-1    1.862384579250585E-3    2.566160758883555E-2   -8.870080431327950E-3    2.560477630280214E-2   -8.991930608462300E-3    9.745354377968702E-1    2.794952579997985E-3
 3.324871214428060E6     9.744902210385101E-1    1.629570274224883E-3    2.561184546832678E-2   -8.788614294223738E-3    2.554544640657100E-2   -8.947556028176538E-3    9.746392020789698E-1    2.882192995470503E-3
 3.350239525111979E6     9.745314052176693E-1    1.660633393730408E-3    2.556669915559864E-2   -8.724049192909155E-3    2.550501735575896E-2   -8.878781397588267E-3    9.746976716660434E-1    2.831957014213125E-3
 3.375801392522001E6     9.746392601024869E-1    1.707872267407907E-3    2.552453219559928E-2   -8.661386582798273E-3    2.545897586810552E-2   -8.817639267515515E-3    9.747385661221187E-1    2.702930729648324E-3
 3.401558293469354E6     9.746377005178284E-1    1.408898631902145E-3    2.548131696592908E-2   -8.616459838165419E-3    2.541762961256448E-2   -8.733131205188887E-3    9.746834980075557E-1    2.396499372456407E-3
 3.427511716033138E6     9.747144843999255E-1    1.453151509020305E-3    2.543150761049264E-2   -8.554071043119355E-3    2.537504129979287E-2   -8.675574636334804E-3    9.746799664268025E-1    2.238498449139750E-3
 3.453663159646295E6     9.747581181270659E-1    1.239809354886362E-3    2.537857278598078E-2   -8.491201631292161E-3    2.533309181297455E-2   -8.606000005987947E-3    9.747710338929639E-1    2.266426370180110E-3
 3.480014135182226E6     9.747585707083037E-1    1.214551611450315E-3    2.534558682821344E-2   -8.421956551953975E-3    2.528525704794684E-2   -8.548278277677448E-3    9.748885759114087E-1    2.255500756011867E-3
 3.506566165042107E6     9.748016315806488E-1    1.173831892128962E-3    2.529582540223600E-2   -8.372358841400267E-3    2.525827468375169E-2   -8.462250288188740E-3    9.750157417733717E-1    2.216282410904853E-3
 3.533320783242811E6     9.748575106551978E-1    1.191862034539815E-3    2.525266690137764E-2   -8.305504919652705E-3    2.521494354284209E-2   -8.400202575022421E-3    9.751840471061309E-1    2.442733060812208E-3
 3.560279535505542E6     9.749413291226584E-1    1.135427977880036E-3    2.520749172909423E-2   -8.241389351781207E-3    2.516682066516417E-2   -8.341927261849067E-3    9.750649870252250E-1    2.043398412102995E-3
 3.587443979345170E6     9.749870610293904E-1    1.005030559092537E-3    2.515934866732160E-2   -8.184213042305913E-3    2.512230570668746E-2   -8.272537808449599E-3    9.751285625471190E-1    1.907356013163341E-3
 3.614815684160168E6     9.750453768459629E-1    8.016519189468889E-4    2.511569596054148E-2   -8.121119844792614E-3    2.507945049579691E-2   -8.207457372829761E-3    9.751972087451077E-1    1.740784158592976E-3
 3.642396231323309E6     9.751096436837523E-1    8.332635342757521E-4    2.506950329820576E-2   -8.055765556754281E-3    2.503295107671808E-2   -8.149993816072326E-3    9.751682022766389E-1    1.503429089113430E-3
 3.670187214273024E6     9.751266351760171E-1    4.140258928282005E-4    2.500737994302655E-2   -7.924749162476288E-3    2.494344643084337E-2   -8.192276108929105E-3    9.750939645136388E-1    1.330739285201587E-3
 3.698190238605455E6     9.752219889128588E-1    2.250197783119387E-4    2.497028954323388E-2   -7.854880801111293E-3    2.489531234770251E-2   -8.135812401960991E-3    9.751174242926024E-1    1.091311683550658E-3
 3.726406922167240E6     9.753224472846720E-1    2.716002379868363E-4    2.492866690742778E-2   -7.787192049482673E-3    2.485484531362398E-2   -8.070128546076192E-3    9.752824173612635E-1    1.213520984221010E-3
 3.754838895148946E6     9.753153006845344E-1    4.845040391274765E-5    2.487994215863923E-2   -7.727969745680402E-3    2.481998417775247E-2   -8.002867958483649E-3    9.752973617525456E-1    1.051082362004897E-3
 3.783487800179276E6     9.753377927844591E-1    2.999202386909176E-5    2.484893401699639E-2   -7.678521682250328E-3    2.477381071406044E-2   -7.895575077058181E-3    9.753600838203149E-1    9.575265672207306E-4
 3.812355292419964E6     9.754565764035145E-1    3.078488663904678E-5    2.480686847366714E-2   -7.612589789751271E-3    2.472822248679445E-2   -7.841257939650913E-3    9.753414677360501E-1    6.317135121022330E-4
 3.841443039661395E6     9.754403131409951E-1   -1.879819464388849E-4    2.476344558263147E-2   -7.539903494555553E-3    2.468306512572672E-2   -7.773538479758743E-3    9.754450253812429E-1    7.394895896666488E-4
 3.870752722418987E6     9.754371822192829E-1   -2.481099038586937E-4    2.471564364768946E-2   -7.486956251439591E-3    2.463990657053298E-2   -7.708356297728836E-3    9.754240112430644E-1    4.877379417142584E-4
 3.900286034030236E6     9.755174958785305E-1   -2.182580267246369E-4    2.467582484545905E-2   -7.414030071933108E-3    2.459961309114156E-2   -7.646273883977558E-3    9.756042673067050E-1    5.996630200922370E-4
 3.930044680752580E6     9.755840216718745E-1   -4.018716844424141E-4    2.463589741282198E-2   -7.355440285561904E-3    2.455565220448341E-2   -7.586428909624109E-3    9.755104742756009E-1    2.297280683427100E-4
 3.960030381861967E6     9.756170909432825E-1   -5.682357115868221E-4    2.459161625812922E-2   -7.287846142839125E-3    2.451743642547043E-2   -7.515380107304728E-3    9.756230717773937E-1    1.969061345453762E-4
 3.990244869752173E6     9.756386485558954E-1   -8.137264278998678E-4    2.454490810423886E-2   -7.233090575178145E-3    2.447189663669688E-2   -7.455305871475072E-3    9.756089652083724E-1    7.438675561231958E-6
 4.020689890034929E6     9.756526460172262E-1   -7.355181407556272E-4    2.451407523567619E-2   -7.199207148158165E-3    2.445882410835246E-2   -7.327924409632828E-3    9.756448071929408E-1   -1.644186925240692E-4
 4.051367201640718E6     9.757805105217022E-1   -7.952062635018841E-4    2.447309602820353E-2   -7.137872539194545E-3    2.441486043736917E-2   -7.266862342660398E-3    9.756136569940692E-1   -3.651031622903189E-4
 4.082278576920427E6     9.757765986721221E-1   -8.625737282110239E-4    2.443444854910878E-2   -7.068669106750124E-3    2.437538911831194E-2   -7.198784660810313E-3    9.757517792757335E-1   -2.811698836433908E-4
 4.113425801747740E6     9.758263063028279E-1   -9.926606409403371E-4    2.438748817783741E-2   -7.004263019149903E-3    2.433305664881669E-2   -7.136781785368002E-3    9.757655442690942E-1   -5.003502395599419E-4
 4.144810675622302E6     9.758095324087448E-1   -1.204666901651915E-3    2.434978189727108E-2   -6.940116349549423E-3    2.429470363036176E-2   -7.065870023134363E-3    9.759624370068433E-1   -3.811945481871869E-4
 4.176435011773718E6     9.758483277802286E-1   -1.291452415423369E-3    2.430944247152376E-2   -6.875709192267942E-3    2.425633850691464E-2   -6.999809643744024E-3    9.759798828948949E-1   -4.262163206683856E-4
 4.208300637266261E6     9.759062408271777E-1   -1.517811231298498E-3    2.426601590955938E-2   -6.815600354239058E-3    2.421004942758880E-2   -6.935505683715629E-3    9.759838405103061E-1   -6.253667888952815E-4
 4.240409393104453E6     9.759449514406762E-1   -1.632293593048832E-3    2.422771707092648E-2   -6.746708094835366E-3    2.417484261083096E-2   -6.867050344320713E-3    9.760604063495104E-1   -6.221603374538936E-4
 4.272763134339464E6     9.759960444004906E-1   -1.616788375224022E-3    2.418824193387594E-2   -6.677972553418993E-3    2.413776803473866E-2   -6.798226210974853E-3    9.761784946417643E-1   -6.695294914190806E-4
 4.305363730176185E6     9.760058578536570E-1   -1.732182840706573E-3    2.414342144144652E-2   -6.617889149669103E-3    2.409172130888144E-2   -6.740540486456936E-3    9.761529377104087E-1   -8.397912392688018E-4
 4.338213064081349E6     9.760891948158475E-1   -1.956874053381973E-3    2.410419533438056E-2   -6.534099980806898E-3    2.404416145995132E-2   -6.692394074445646E-3    9.761471777374541E-1   -1.108180562730905E-3
 4.371313033892244E6     9.761259668508813E-1   -2.049870631948490E-3    2.406090125231259E-2   -6.472245735554097E-3    2.400613693957565E-2   -6.622442999229755E-3    9.762178879297150E-1   -1.109707965243428E-3
 4.404665551926396E6     9.761490528506691E-1   -2.202329050301816E-3    2.401592506805212E-2   -6.404410842199716E-3    2.396338006036769E-2   -6.562210255591934E-3    9.762362918802603E-1   -1.323584111044137E-3
 4.438272545092077E6     9.762239266561309E-1   -2.302082144080885E-3    2.398380816225557E-2   -6.336736243691742E-3    2.391645294399072E-2   -6.501500438454825E-3    9.763776428428076E-1   -1.293028428236220E-3
 4.472135954999580E6     9.762198513279388E-1   -2.405123157911156E-3    2.393923337274630E-2   -6.274490493162461E-3    2.388035911126759E-2   -6.427113119193882E-3    9.763842751566908E-1   -1.485909634315219E-3
 4.506257738073424E6     9.762547965742938E-1   -2.472823294246763E-3    2.390101219328420E-2   -6.203541241131152E-3    2.383688357412082E-2   -6.360985481824914E-3    9.763485403283388E-1   -1.729090087125719E-3
 4.540639865665382E6     9.762854375561485E-1   -2.605423481777532E-3    2.386888179229100E-2   -6.150878510455108E-3    2.381164522770579E-2   -6.278926420558010E-3    9.763865215496637E-1   -1.915000500906900E-3
 4.575284324168356E6     9.763572191633738E-1   -2.707668255066112E-3    2.382522938181132E-2   -6.089618145535517E-3    2.377925328869403E-2   -6.208584763302646E-3    9.765114565046433E-1   -1.939015288359709E-3
 4.610193115131186E6     9.763790445046964E-1   -2.999416381933791E-3    2.377064614033204E-2   -5.980534623643349E-3    2.370617727535444E-2   -6.214186967289232E-3    9.765333133900727E-1   -2.017794261286256E-3
 4.645368255374223E6     9.763673188860631E-1   -3.115657494719296E-3    2.372932127533062E-2   -5.922923800669963E-3    2.366281113759896E-2   -6.149499288666446E-3    9.764611359957780E-1   -2.350345106996989E-3
 4.680811777105891E6     9.763753294778913E-1   -3.215431594938446E-3    2.369235528460460E-2   -5.852481844815635E-3    2.362732400294809E-2   -6.081264256874286E-3    9.765766792944492E-1   -2.329393383648051E-3
 4.716525728040087E6     9.764392878109636E-1   -3.441239550080392E-3    2.365270067428043E-2   -5.791763107838350E-3    2.359219300079389E-2   -6.007265955173308E-3    9.766263943858645E-1   -2.407994526450125E-3
 4.752512171514469E6     9.765000568288990E-1   -3.567798033009013E-3    2.361414165215399E-2   -5.719390401835558E-3    2.355522471387873E-2   -5.946797895773403E-3    9.766868454738082E-1   -2.263504564198087E-3
 4.788773186609713E6     9.765101887246730E-1   -3.639262733313791E-3    2.357480778707456E-2   -5.658198096427871E-3    2.351628168138323E-2   -5.881908611401580E-3    9.766685502275276E-1   -2.661360733145179E-3
 4.825310868269563E6     9.765675239467928E-1   -3.807391346732058E-3    2.352792112667921E-2   -5.573613595434323E-3    2.347469762809307E-2   -5.861351610394937E-3    9.767198213727345E-1   -2.637979036249907E-3
 4.862127327421905E6     9.766244562379026E-1   -3.995236089857919E-3    2.349299904182456E-2   -5.502330909626446E-3    2.343821583581969E-2   -5.790507573641008E-3    9.767893590317680E-1   -2.743796117364453E-3
 4.899224691100715E6     9.766416925020986E-1   -4.180115893761807E-3    2.345310468788953E-2   -5.443297122261798E-3    2.339549155623447E-2   -5.728189939629771E-3    9.768284945902165E-1   -2.993623162670798E-3
 4.936605102568937E6     9.766925115107402E-1   -4.238488403729146E-3    2.341492086915001E-2   -5.375401050012543E-3    2.336322703120023E-2   -5.652517288245835E-3    9.768581156110318E-1   -2.896321184008835E-3
 4.974270721442348E6     9.767425338081817E-1   -4.331152301339688E-3    2.338129754752678E-2   -5.302347615213596E-3    2.332946449279948E-2   -5.585134796510980E-3    9.769241454824806E-1   -3.043265791166230E-3
 5.012223723814265E6     9.767719126629797E-1   -4.477021979496305E-3    2.333861522711286E-2   -5.230653461283728E-3    2.328992080244284E-2   -5.522097592304270E-3    9.769173498266571E-1   -3.300403471884815E-3
 5.050466302381308E6     9.767944149555442E-1   -4.597798413244624E-3    2.330536723716036E-2   -5.161597895628098E-3    2.325189703936507E-2   -5.454621143943505E-3    9.769573004842865E-1   -3.394177285328194E-3
 5.089000666570071E6     9.768092239784790E-1   -4.768059181790288E-3    2.326259523131782E-2   -5.100387934902692E-3    2.321483749022716E-2   -5.388210677745302E-3    9.769321471985933E-1   -3.590785144509615E-3
 5.127829042664761E6     9.768603107302521E-1   -4.879733247223656E-3    2.323144916874056E-2   -5.025272180199067E-3    2.317280959356527E-2   -5.326277906725297E-3    9.769814489619332E-1   -3.984606575926714E-3
 5.166953673935857E6     9.768969958533780E-1   -5.024972899141531E-3    2.318895721502515E-2   -4.959678222092444E-3    2.314401314877464E-2   -5.255507101411741E-3    9.770393945453256E-1   -3.988422993329725E-3
 5.206376820769652E6     9.769712345167592E-1   -5.122077469750163E-3    2.315404108350413E-2   -4.896757876380934E-3    2.310506933227955E-2   -5.190782880374599E-3    9.769991306872107E-1   -4.504524837714538E-3
 5.246100760798878E6     9.769951649493567E-1   -5.271037469946799E-3    2.311592307607119E-2   -4.831172511865746E-3    2.306490831677008E-2   -5.124088521183833E-3    9.770597105890388E-1   -4.283407228937896E-3
 5.286127789034322E6     9.770587774138052E-1   -5.401506655946198E-3    2.308404443116243E-2   -4.761063207825560E-3    2.303054510505266E-2   -5.058450591151510E-3    9.770935892638701E-1   -4.316821537079252E-3
 5.326460217997355E6     9.769978105198219E-1   -5.366520432492364E-3    2.306728449571959E-2   -4.772798408719794E-3    2.304119179059689E-2   -4.847569230188374E-3    9.772295287000660E-1   -4.473468048905559E-3
 5.367100377853584E6     9.770606235523221E-1   -5.480239257766224E-3    2.303121573491387E-2   -4.706079403592555E-3    2.300671973658122E-2   -4.781095669413389E-3    9.772290942392998E-1   -4.803741939750001E-3
 5.408050616547454E6     9.770841720402392E-1   -5.583112451177569E-3    2.299604770801780E-2   -4.632269522849273E-3    2.297158413785852E-2   -4.716203703277114E-3    9.773512910705071E-1   -4.628347916804575E-3
 5.449313299937895E6     9.771368304797550E-1   -5.747017328631886E-3    2.296277895679461E-2   -4.563239461748073E-3    2.293315309723159E-2   -4.649769480547676E-3    9.772788948635418E-1   -5.132185707056276E-3
 5.490890811935049E6     9.771459182725640E-1   -6.104090104563561E-3    2.289894366849346E-2   -4.423327024979733E-3    2.285400153747753E-2   -4.710883906774128E-3    9.772601119592004E-1   -5.271450366945710E-3
 5.532785554637930E6     9.771530162516200E-1   -6.244309397435742E-3    2.285879639614343E-2   -4.352263901111680E-3    2.281833936434947E-2   -4.637091942906277E-3    9.773166465702857E-1   -4.967568469914595E-3
 5.574999948473252E6     9.772028919307160E-1   -6.210270252651001E-3    2.285326002644216E-2   -4.356116231171520E-3    2.282610529586959E-2   -4.438931549328706E-3    9.773796485741865E-1   -5.397794090483310E-3
 5.617536432335250E6     9.772284963550805E-1   -6.333903916800668E-3    2.281551891556050E-2   -4.293219023638183E-3    2.279362257211420E-2   -4.363715004894827E-3    9.774104319823458E-1   -5.577218823432422E-3
 5.660397463726575E6     9.772894471856960E-1   -6.432602024630212E-3    2.278058025635833E-2   -4.221094134609034E-3    2.276105502162714E-2   -4.297447295776469E-3    9.774530961793670E-1   -5.740835293747207E-3
 5.703585518900323E6     9.774053155577088E-1   -6.822858303841122E-3    2.271916762524233E-2   -4.076080223428857E-3    2.268493456803814E-2   -4.365589648958305E-3    9.774815864977341E-1   -5.687838481593575E-3
 5.747103093003022E6     9.774381597460816E-1   -6.972929446637052E-3    2.268578394548534E-2   -4.008735724794503E-3    2.264772580584966E-2   -4.295220808720748E-3    9.774877734974213E-1   -6.124478936153822E-3
 5.790952700218840E6     9.774624775759306E-1   -7.119545438086595E-3    2.264496407424173E-2   -3.943284891556637E-3    2.261484441971217E-2   -4.227990374466349E-3    9.774848703935678E-1   -6.488563812214214E-3
 5.835136873914825E6     9.774358093213480E-1   -7.025708477677121E-3    2.264381783978813E-2   -3.943799170128485E-3    2.262306302595123E-2   -4.022319117089090E-3    9.775709321127584E-1   -6.522064331021974E-3
 5.879658166787256E6     9.774762361322544E-1   -7.170986584291695E-3    2.260852975034766E-2   -3.872746413099305E-3    2.258613012905177E-2   -3.945246960355812E-3    9.776273894315004E-1   -6.441919038982102E-3
 5.924519151009166E6     9.774844548660512E-1   -7.315084916011841E-3    2.257660458051241E-2   -3.796680511852716E-3    2.255467227363893E-2   -3.866038447492024E-3    9.776788213909839E-1   -6.599202348515215E-3
 5.969722418378883E6     9.775119759865583E-1   -7.471103774171434E-3    2.253873134819486E-2   -3.732500102488286E-3    2.252038239961761E-2   -3.798554921259884E-3    9.776908996944430E-1   -6.818649511796747E-3
 6.015270580469812E6     9.775187005476793E-1   -7.634957254469692E-3    2.250310765411966E-2   -3.660548516968037E-3    2.248391107938917E-2   -3.729571560935972E-3    9.776571101073345E-1   -7.248864046919615E-3
 6.061166268781302E6     9.775444569670527E-1   -7.777335209653060E-3    2.246962512259417E-2   -3.589267384529319E-3    2.245101859383613E-2   -3.661432175164747E-3    9.777221346521694E-1   -7.463638373919537E-3
 6.107412134890671E6     9.775728472757549E-1   -7.966545209398089E-3    2.243502757428740E-2   -3.512923971111389E-3    2.240971959806903E-2   -3.594572993071934E-3    9.777624377321733E-1   -7.588837037616755E-3
 6.154010850606443E6     9.776326623805486E-1   -8.109431409188933E-3    2.239900430194744E-2   -3.438329317353202E-3    2.237844142161684E-2   -3.518291729867769E-3    9.777699287450866E-1   -7.652191542143315E-3
 6.200965108122637E6     9.776903683602824E-1   -8.251226692461033E-3    2.236990177168670E-2   -3.367328592113675E-3    2.234268533101014E-2   -3.451998996018127E-3    9.777531458205824E-1   -7.849410117927242E-3
 6.248277620174343E6     9.776676068598299E-1   -8.414736258838804E-3    2.233312377068845E-2   -3.296893157952713E-3    2.231302601101377E-2   -3.373371087032656E-3    9.778364653001617E-1   -8.052839765835150E-3
 6.295951120194497E6     9.777520596989432E-1   -8.548796699061093E-3    2.230356477850819E-2   -3.222534775852558E-3    2.227921832617117E-2   -3.303549117723775E-3    9.778327087012036E-1   -8.198816271480967E-3
 6.343988362471664E6     9.777306721569174E-1   -8.678334701598078E-3    2.227217891635025E-2   -3.157410921669253E-3    2.225765715353898E-2   -3.218603669059526E-3    9.778538178672344E-1   -8.423319711872688E-3
 6.392392122309345E6     9.777897320360013E-1   -8.855422962493675E-3    2.224133668157749E-2   -3.085809514882641E-3    2.222594106031084E-2   -3.145111182043761E-3    9.778918780428641E-1   -8.553705598513837E-3
 6.441165196186168E6     9.778309066811712E-1   -9.025673157513556E-3    2.220605729227937E-2   -3.014090349373178E-3    2.219165534003135E-2   -3.069376086408845E-3    9.778959079876915E-1   -8.591262841282700E-3
 6.490310401917514E6     9.778485357587332E-1   -9.179870867428826E-3    2.217462812743481E-2   -2.939356314101291E-3    2.216329000425323E-2   -2.997027264064768E-3    9.779694035874392E-1   -8.715444859298326E-3
 6.539830578818345E6     9.778763391165460E-1   -9.335777858792723E-3    2.214524799437055E-2   -2.868904564991687E-3    2.212975292000369E-2   -2.920574948153170E-3    9.780070234891993E-1   -8.779993935130223E-3
 6.589728587867169E6     9.779011017613652E-1   -9.471351858946996E-3    2.210795381148688E-2   -2.795600843491104E-3    2.209781490487085E-2   -2.847620455044145E-3    9.780278822941691E-1   -9.012263121036059E-3
 6.640007311871376E6     9.779542166714216E-1   -9.636115262759395E-3    2.208121348950872E-2   -2.718168269740100E-3    2.206766366138627E-2   -2.774082000477703E-3    9.780748634589325E-1   -9.176136133546972E-3
 6.690669655633785E6     9.779884030007222E-1   -9.839901645773964E-3    2.204609154019781E-2   -2.646472759067463E-3    2.203235006431609E-2   -2.700247748837376E-3    9.780972520168598E-1   -9.292157832406108E-3
 6.741718546120445E6     9.779799696152208E-1   -9.973144353550687E-3    2.201273356146359E-2   -2.569029338212562E-3    2.200329235456251E-2   -2.627721374249385E-3    9.781228219171342E-1   -9.437623336919623E-3
 6.793156932629797E6     9.779912468367602E-1   -1.015050920028981E-2    2.198355357548902E-2   -2.499225437142955E-3    2.197138152218880E-2   -2.549279845669781E-3    9.781529030865593E-1   -9.549735532790515E-3
 6.844987786962981E6     9.779794185935029E-1   -1.030800733549347E-2    2.195072409643425E-2   -2.424006455379085E-3    2.194214131259058E-2   -2.477987837922846E-3    9.781627051685537E-1   -9.706251397799768E-3
 6.897214103595586E6     9.779843390738415E-1   -1.053389941366759E-2    2.191112325458058E-2   -2.324121988321183E-3    2.188850770674449E-2   -2.432396935691807E-3    9.782127986420519E-1   -9.960793839748017E-3
 6.949838899850640E6     9.779811740937380E-1   -1.070067008867964E-2    2.188167822330206E-2   -2.247545768849489E-3    2.185909254775975E-2   -2.354315571020681E-3    9.782423553395533E-1   -1.015125545625430E-2
 7.002865216072913E6     9.780495431002755E-1   -1.101508383451048E-2    2.183291156354259E-2   -2.139845635968853E-3    2.181198474825396E-2   -2.356148729036237E-3    9.782688567992099E-1   -1.030937977059507E-2
 7.056296115804635E6     9.780728546949494E-1   -1.118727846567113E-2    2.180450217200191E-2   -2.063652793946545E-3    2.178040718830132E-2   -2.281144889612240E-3    9.782799030907330E-1   -1.040800111590749E-2
 7.110134685962399E6     9.781665851167191E-1   -1.139867879525371E-2    2.177265242115838E-2   -1.985025967709263E-3    2.174725162040606E-2   -2.205208249480683E-3    9.782709657125702E-1   -1.070300897655045E-2
 7.164384037015557E6     9.782140343796550E-1   -1.157533903942648E-2    2.174337559391339E-2   -1.909187891873628E-3    2.171904118795140E-2   -2.128971204068517E-3    9.783329483704173E-1   -1.085606281369406E-2
 7.219047303165923E6     9.782196892746272E-1   -1.176423884543380E-2    2.170820077040584E-2   -1.836698508371420E-3    2.168948608739415E-2   -2.053245162711369E-3    9.783401719150453E-1   -1.103794652931487E-2
 7.274127642528819E6     9.782667209826662E-1   -1.189539644692589E-2    2.168016498890834E-2   -1.754296646506521E-3    2.166224027958562E-2   -1.975162101607168E-3    9.783937881829116E-1   -1.118900594676327E-2
 7.329628237315600E6     9.783407815833388E-1   -1.216753860847282E-2    2.164018839310029E-2   -1.662543930377883E-3    2.163476084636601E-2   -1.945700643330375E-3    9.784320928930782E-1   -1.139173265479262E-2
 7.385552294017412E6     9.783110975359844E-1   -1.230502356081368E-2    2.160971340933058E-2   -1.585935721103972E-3    2.160577388069183E-2   -1.872998197364545E-3    9.784889068222574E-1   -1.156038367235956E-2
 7.441903043590503E6     9.783140794839994E-1   -1.225618576655246E-2    2.161164164617184E-2   -1.571173768205939E-3    2.159627739529672E-2   -1.644058129783087E-3    9.785138443261262E-1   -1.177958734961489E-2
 7.498683741642874E6     9.783751424720452E-1   -1.242587328852097E-2    2.158745099900118E-2   -1.490866593390872E-3    2.156651896963999E-2   -1.567585540211192E-3    9.785008307882057E-1   -1.193312490231151E-2
 7.555897668622349E6     9.784532560702592E-1   -1.281789700889745E-2    2.153206355198957E-2   -1.366031212989872E-3    2.151519500229620E-2   -1.589064815715743E-3    9.785867943071949E-1   -1.210828484824611E-2
 7.613548130006171E6     9.784867775802345E-1   -1.300785412802605E-2    2.150485099491305E-2   -1.284872459795717E-3    2.148617757011039E-2   -1.509923181953839E-3    9.786371109645192E-1   -1.229480814644790E-2
 7.671638456491867E6     9.785391486021725E-1   -1.333048321018052E-2    2.144365519566043E-2   -1.181088643562624E-3    2.149267251115067E-2   -1.550863256831296E-3    9.786530700622588E-1   -1.250616241941584E-2
 7.730172004189732E6     9.785948725799619E-1   -1.350251420586173E-2    2.141661403621092E-2   -1.098987369596210E-3    2.146798661675799E-2   -1.475367907306780E-3    9.786559374621523E-1   -1.268145105445139E-2
 7.789152154816771E6     9.787016166495739E-1   -1.371256910993739E-2    2.138662541033287E-2   -1.020889296782252E-3    2.143948981837199E-2   -1.394202364411514E-3    9.786948648098136E-1   -1.287577787572566E-2
 7.848582315891974E6     9.785992649956435E-1   -1.377550049518543E-2    2.138536221522891E-2   -9.668613196984787E-4    2.137609707102754E-2   -1.193828808423903E-3    9.787593929973669E-1   -1.305468506639600E-2
 7.908465920933248E6     9.786278119024322E-1   -1.396622890753580E-2    2.135337975733322E-2   -8.881629165766908E-4    2.134697376449581E-2   -1.114960051533524E-3    9.787892836935582E-1   -1.324378514873783E-2
 7.968806429655775E6     9.786937163043488E-1   -1.417301158551603E-2    2.132666359152202E-2   -8.103678268089746E-4    2.132101355778866E-2   -1.033654400077867E-3    9.788368924147728E-1   -1.344180449526489E-2
 8.029607328171868E6     9.786694057780509E-1   -1.433355677458962E-2    2.129854483296331E-2   -7.283412874598355E-4    2.129078619249604E-2   -9.548575512725698E-4    9.788061571555265E-1   -1.362282709199817E-2
 8.090872129192449E6     9.786807485021141E-1   -1.448968093409410E-2    2.127088001102137E-2   -6.465149569358499E-4    2.126503022959725E-2   -8.749911571951682E-4    9.788126745279244E-1   -1.380826267225850E-2
 8.152604372229892E6     9.786934230904284E-1   -1.470930074334591E-2    2.124343181768304E-2   -5.642551823543154E-4    2.123610679125115E-2   -7.935530197647111E-4    9.788282884506658E-1   -1.402418320961141E-2
 8.214807623802581E6     9.786840482461994E-1   -1.489288183716596E-2    2.121576291978386E-2   -4.825179642030370E-4    2.121147618200608E-2   -7.114287973401141E-4    9.788405774718835E-1   -1.419048382199465E-2
 8.277485477640945E6     9.787573484595529E-1   -1.508972399425582E-2    2.118776480764505E-2   -4.012387128728416E-4    2.118515587507783E-2   -6.298063452307341E-4    9.788346271253910E-1   -1.440734438097399E-2
 8.340641554895067E6     9.787627246734882E-1   -1.529893874341166E-2    2.115931264208956E-2   -3.204688187019314E-4    2.115612996173337E-2   -5.502805726733941E-4    9.788796364437820E-1   -1.462558162377156E-2
 8.404279504343957E6     9.788150182568431E-1   -1.547499104387720E-2    2.113266980725728E-2   -2.391778568318989E-4    2.113157794546462E-2   -4.661535961738950E-4    9.789349907151544E-1   -1.478382097576309E-2
 8.468403002606256E6     9.787756778800006E-1   -1.569211141456538E-2    2.110660829313213E-2   -1.568613999891857E-4    2.110833785951454E-2   -3.864321706493358E-4    9.789628769772575E-1   -1.502783114292099E-2
 8.533015754352720E6     9.788116310857674E-1   -1.582629482952555E-2    2.109289685810376E-2   -9.023285954873957E-5    2.108096667581682E-2   -2.492817485050022E-4    9.789611577475626E-1   -1.522745237653109E-2
 8.598121492520234E6     9.788438288538952E-1   -1.602063805530196E-2    2.106482967210225E-2   -5.962852767986469E-6    2.105498354748601E-2   -1.639726760525714E-4    9.790053006900432E-1   -1.540486118348573E-2
 8.663723978527457E6     9.790245864908648E-1   -1.646567439720447E-2    2.099584300899461E-2    1.173106011672213E-4    2.107484288887862E-2   -2.627600331185241E-4    9.790287416901646E-1   -1.557196210455952E-2
 8.729827002492212E6     9.790000939270552E-1   -1.664873811199210E-2    2.096601797273702E-2    2.019600981201029E-4    2.105009195294037E-2   -1.786527367823285E-4    9.790370499018067E-1   -1.578220019570077E-2
 8.796434383450346E6     9.790268289176824E-1   -1.689020744665509E-2    2.094098725348326E-2    2.835552720450120E-4    2.102497361410984E-2   -9.611795582488035E-5    9.790872020117416E-1   -1.601393310417857E-2
 8.863549969576446E6     9.790230364517846E-1   -1.704228204530973E-2    2.093343618708269E-2    3.558308893129685E-4    2.096420015800650E-2    6.184708279122035E-5    9.790625170886421E-1   -1.621619313810703E-2
 8.931177638406139E6     9.790294853275264E-1   -1.722022955239756E-2    2.090834528443328E-2    4.409903491496536E-4    2.093693341791434E-2    1.480703669076931E-4    9.791269898707894E-1   -1.641512482690146E-2
 8.999321297060097E6     9.790650492622037E-1   -1.744643147070540E-2    2.088111439612813E-2    5.272311491338654E-4    2.091371732712007E-2    2.320289260837948E-4    9.791428596333954E-1   -1.663301950343834E-2
 9.067984882469844E6     9.790783146123048E-1   -1.765280930619141E-2    2.085806647000240E-2    6.111166818775970E-4    2.088905768329524E-2    3.181911214723475E-4    9.791385291606438E-1   -1.681590746588965E-2
 9.137172361605095E6     9.791569381095472E-1   -1.790830859234116E-2    2.083104407008213E-2    6.968530773490037E-4    2.086365007374705E-2    4.016623465218992E-4    9.791540687177427E-1   -1.701714470855021E-2
 9.206887731702998E6     9.791267265651278E-1   -1.786591593753300E-2    2.084188465724411E-2    7.449993698879178E-4    2.083251911944976E-2    6.332255992658738E-4    9.792068122295068E-1   -1.727749893470676E-2
 9.277135020499127E6     9.791703248624744E-1   -1.811700865346515E-2    2.081557306395250E-2    8.297556784407110E-4    2.080956575906642E-2    7.185995789319077E-4    9.792883888525312E-1   -1.750618920597854E-2
 9.347918286460072E6     9.791757801083316E-1   -1.830491944246091E-2    2.079208235603478E-2    9.176301540757966E-4    2.078351019469100E-2    8.028359382859122E-4    9.792573202682414E-1   -1.770745124715367E-2
 9.419241619017981E6     9.792197276893043E-1   -1.854801934528365E-2    2.076747564657117E-2    1.004382962987761E-3    2.076062052238234E-2    8.915107764186864E-4    9.793311348851563E-1   -1.795143480848015E-2
 9.491109138806809E6     9.792209611920827E-1   -1.875968148806986E-2    2.074387688483758E-2    1.091874704799906E-3    2.073643121597640E-2    9.790258651452284E-4    9.793026633012542E-1   -1.814771123376620E-2
 9.563524997900363E6     9.792205513303477E-1   -1.900850237367792E-2    2.071782525040009E-2    1.181229301420644E-3    2.071114796344798E-2    1.068702427119836E-3    9.792483795300978E-1   -1.836894023110561E-2
 9.636493380052259E6     9.792288186308887E-1   -1.919583335107031E-2    2.069220148590903E-2    1.269508833491620E-3    2.069052033027231E-2    1.156817643262101E-3    9.793802939206837E-1   -1.860440244734781E-2
 9.710018500937525E6     9.792728639518993E-1   -1.942029216414881E-2    2.067042943641049E-2    1.360712401296784E-3    2.066389776660102E-2    1.242627540840219E-3    9.793761087448742E-1   -1.882486256293392E-2
 9.784104608396223E6     9.793046914883415E-1   -1.981171650239589E-2    2.061921609047162E-2    1.476308902529296E-3    2.063922957575874E-2    1.241540128069577E-3    9.794148101811567E-1   -1.899645008977136E-2
 9.858755982678859E6     9.793299178117915E-1   -2.001572262672964E-2    2.059426941267030E-2    1.569357910785443E-3    2.061355783703661E-2    1.329463177824270E-3    9.794007889661693E-1   -1.921172198868018E-2
 9.933976936693633E6     9.793172953327414E-1   -2.023494737248342E-2    2.056952842898229E-2    1.658413972560997E-3    2.059386810233110E-2    1.420196280879125E-3    9.794421296486979E-1   -1.943622472357127E-2
 1.000977181625571E7     9.793676039417443E-1   -2.048759041389096E-2    2.054725918445760E-2    1.748388954111052E-3    2.057132052238059E-2    1.509373216630218E-3    9.794443277536794E-1   -1.965431268764807E-2
 1.008614500033817E7     9.793865676415101E-1   -2.071243449542524E-2    2.052233553020878E-2    1.840118240647517E-3    2.054888087468473E-2    1.599727072629687E-3    9.794396901110241E-1   -1.989308832419321E-2
 1.016310090132507E7     9.794455403892278E-1   -2.092867700482957E-2    2.050052720162352E-2    1.930157092104645E-3    2.052563546480640E-2    1.690125178320077E-3    9.794751841649381E-1   -2.008759737521426E-2
 1.024064396526634E7     9.794049142380069E-1   -2.104865172214893E-2    2.050302422986379E-2    1.995150947243549E-3    2.050254393067355E-2    1.877924443766436E-3    9.794795089417389E-1   -2.037375143925244E-2
 1.031877867213467E7     9.794408041984032E-1   -2.127514164457025E-2    2.048253085158741E-2    2.086293255071637E-3    2.047904902354082E-2    1.972191028578125E-3    9.794766084217377E-1   -2.062495032200547E-2
 1.039750953608436E7     9.794668101899320E-1   -2.151395680920863E-2    2.045683413719738E-2    2.181471498487795E-3    2.045834381747405E-2    2.062317341542646E-3    9.795914805774611E-1   -2.083499996480296E-2
 1.047684110571204E7     9.794577161911885E-1   -2.171603928251357E-2    2.043652862830666E-2    2.274815230112234E-3    2.043552799434795E-2    2.156774334958292E-3    9.795782610894483E-1   -2.106989498380052E-2
 1.055677796431950E7     9.794842997797358E-1   -2.199277976637932E-2    2.041350797857059E-2    2.367671801324022E-3    2.041208613276964E-2    2.250879331896765E-3    9.796366669262129E-1   -2.130654708848761E-2
 1.063732473017859E7     9.796107645387312E-1   -2.248125709896256E-2    2.032958923242506E-2    2.504764637214773E-3    2.046117146345438E-2    2.118518239815648E-3    9.796179202970194E-1   -2.151953489060579E-2
 1.071848605679777E7     9.796417253871418E-1   -2.276395816524336E-2    2.030593465396347E-2    2.599096858186292E-3    2.044251686625229E-2    2.210895677684892E-3    9.796093844947295E-1   -2.177625826177038E-2
 1.080026663319129E7     9.796029323853249E-1   -2.290581930750874E-2    2.030388390210621E-2    2.685032490313210E-3    2.037543632768561E-2    2.380288753246860E-3    9.796654447225610E-1   -2.199422325923314E-2
 1.088267118414987E7     9.796727989875538E-1   -2.317260788647045E-2    2.028342301214248E-2    2.781077215806629E-3    2.035445015726873E-2    2.478878185180351E-3    9.797096756096922E-1   -2.220830233563271E-2
 1.096570447051370E7     9.797350666178004E-1   -2.349324689780032E-2    2.024144176727992E-2    2.885139584139985E-3    2.038445861362849E-2    2.496631130671929E-3    9.796517870311797E-1   -2.249499940393763E-2
 1.104937128944762E7     9.797143991183597E-1   -2.374581333071114E-2    2.021932266063590E-2    2.979776683916748E-3    2.036512508506602E-2    2.591077629233794E-3    9.797031356010015E-1   -2.271683181621651E-2
 1.113367647471805E7     9.797775750467890E-1   -2.396617415773887E-2    2.020085176506222E-2    3.075937209360396E-3    2.034634912666907E-2    2.687810481484037E-3    9.796862315191774E-1   -2.297200172451779E-2
 1.121862489697252E7     9.796291024831730E-1   -2.387966929690766E-2    2.025947838963642E-2    3.101790653727571E-3    2.027089889450412E-2    3.070151595276138E-3    9.797465005112967E-1   -2.327760828027989E-2
 1.130422146402085E7     9.796960805298330E-1   -2.411002668492412E-2    2.023959972322364E-2    3.198242242799986E-3    2.024986862575909E-2    3.170276367573084E-3    9.797112023498941E-1   -2.356000908501732E-2
 1.139047112111875E7     9.797097094902096E-1   -2.436740239257040E-2    2.021943599886574E-2    3.297049704907246E-3    2.022955485278329E-2    3.269166269641635E-3    9.797518235930468E-1   -2.378764862879250E-2
 1.147737885125368E7     9.797099935558379E-1   -2.463844915042910E-2    2.019906251808210E-2    3.397725187820562E-3    2.020697226961856E-2    3.366433493816793E-3    9.798275575097904E-1   -2.403481023130803E-2
 1.156494967543242E7     9.797464642943218E-1   -2.489348109036104E-2    2.017900641956977E-2    3.495759204251249E-3    2.018942521493706E-2    3.467444062402177E-3    9.797608968966899E-1   -2.429655338838675E-2
 1.165318865297152E7     9.797364848223247E-1   -2.520023365945193E-2    2.015188475987957E-2    3.604735391211888E-3    2.016268063374845E-2    3.558634002688795E-3    9.798107421050326E-1   -2.453683227271317E-2
 1.174210088178934E7     9.798472512408116E-1   -2.575639859556771E-2    2.005312244841151E-2    3.765836122783673E-3    2.021683652116936E-2    3.378898892142765E-3    9.798519192802626E-1   -2.471419083743451E-2
 1.183169149870061E7     9.798777855385461E-1   -2.604775104064100E-2    2.003265809153187E-2    3.866000525749803E-3    2.019800032973695E-2    3.478124852691688E-3    9.798506273674954E-1   -2.498232856920683E-2
 1.192196567971337E7     9.798909000700421E-1   -2.631434247937571E-2    2.001410961799989E-2    3.964420084635573E-3    2.018263939652141E-2    3.577814130767722E-3    9.798837809676113E-1   -2.525545405707822E-2
 1.201292864032780E7     9.799024384718810E-1   -2.658732722188323E-2    1.999124636635926E-2    4.065894317866180E-3    2.016359656880493E-2    3.677619808083366E-3    9.798858429457427E-1   -2.550669022761791E-2
 1.210458563583766E7     9.798956325095269E-1   -2.684968779742439E-2    1.997397694187204E-2    4.167545433740907E-3    2.014685436394597E-2    3.780599404372586E-3    9.798753162261127E-1   -2.580191045355501E-2
 1.219694196163385E7     9.799067053445348E-1   -2.712985076283274E-2    1.995490153811719E-2    4.268496216829121E-3    2.013004556465886E-2    3.882804031999611E-3    9.798931842226309E-1   -2.604503283169788E-2
 1.229000295351040E7     9.797848887903817E-1   -2.720279217877014E-2    1.998517280053121E-2    4.348244351153634E-3    2.001836241664823E-2    4.184814888231428E-3    9.799224770322321E-1   -2.635363852573513E-2
 1.238377398797275E7     9.798269497720702E-1   -2.748076993016000E-2    1.996622401141471E-2    4.452349647208868E-3    2.000199767869409E-2    4.286746423408558E-3    9.799095833080510E-1   -2.665247975311605E-2
 1.247826048254829E7     9.798524782883166E-1   -2.774379106605617E-2    1.995011594853931E-2    4.559000362593569E-3    1.998343317022384E-2    4.393261281949863E-3    9.798995418002776E-1   -2.690677175931508E-2
 1.257346789609938E7     9.799489057885794E-1   -2.782415978502321E-2    1.997322867231826E-2    4.615982414025584E-3    1.999118403735369E-2    4.605075329813674E-3    9.799313499300175E-1   -2.721497314446804E-2
 1.266940172913885E7     9.799148172564069E-1   -2.811314896649740E-2    1.995439889198509E-2    4.722407210996838E-3    1.997261633594924E-2    4.712164093695277E-3    9.799451987563356E-1   -2.750409784967907E-2
 1.276606752414753E7     9.799372110478471E-1   -2.839411472783233E-2    1.993718385955717E-2    4.831501820792919E-3    1.995697354971549E-2    4.818828366388995E-3    9.799606610741332E-1   -2.780035520928367E-2
 1.286347086589479E7     9.799394477471591E-1   -2.872101611599959E-2    1.992011130447353E-2    4.939179245802981E-3    1.994053267372222E-2    4.924114663781216E-3    9.799649716307846E-1   -2.809541343310475E-2
 1.296161738176090E7     9.799289343934621E-1   -2.900836384886780E-2    1.990255576028257E-2    5.047199249932924E-3    1.992453237528442E-2    5.033200378953071E-3    9.799774241974896E-1   -2.836665664393359E-2
 1.306051274206230E7     9.799372802747005E-1   -2.928029298215141E-2    1.988419977423661E-2    5.155140180255690E-3    1.990801016503507E-2    5.138455688415221E-3    9.799932891985825E-1   -2.863828180073830E-2
 1.316016266037924E7     9.799719838644673E-1   -2.954980158902521E-2    1.986811176668274E-2    5.265604548446949E-3    1.989052802439516E-2    5.248672760950781E-3    9.800005506875444E-1   -2.892413686144414E-2
 1.326057289388563E7     9.799536321383160E-1   -2.991690076188055E-2    1.983848419673094E-2    5.392402217179107E-3    1.986294021648104E-2    5.334047314487604E-3    9.800456999347347E-1   -2.917652470422861E-2
 1.336174924368203E7     9.799569097972773E-1   -3.019307712211781E-2    1.982337497522777E-2    5.505947304046802E-3    1.984669554286024E-2    5.445567851191354E-3    9.800411145391695E-1   -2.947883132781394E-2
 1.346369755513046E7     9.799742886977280E-1   -3.044636306728737E-2    1.982046423594657E-2    5.600339787314006E-3    1.984310627099456E-2    5.577677122799570E-3    9.800376595953167E-1   -2.975893205016547E-2
 1.356642371819227E7     9.799967247585138E-1   -3.073348085893757E-2    1.980367285278165E-2    5.712100283517252E-3    1.983011389789808E-2    5.687349537245312E-3    9.800564042072898E-1   -3.007930907326359E-2
 1.366993366776852E7     9.800172530027014E-1   -3.106455804004343E-2    1.978810012443680E-2    5.823774063077754E-3    1.981151240861665E-2    5.799652605643328E-3    9.800459044846187E-1   -3.038791891404799E-2
 1.377423338404255E7     9.800188553047792E-1   -3.133579064110276E-2    1.977127962264626E-2    5.936063256283807E-3    1.979685695936322E-2    5.911872056926695E-3    9.800684850535636E-1   -3.067253197865917E-2
 1.387932889282586E7     9.800328423066810E-1   -3.190358410128722E-2    1.969087710535333E-2    6.102063494874348E-3    1.978325557774267E-2    5.841551324393904E-3    9.800894087033581E-1   -3.088880697133257E-2
 1.398522626590596E7     9.801604012059616E-1   -3.232156801261415E-2    1.964141786476955E-2    6.216719052312363E-3    1.987072762196151E-2    5.817306411319997E-3    9.801051416655712E-1   -3.120415746855785E-2
 1.409193162139728E7     9.801585569227701E-1   -3.264635622670111E-2    1.962360875326630E-2    6.328644405121855E-3    1.985900224387688E-2    5.930313686213144E-3    9.801509489991331E-1   -3.148191572586286E-2
 1.419945112409473E7     9.801100000911935E-1   -3.283939576146616E-2    1.964505644558441E-2    6.438016463363294E-3    1.974347032373662E-2    6.176942809494643E-3    9.801673230296524E-1   -3.180760413441638E-2
 1.430779098582953E7     9.801096976184979E-1   -3.312720237386709E-2    1.962879413350392E-2    6.553475295217707E-3    1.973010313631100E-2    6.292104381649132E-3    9.801835501377384E-1   -3.212228828675687E-2
 1.441695746582855E7     9.801043532477712E-1   -3.345107371166450E-2    1.961365674442167E-2    6.668325203209499E-3    1.971937735899724E-2    6.408477483945299E-3    9.802110176749053E-1   -3.242181955451920E-2
 1.452695687107559E7     9.801025963256722E-1   -3.376818654758593E-2    1.960191126818024E-2    6.785511848510311E-3    1.970530021238272E-2    6.523599831988521E-3    9.802005751245958E-1   -3.274400800332346E-2
 1.463779555667585E7     9.801323975571147E-1   -3.406622680984416E-2    1.958668820932956E-2    6.903520317384344E-3    1.969390700222137E-2    6.639253109666975E-3    9.802134296508965E-1   -3.305275260866888E-2
 1.474947992622320E7     9.801119251776286E-1   -3.437610057939978E-2    1.957144202716176E-2    7.019843225955204E-3    1.968182343638345E-2    6.757253403600789E-3    9.802323764690193E-1   -3.336738016087776E-2
 1.486201643216998E7     9.801100255153814E-1   -3.463721516020109E-2    1.959051235437256E-2    7.124628900441420E-3    1.964059501875734E-2    6.987642786867980E-3    9.802199897364393E-1   -3.370043776160170E-2
 1.497541157619987E7     9.800948840117560E-1   -3.505569120310253E-2    1.954333258642817E-2    7.255848739313569E-3    1.965734902372246E-2    6.991338457686487E-3    9.802243044603294E-1   -3.399626465762269E-2
 1.508967190960350E7     9.801195299975418E-1   -3.541382117165121E-2    1.953140943481033E-2    7.376697992608862E-3    1.964638290962591E-2    7.111594694018145E-3    9.802606404369193E-1   -3.433586948140760E-2
 1.520480403365694E7     9.801449544384088E-1   -3.571712736174074E-2    1.951803107911943E-2    7.496518146632622E-3    1.963407341238577E-2    7.231504995839650E-3    9.802620929665793E-1   -3.465609172908961E-2
 1.532081460000315E7     9.801239936987798E-1   -3.607198745136203E-2    1.950590786095234E-2    7.616710624834721E-3    1.962522618419362E-2    7.349039082526152E-3    9.802400061698577E-1   -3.500838649925263E-2
 1.543771031103615E7     9.801692622747059E-1   -3.638237610275043E-2    1.949137411077445E-2    7.741090908428888E-3    1.961404562995599E-2    7.470157757054965E-3    9.802658773475239E-1   -3.532434034722542E-2
 1.555549792028828E7     9.801582817619349E-1   -3.671816712222475E-2    1.947858508151600E-2    7.865260609202136E-3    1.960277712560391E-2    7.591707038472256E-3    9.803139809180441E-1   -3.565505326618058E-2
 1.567418423282054E7     9.801245035779517E-1   -3.694036049193343E-2    1.950065451769884E-2    7.978799461916262E-3    1.955754220434755E-2    7.831484399553685E-3    9.802652113297347E-1   -3.602802966416530E-2
 1.579377610561541E7     9.801409416436092E-1   -3.729290288937056E-2    1.948512915898405E-2    8.103731877439331E-3    1.954542979999685E-2    7.955511948017994E-3    9.802687555106990E-1   -3.634968028982687E-2
 1.591428044797338E7     9.801544187430422E-1   -3.763301220992324E-2    1.947813911075304E-2    8.228718972472579E-3    1.953444335116196E-2    8.079416463619284E-3    9.802862268083589E-1   -3.667359025457613E-2
 1.603570422191187E7     9.801349284905734E-1   -3.800572214988745E-2    1.946651165034870E-2    8.354276576427804E-3    1.952362429763204E-2    8.205188936481964E-3    9.802721925596315E-1   -3.705470246724298E-2
 1.615805444256752E7     9.801771138296019E-1   -3.832666410883459E-2    1.945503906367983E-2    8.480493999509479E-3    1.951387498169601E-2    8.329210525322000E-3    9.802851040910201E-1   -3.734964953123356E-2
 1.628133817860163E7     9.801693852100745E-1   -3.865554325913070E-2    1.944290258523965E-2    8.606402531617374E-3    1.950486068356233E-2    8.456664873438442E-3    9.803280861707160E-1   -3.770476749343212E-2
 1.640556255260818E7     9.801694444019229E-1   -3.907448201435201E-2    1.941856349389377E-2    8.740398157628634E-3    1.950332257860348E-2    8.537660005942568E-3    9.803029985383179E-1   -3.806311481751256E-2
 1.653073474152580E7     9.801764273019695E-1   -3.943439760613433E-2    1.940690817076558E-2    8.867153970709613E-3    1.949505462002491E-2    8.665446018219303E-3    9.803124051378895E-1   -3.838736772373263E-2
 1.665686197705204E7     9.802027876319411E-1   -3.981030888979858E-2    1.939628407525141E-2    8.995844497035992E-3    1.948588187252653E-2    8.792609355738423E-3    9.802745941426273E-1   -3.877178416803063E-2
 1.678395154606132E7     9.802165391943454E-1   -4.018531458161646E-2    1.938645378588964E-2    9.125085357004424E-3    1.947777646656788E-2    8.921445285009289E-3    9.802660603955343E-1   -3.911890339859135E-2
 1.691201079102603E7     9.802111068886137E-1   -4.059868864652736E-2    1.935558855376609E-2    9.261546961809941E-3    1.950305488721201E-2    8.978746431870464E-3    9.803026083449019E-1   -3.946392767098575E-2
 1.704104711044038E7     9.801967860081267E-1   -4.097646816096703E-2    1.934765333473542E-2    9.392420106390268E-3    1.949449532919883E-2    9.107387633043841E-3    9.803044419248367E-1   -3.982612022661455E-2
 1.717106795924834E7     9.802014557682979E-1   -4.132420703994673E-2    1.933622384938228E-2    9.525554639124708E-3    1.948924342087718E-2    9.239803093400226E-3    9.803302849241854E-1   -4.016356006950995E-2
 1.730208084927390E7     9.803131174122310E-1   -4.181470206360947E-2    1.929355382818763E-2    9.652011824907424E-3    1.961987450221616E-2    9.235743544718712E-3    9.803021329610385E-1   -4.052501454150990E-2
 1.743409334965526E7     9.802179571757550E-1   -4.206630713348630E-2    1.932025591201364E-2    9.789297702107768E-3    1.947775737715870E-2    9.503254118757456E-3    9.803104523895837E-1   -4.091678156551777E-2
 1.756711308728221E7     9.802117709289960E-1   -4.247229293307665E-2    1.931152926686647E-2    9.921893039778659E-3    1.946913278791378E-2    9.636621398910600E-3    9.803043842685948E-1   -4.129532125986615E-2
 1.770114774723655E7     9.802200830506778E-1   -4.282890615716295E-2    1.930382782136877E-2    1.005763508642797E-2    1.946341543831070E-2    9.770960306377068E-3    9.803252925969750E-1   -4.165026045411543E-2
 1.783620507323623E7     9.802311160016531E-1   -4.301263997817105E-2    1.937514056545641E-2    1.015763570318562E-2    1.941236775692688E-2    1.012093287472805E-2    9.802951994574981E-1   -4.210996648486862E-2
 1.797229286808272E7     9.801659416885055E-1   -4.344903282212756E-2    1.934834862882234E-2    1.030836297930881E-2    1.939739302768864E-2    1.022773875737126E-2    9.803342269669293E-1   -4.243053752096336E-2
 1.810941899411174E7     9.801628274109874E-1   -4.380198201800431E-2    1.936003106679967E-2    1.043141193258014E-2    1.939736269629344E-2    1.039641663724321E-2    9.802918656092648E-1   -4.286269447403156E-2
 1.824759137364766E7     9.802076055274279E-1   -4.419350773527281E-2    1.935292459042908E-2    1.057005011467233E-2    1.939063842898598E-2    1.053536755226282E-2    9.802946024786361E-1   -4.326689376351394E-2
 1.838681798946100E7     9.802142777266052E-1   -4.457164040666338E-2    1.934702323272194E-2    1.070921711625352E-2    1.938405847313310E-2    1.067447059158986E-2    9.802948825456779E-1   -4.361968519262217E-2
 1.852710688522972E7     9.802117602337087E-1   -4.524898206869008E-2    1.924448851743386E-2    1.087719430693209E-2    1.948483277774499E-2    1.053597828086434E-2    9.803244972688753E-1   -4.393001473611893E-2
 1.866846616600409E7     9.801561868118889E-1   -4.558318585661821E-2    1.925335949872324E-2    1.102082153430052E-2    1.943021003575999E-2    1.073453238085438E-2    9.803038552602132E-1   -4.434820715407761E-2
 1.881090399867451E7     9.802080346007139E-1   -4.580872256403094E-2    1.932012450661752E-2    1.113624122214690E-2    1.936504491935415E-2    1.108401966477807E-2    9.802829877425022E-1   -4.481462867238239E-2
 1.895442861244394E7     9.801599111507558E-1   -4.620101341188831E-2    1.931429452916092E-2    1.127991759508261E-2    1.935925910010980E-2    1.122671723346245E-2    9.802659327011278E-1   -4.521012021492864E-2
 1.909904829930285E7     9.801551550977660E-1   -4.661388875093105E-2    1.930875642912335E-2    1.142322276252976E-2    1.935531171530644E-2    1.136888394862867E-2    9.802641202262699E-1   -4.560835417262552E-2
 1.924477141450845E7     9.801469008474347E-1   -4.701872242907086E-2    1.930537378800987E-2    1.156825045880502E-2    1.935150101651312E-2    1.151675003966572E-2    9.802999349513291E-1   -4.600010662060608E-2
 1.939160637706759E7     9.801394853830168E-1   -4.744068564266954E-2    1.929957182906108E-2    1.171256412876218E-2    1.934845209235492E-2    1.165994955899651E-2    9.802662234467909E-1   -4.643094729170791E-2
 1.953956167022271E7     9.801558876922526E-1   -4.785367633489147E-2    1.929656783127645E-2    1.185682373419976E-2    1.934506068798464E-2    1.180616672777030E-2    9.802586998500509E-1   -4.682397096478927E-2
 1.968864584194249E7     9.801366001754991E-1   -4.830631987652666E-2    1.928102073655321E-2    1.201069413890947E-2    1.933849147575503E-2    1.193322870103508E-2    9.802392469199381E-1   -4.723749570499353E-2
 1.983886750541528E7     9.801241357009245E-1   -4.893813089991715E-2    1.919754506861011E-2    1.217192966497218E-2    1.946389865466368E-2    1.182569976342019E-2    9.802434081639224E-1   -4.758855059564449E-2
 1.999023533954688E7     9.801243742169667E-1   -4.936300581510927E-2    1.919233583937364E-2    1.231921929192568E-2    1.946692205933457E-2    1.197185995995432E-2    9.802462580404080E-1   -4.800925301467709E-2
 2.014275808946211E7     9.801174405978245E-1   -4.978365997536918E-2    1.918768525505892E-2    1.246832827899563E-2    1.946707514137426E-2    1.212083927735618E-2    9.802366838804162E-1   -4.843769425976000E-2
 2.029644456700960E7     9.801174997380813E-1   -5.022110763644452E-2    1.918703141644573E-2    1.261823890647692E-2    1.946823807632936E-2    1.227111000307543E-2    9.802295559422005E-1   -4.885622560558289E-2
 2.045130365127147E7     9.801016727030919E-1   -5.066633332505976E-2    1.918276794507403E-2    1.276807029004825E-2    1.946883227922631E-2    1.242338679326931E-2    9.802325889602866E-1   -4.927332061058204E-2
 2.060734428907584E7     9.801296541598360E-1   -5.109204428276023E-2    1.918110372951077E-2    1.291981577098681E-2    1.946839989858495E-2    1.257373643992252E-2    9.802045131933090E-1   -4.969161830782249E-2
 2.076457549551392E7     9.800738869370786E-1   -5.155475438204069E-2    1.917821913700879E-2    1.307198816472439E-2    1.946949713755829E-2    1.272712256634086E-2    9.801961080805505E-1   -5.012910490723194E-2
 2.092300635446098E7     9.800384118919981E-1   -5.200119994207834E-2    1.917599430927675E-2    1.322569295501154E-2    1.947293164921486E-2    1.288080237236292E-2    9.801928228872681E-1   -5.056528906591589E-2
 2.108264601910070E7     9.800356592804644E-1   -5.243511531310338E-2    1.917389466744829E-2    1.337895943510462E-2    1.947342664689266E-2    1.303338143819288E-2    9.801674619541004E-1   -5.100925338967098E-2
 2.124350371245464E7     9.800525952383999E-1   -5.267470660066166E-2    1.927652766451391E-2    1.351768998108187E-2    1.932896309122648E-2    1.348869164632872E-2    9.801570337101850E-1   -5.154993997990525E-2
 2.140558872791451E7     9.800260572210958E-1   -5.312519985464925E-2    1.927636801026317E-2    1.367505498202237E-2    1.932883357211883E-2    1.364734206080347E-2    9.801700231537442E-1   -5.196400003725843E-2
 2.156891042977939E7     9.799857123011113E-1   -5.370022975463035E-2    1.920738287249441E-2    1.385363213105481E-2    1.936333421978698E-2    1.364811241126285E-2    9.801660771295347E-1   -5.235559249491818E-2
 2.173347825379676E7     9.799608358580529E-1   -5.420395903501855E-2    1.920898083384312E-2    1.401159700460611E-2    1.936390043867851E-2    1.380568370181835E-2    9.801532241909741E-1   -5.284364788826373E-2
 2.189930170770744E7     9.799220727352304E-1   -5.465066436550860E-2    1.920698829691482E-2    1.417075759707506E-2    1.936759618496997E-2    1.396380223098048E-2    9.801361168418031E-1   -5.326668027855985E-2
 2.206639037179505E7     9.798929038795994E-1   -5.509488368306657E-2    1.920970220492899E-2    1.433155572209685E-2    1.937028543528013E-2    1.412501551867749E-2    9.800992669718568E-1   -5.375122991444747E-2
 2.223475389943947E7     9.799336353010536E-1   -5.544854260170609E-2    1.927806612536410E-2    1.447250583034830E-2    1.933667644477587E-2    1.444899045452309E-2    9.800982372427255E-1   -5.427244776782152E-2
 2.240440201767448E7     9.799331639482932E-1   -5.592428180244834E-2    1.927872401505588E-2    1.463496261022046E-2    1.933717300830229E-2    1.461305162374498E-2    9.800544705380397E-1   -5.473234253029376E-2
 2.257534452774993E7     9.799175393953410E-1   -5.640722102311639E-2    1.928128527516831E-2    1.479885258378483E-2    1.934011694210860E-2    1.477615997941245E-2    9.800272705045966E-1   -5.519196110859057E-2
 2.274759130569773E7     9.798858602364918E-1   -5.689119008556019E-2    1.928325022128520E-2    1.496335721063052E-2    1.934364050360690E-2    1.494239301324174E-2    9.800243514744972E-1   -5.565616414473314E-2
 2.292115230290256E7     9.798713260207202E-1   -5.738650200469667E-2    1.928396242945713E-2    1.512859546838744E-2    1.934856270852131E-2    1.510898375380709E-2    9.800170743202329E-1   -5.616664106660316E-2
 2.309603754667697E7     9.798327671904526E-1   -5.787743994713790E-2    1.928755572552382E-2    1.529479437922953E-2    1.935223280431045E-2    1.527731581735860E-2    9.799789464425451E-1   -5.664048241803390E-2
 2.327225714084021E7     9.798098483017127E-1   -5.839781749599156E-2    1.929070224516380E-2    1.546402251099232E-2    1.935591158567425E-2    1.544677763729999E-2    9.799621349169263E-1   -5.712151545332284E-2
 2.344982126630262E7     9.797415197246124E-1   -5.899109661440566E-2    1.923914222047940E-2    1.564581597153169E-2    1.937871690341286E-2    1.550361211095808E-2    9.799863192049363E-1   -5.752667612267316E-2
 2.362874018165328E7     9.797062638297837E-1   -5.951322730186113E-2    1.924102592370330E-2    1.581737030346691E-2    1.938541721514878E-2    1.567344442505655E-2    9.799619385638432E-1   -5.801214801900240E-2
 2.380902422375290E7     9.797231318171076E-1   -6.005624423461543E-2    1.920634972900177E-2    1.598211157739341E-2    1.948739153497749E-2    1.570680000510526E-2    9.799341577402132E-1   -5.851129927866346E-2
 2.399068380833123E7     9.796788642752029E-1   -6.058333011608783E-2    1.920829559156337E-2    1.615302769951686E-2    1.949367550591657E-2    1.587777948540883E-2    9.799152108863390E-1   -5.903650980965570E-2
 2.417372943058824E7     9.796644690089167E-1   -6.100412383439738E-2    1.925034873308325E-2    1.633376400171862E-2    1.940357710478040E-2    1.618878287835314E-2    9.799017843305446E-1   -5.952636724102971E-2
 2.435817166580120E7     9.796233587873022E-1   -6.149864120743317E-2    1.925450590675551E-2    1.650763826018585E-2    1.940859164766204E-2    1.636299728551869E-2    9.798860951571976E-1   -6.002874397043622E-2
 2.454402116993507E7     9.796042282068825E-1   -6.213419070348009E-2    1.922074986573558E-2    1.667575062936458E-2    1.951751936034245E-2    1.639828207179622E-2    9.798516211969565E-1   -6.052793913666474E-2
 2.473128868025839E7     9.795616879458910E-1   -6.265198093746285E-2    1.922534574769944E-2    1.685720027658533E-2    1.952774050962055E-2    1.657336255006075E-2    9.798204379354676E-1   -6.103936406195254E-2
 2.491998501596375E7     9.795209815462711E-1   -6.316125791708657E-2    1.923024180592163E-2    1.703641611376650E-2    1.953608107684398E-2    1.675088041993145E-2    9.798349996517201E-1   -6.152807568394945E-2
 2.511012107879237E7     9.795379918667960E-1   -6.352760097791268E-2    1.933028188692858E-2    1.721519461401359E-2    1.941465263904048E-2    1.719117510423735E-2    9.797365751724353E-1   -6.212710609920837E-2
 2.530170785366461E7     9.794883271630782E-1   -6.402669134434961E-2    1.933639025792631E-2    1.740042868439194E-2    1.942140218915995E-2    1.737260668597576E-2    9.797184446529357E-1   -6.265525950167183E-2
 2.549475640931404E7     9.795002945450378E-1   -6.456027451540874E-2    1.934733264521106E-2    1.758768552753065E-2    1.942741560108530E-2    1.755470815294620E-2    9.796682236459808E-1   -6.320360592680303E-2
 2.568927789892715E7     9.794743012256516E-1   -6.512508674637318E-2    1.935732152261397E-2    1.777839022361598E-2    1.943234711240514E-2    1.773983750844693E-2    9.796710053676706E-1   -6.371606896333809E-2
 2.588528356078789E7     9.794039146476166E-1   -6.570045209981598E-2    1.934394150043904E-2    1.797583603340247E-2    1.944058864877862E-2    1.788491389626610E-2    9.796426550086412E-1   -6.423153679429565E-2
 2.608278471892660E7     9.794025819990639E-1   -6.621528092492535E-2    1.938443363507560E-2    1.815944309936823E-2    1.944657035940158E-2    1.812120862320613E-2    9.795835818497240E-1   -6.479937494870444E-2
 2.628179278377446E7     9.793734669933517E-1   -6.674080989184186E-2    1.940109042770257E-2    1.834855075317299E-2    1.946056266566586E-2    1.831908067671456E-2    9.795461186066169E-1   -6.532366674398170E-2
 2.648231925282269E7     9.793025857590950E-1   -6.740923150607875E-2    1.935907897108488E-2    1.854877173192937E-2    1.950892456118583E-2    1.838936411506870E-2    9.795661959658445E-1   -6.579264354494299E-2
 2.668437571128672E7     9.792468256442770E-1   -6.799646355122221E-2    1.937367275994049E-2    1.873669040825565E-2    1.952629357232348E-2    1.858014657148634E-2    9.795448632319650E-1   -6.636049639570860E-2
 2.688797383277575E7     9.792040629825702E-1   -6.856280408562092E-2    1.938592729529688E-2    1.892577950580783E-2    1.954422406399026E-2    1.876894520768944E-2    9.795032990951280E-1   -6.692446976932090E-2
 2.709312537996687E7     9.791771103666270E-1   -6.908506627461217E-2    1.943181457904590E-2    1.911583225633763E-2    1.952974121093227E-2    1.904195544261272E-2    9.794888255164594E-1   -6.749505754603601E-2
 2.729984220528475E7     9.791649733573853E-1   -6.963387012945114E-2    1.944751994070884E-2    1.930880542189127E-2    1.954590315126512E-2    1.923643901568806E-2    9.794348615701813E-1   -6.808438007604592E-2
 2.750813625158667E7     9.791547065758802E-1   -7.018265138220421E-2    1.946362542688105E-2    1.950274254991786E-2    1.956374166554511E-2    1.943205095743105E-2    9.794222085637139E-1   -6.862176821435763E-2
 2.771801955285188E7     9.791035652884977E-1   -7.098028633240003E-2    1.940122384076629E-2    1.967916276593832E-2    1.982847490259115E-2    1.933371491626608E-2    9.794054645640730E-1   -6.913093248498212E-2
 2.792950423487763E7     9.790362347097450E-1   -7.147192999109740E-2    1.944856462274194E-2    1.989082143990124E-2    1.967185502372158E-2    1.968087397941671E-2    9.793585019271761E-1   -6.972502720398935E-2
 2.814260251597910E7     9.790188177593661E-1   -7.206758095555223E-2    1.946432196716203E-2    2.008619704854167E-2    1.969047780756182E-2    1.987710283653871E-2    9.793169107186547E-1   -7.032620608862106E-2
 2.835732670769557E7     9.789690814952408E-1   -7.268315519536728E-2    1.948108301212017E-2    2.028405412301416E-2    1.970956421521142E-2    2.007593404696825E-2    9.792914077294378E-1   -7.089022302891473E-2
 2.857368921550186E7     9.789678943189667E-1   -7.315673819198033E-2    1.957615649703516E-2    2.047761772361669E-2    1.964919272423683E-2    2.046887693756297E-2    9.792404905606356E-1   -7.154581104020140E-2
 2.879170253952448E7     9.789244821716523E-1   -7.376456187564703E-2    1.959337517814729E-2    2.067892261306595E-2    1.966897674300333E-2    2.066955514070770E-2    9.791694141013734E-1   -7.212449154029606E-2
 2.901137927526460E7     9.788798284100223E-1   -7.435650738652105E-2    1.961035238258898E-2    2.087852508252355E-2    1.968697971119427E-2    2.087309523613733E-2    9.791413174682476E-1   -7.271860558901588E-2
 2.923273211432508E7     9.788497558994241E-1   -7.500088421582124E-2    1.962750067299801E-2    2.108187025841507E-2    1.970836392131088E-2    2.107649373222020E-2    9.791017268679064E-1   -7.334667279151509E-2
 2.945577384514398E7     9.788170342273740E-1   -7.562472895637984E-2    1.964792617912763E-2    2.128649023283315E-2    1.972656970535427E-2    2.128281860911722E-2    9.790699258484766E-1   -7.395122446823202E-2
 2.968051735373363E7     9.787833166694014E-1   -7.625120101778322E-2    1.966815908542927E-2    2.149150264515703E-2    1.974713687550722E-2    2.149092320365860E-2    9.790034330893757E-1   -7.457476672650515E-2
 2.990697562442441E7     9.786665885686429E-1   -7.700225205883164E-2    1.964686634834482E-2    2.170381497081269E-2    1.978693608773422E-2    2.161282720393470E-2    9.789985481532681E-1   -7.513445242894910E-2
 3.013516174061584E7     9.786278396073907E-1   -7.758487552543315E-2    1.968203560873533E-2    2.190973441593337E-2    1.979421090883198E-2    2.186202936519223E-2    9.789535852572366E-1   -7.576110136147717E-2
 3.036508888553168E7     9.785404545903930E-1   -7.825797791575818E-2    1.968614066002813E-2    2.211750417901646E-2    1.983280722888732E-2    2.203556902316176E-2    9.789062423488348E-1   -7.635957514839348E-2
 3.059677034298190E7     9.785405993477156E-1   -7.889158686313601E-2    1.970958883152200E-2    2.232859180131532E-2    1.985459875650308E-2    2.224793954587054E-2    9.788561014075320E-1   -7.699747948416204E-2
 3.083021949813037E7     9.784720092438441E-1   -7.983156745574387E-2    1.966909573521088E-2    2.249655886406812E-2    2.034582074922731E-2    2.213345945116560E-2    9.787923456789271E-1   -7.759650268936076E-2
 3.106544983826748E7     9.784257608378296E-1   -8.046715256742780E-2    1.969232034053406E-2    2.271264383245993E-2    2.037563805640169E-2    2.234649589816877E-2    9.787514143983154E-1   -7.821924359318715E-2
 3.130247495359022E7     9.784013437873155E-1   -8.081763785259925E-2    1.982415695347611E-2    2.296458581996176E-2    1.990460561704142E-2    2.298574797047744E-2    9.786629038533398E-1   -7.895385315125249E-2
 3.154130853798668E7     9.783265004572862E-1   -8.150827025687460E-2    1.984811190244987E-2    2.318256494752034E-2    1.993130567812467E-2    2.320542199381832E-2    9.786229271762860E-1   -7.959862389350995E-2
 3.178196438982744E7     9.782970892378787E-1   -8.219149123820535E-2    1.987277991941176E-2    2.340241331675094E-2    1.995797425649402E-2    2.342421157311598E-2    9.785685514854222E-1   -8.027658045135042E-2
 3.202445641276293E7     9.782117739646476E-1   -8.284758763587792E-2    1.986478161572171E-2    2.362914150149171E-2    1.999415165256552E-2    2.359200798771863E-2    9.785314564273362E-1   -8.088832421742716E-2
 3.226879861652631E7     9.781924808302631E-1   -8.352966247928460E-2    1.992012533023401E-2    2.384876332654209E-2    2.001138669946820E-2    2.386807792406136E-2    9.784537859364908E-1   -8.157549436214871E-2
 3.251500511774320E7     9.780320790892875E-1   -8.444612805906092E-2    1.984374283910937E-2    2.404406978468688E-2    2.036498928703898E-2    2.372196794692921E-2    9.784394030574510E-1   -8.216610118808075E-2
 3.276309014074709E7     9.779636776647704E-1   -8.516293739600575E-2    1.986822572765703E-2    2.426785435268546E-2    2.039594788702279E-2    2.394753466086607E-2    9.783806114519408E-1   -8.280513303046298E-2
 3.301306801840112E7     9.778907566321176E-1   -8.588709666564313E-2    1.989731264421291E-2    2.449289505165356E-2    2.043046805204040E-2    2.417243595414910E-2    9.783274803583289E-1   -8.347227065744722E-2
 3.326495319292643E7     9.778451070903873E-1   -8.659125170742699E-2    1.992206816796935E-2    2.472217120654728E-2    2.046325039696853E-2    2.439921913487715E-2    9.782785972011983E-1   -8.416997489144379E-2
 3.351876021673609E7     9.778826279244797E-1   -8.704775419450228E-2    2.005181208444359E-2    2.498393738033129E-2    2.015226218345097E-2    2.500429584430676E-2    9.781601946726528E-1   -8.497098544470608E-2
 3.377450375327612E7     9.778154791979683E-1   -8.772618456147874E-2    2.008010837452521E-2    2.521490536445500E-2    2.018126657040205E-2    2.523459924769552E-2    9.781192200763807E-1   -8.565361232338949E-2
 3.403219857787284E7     9.776888788771152E-1   -8.853900997081797E-2    2.006149444727798E-2    2.545076031419298E-2    2.023976619388715E-2    2.536888090447171E-2    9.780726951436151E-1   -8.630787381317621E-2
 3.429185957858586E7     9.776221180028092E-1   -8.927105672585745E-2    2.009264293725256E-2    2.568553480782883E-2    2.026667777094629E-2    2.560104570623403E-2    9.780192530731876E-1   -8.700118383702836E-2
 3.455350175706909E7     9.775437064138001E-1   -8.999107831790652E-2    2.012352531062804E-2    2.592509087739266E-2    2.029512828047128E-2    2.583528145143071E-2    9.779406022945677E-1   -8.769424085107021E-2
 3.481714022943672E7     9.774210344527582E-1   -9.094409093304931E-2    2.010754096964323E-2    2.612970003523761E-2    2.065160005092165E-2    2.578937382689354E-2    9.778750642431666E-1   -8.839118079964167E-2
 3.508279022713681E7     9.773240745823690E-1   -9.171443741424459E-2    2.014140940443608E-2    2.636738430137395E-2    2.067848519482888E-2    2.602640014837643E-2    9.777899429952760E-1   -8.908634839246581E-2
 3.535046709783159E7     9.772662390771769E-1   -9.245628239902691E-2    2.017968577352497E-2    2.661104782795047E-2    2.070446282680560E-2    2.627018977404084E-2    9.777261890013632E-1   -8.981354008621749E-2
 3.562018630628331E7     9.771885811164035E-1   -9.320803334026087E-2    2.021825643238078E-2    2.685610194442144E-2    2.072240023812193E-2    2.652259339601871E-2    9.776289721679446E-1   -9.053859348355148E-2
 3.589196343524875E7     9.771082549660735E-1   -9.400698918448319E-2    2.025951756018520E-2    2.709892793180754E-2    2.074388821746127E-2    2.679664847736673E-2    9.775377348949297E-1   -9.124232053884843E-2
 3.616581418637872E7     9.770307907571831E-1   -9.477759413181508E-2    2.030247374232953E-2    2.734395308892542E-2    2.078953117652165E-2    2.708378711958755E-2    9.774716223878419E-1   -9.194724515555931E-2
 3.644175438112541E7     9.769722929845819E-1   -9.560611342876046E-2    2.034843019990765E-2    2.758874805073101E-2    2.085806250005647E-2    2.735985882287527E-2    9.774180153993377E-1   -9.267392065149294E-2
 3.671979996165685E7     9.769172966479535E-1   -9.629928156328463E-2    2.041158050836739E-2    2.785418152081929E-2    2.067132420892641E-2    2.777774635240094E-2    9.773798131068068E-1   -9.344042909565767E-2
 3.699996699177712E7     9.768079652796271E-1   -9.715548607257346E-2    2.045572818847358E-2    2.809758555774105E-2    2.073360557476336E-2    2.802704554379328E-2    9.773142280714194E-1   -9.418582220380736E-2
 3.728227165785540E7     9.767449674930022E-1   -9.795953128113880E-2    2.050014199319358E-2    2.835401850617556E-2    2.078812563118489E-2    2.827782981895337E-2    9.772504660051377E-1   -9.493953978558230E-2
 3.756673026976037E7     9.766256045088095E-1   -9.876307167371336E-2    2.054359848652230E-2    2.860819265231987E-2    2.083772545260800E-2    2.852693252066011E-2    9.771742276826285E-1   -9.570836218363871E-2
 3.785335926180276E7     9.766440769778273E-1   -9.941909957122218E-2    2.066738127606481E-2    2.888150606924270E-2    2.074489485465455E-2    2.901964717591595E-2    9.770444639482000E-1   -9.656750809826616E-2
 3.814217519368506E7     9.765720436680294E-1   -1.002281564081030E-1    2.071188271225360E-2    2.914336302501978E-2    2.079428992217099E-2    2.927577524754427E-2    9.769816071233545E-1   -9.733721257801567E-2
 3.843319475145779E7     9.764602144743132E-1   -1.010285093278278E-1    2.075738703209094E-2    2.940651007736821E-2    2.084122921416006E-2    2.953597377600244E-2    9.768880973214846E-1   -9.810675766601618E-2
 3.872643474848381E7     9.764187765145814E-1   -1.018272909200456E-1    2.080414600978250E-2    2.967398743980682E-2    2.089050294070452E-2    2.980025494926811E-2    9.768096159040915E-1   -9.891126904374362E-2
 3.902191212640966E7     9.763265792811919E-1   -1.026504228775627E-1    2.085180802326031E-2    2.993597987982221E-2    2.093900393590726E-2    3.006490935845182E-2    9.767321111263004E-1   -9.971448887947214E-2
 3.931964395614420E7     9.762619709904465E-1   -1.034610304896185E-1    2.090103146386718E-2    3.020432000271375E-2    2.099122213472640E-2    3.033074305258375E-2    9.766495197752613E-1   -1.004842986377820E-1
 3.961964743884522E7     9.761307624634425E-1   -1.043484757356791E-1    2.091662990994376E-2    3.047719682013675E-2    2.106074248047620E-2    3.053630364560858E-2    9.765919937345132E-1   -1.012747046236392E-1
 3.992193990691278E7     9.760445012524650E-1   -1.051992994282772E-1    2.096945477514447E-2    3.074808267494070E-2    2.111216398110113E-2    3.080743932773736E-2    9.765012090078805E-1   -1.020770803947806E-1
 4.022653882499073E7     9.758701039288663E-1   -1.061611444334076E-1    2.097522091012781E-2    3.100666773793662E-2    2.130211242291821E-2    3.089515452113369E-2    9.764307669815403E-1   -1.028328816412689E-1
 4.053346179097611E7     9.757677228924617E-1   -1.070066677324747E-1    2.102706452918632E-2    3.128662953931668E-2    2.135830381826558E-2    3.116865380252877E-2    9.763459857917541E-1   -1.036852242322136E-1
 4.084272653703488E7     9.756933976007813E-1   -1.078553196010279E-1    2.107638260529553E-2    3.157792752227393E-2    2.141484512494611E-2    3.144228327129976E-2    9.762587550123584E-1   -1.045104218013446E-1
 4.115435093062763E7     9.755682758786228E-1   -1.088175823156855E-1    2.111862673866593E-2    3.184320600649077E-2    2.162065743077584E-2    3.161421535043851E-2    9.761625182740317E-1   -1.053231985436659E-1
 4.146835297554084E7     9.754655613657028E-1   -1.097187358916870E-1    2.117035707822752E-2    3.211853399532974E-2    2.167942165896912E-2    3.189316684990549E-2    9.760702155893800E-1   -1.061741259362931E-1
 4.178475081292742E7     9.753692941459052E-1   -1.107787059431311E-1    2.123190006556271E-2    3.238134326691246E-2    2.215617995604357E-2    3.206527697257889E-2    9.759748984932307E-1   -1.070069289053492E-1
 4.210356272235513E7     9.752598760710506E-1   -1.116529849342657E-1    2.128822208322147E-2    3.266779086198389E-2    2.222253248676653E-2    3.234793701723181E-2    9.758692307691185E-1   -1.078477990240326E-1
 4.242480712286174E7     9.751640143134929E-1   -1.125407819411545E-1    2.134671381811042E-2    3.296371614972612E-2    2.229042618056037E-2    3.263256944042740E-2    9.757662324445040E-1   -1.087287407357160E-1
 4.274850257402029E7     9.750482820161522E-1   -1.134328529408578E-1    2.140680173220651E-2    3.326097085816774E-2    2.235731251732015E-2    3.291993906443628E-2    9.756738832349380E-1   -1.095819473231747E-1
 4.307466777701053E7     9.751176088072755E-1   -1.138401115181710E-1    2.154590816154856E-2    3.362008149969582E-2    2.166112628698835E-2    3.368710664421692E-2    9.754978383549580E-1   -1.105635673828373E-1
 4.340332157569963E7     9.748305563056551E-1   -1.152438605663709E-1    2.152907020972076E-2    3.386750795095260E-2    2.249017425817483E-2    3.350249520737938E-2    9.754541143588842E-1   -1.113286843833931E-1
 4.373448295773120E7     9.746892755276919E-1   -1.161182786739075E-1    2.159084299006860E-2    3.417493340628523E-2    2.256419447839696E-2    3.379577211228588E-2    9.753454680930234E-1   -1.122042347233685E-1
 4.406817105562137E7     9.745793653889553E-1   -1.168058407449995E-1    2.164338164481911E-2    3.449968166992513E-2    2.219352232694416E-2    3.419721378895329E-2    9.752276073794252E-1   -1.131307496635362E-1
 4.440440514786536E7     9.744453686401291E-1   -1.177305566262359E-1    2.171030512327905E-2    3.480924998929704E-2    2.226228218194080E-2    3.449466798203919E-2    9.751216268743376E-1   -1.140528599959746E-1
 4.474320466005030E7     9.743196662016501E-1   -1.186519384983747E-1    2.177995366224324E-2    3.512765717759678E-2    2.233080852571019E-2    3.479442982608744E-2    9.750002476478540E-1   -1.149294667253717E-1
 4.508458916597787E7     9.742581201131345E-1   -1.194215506241298E-1    2.187248027773180E-2    3.547232819783347E-2    2.215626130734163E-2    3.528842934054731E-2    9.748750303460690E-1   -1.158939637404867E-1
 4.542857838879555E7     9.741559835723117E-1   -1.203585780989958E-1    2.194592093532177E-2    3.579580027147774E-2    2.222506753136788E-2    3.559525492848251E-2    9.747471165847531E-1   -1.167999503709913E-1
 4.577519220213508E7     9.740439425498777E-1   -1.212755772524273E-1    2.201752186234470E-2    3.612126702047311E-2    2.229603888373010E-2    3.590144367283029E-2    9.746380311400500E-1   -1.177193762694877E-1
 4.612445063126191E7     9.739182594692014E-1   -1.221914176435118E-1    2.208483703976924E-2    3.644398344191482E-2    2.236890836821926E-2    3.621117383374927E-2    9.745008930101923E-1   -1.186655093113407E-1
 4.647637385423118E7     9.737865525724287E-1   -1.231279509989207E-1    2.215787548080710E-2    3.676703653988559E-2    2.244268737388930E-2    3.652527399039823E-2    9.743809695365274E-1   -1.195917246217097E-1
 4.683098220305377E7     9.736536634903586E-1   -1.240986973005860E-1    2.222863337639908E-2    3.708798763698608E-2    2.251474551214700E-2    3.683823237859691E-2    9.742518437430331E-1   -1.205493613438430E-1
 4.718829616487134E7     9.735123451673430E-1   -1.250480679777814E-1    2.230314714803112E-2    3.741251615637026E-2    2.259179229393761E-2    3.715604976540577E-2    9.741294791820331E-1   -1.215259478594505E-1
 4.754833638313931E7     9.732922924957734E-1   -1.262170608386403E-1    2.235710686139919E-2    3.771589739479175E-2    2.293437498390658E-2    3.727841623087629E-2    9.740141207241650E-1   -1.224574416566315E-1
 4.791112365881994E7     9.731631034604812E-1   -1.272224802006044E-1    2.243232188338427E-2    3.804264140237851E-2    2.301497068642155E-2    3.760031578956085E-2    9.738642671909518E-1   -1.234106164190118E-1
 4.827667895158397E7     9.730216578899548E-1   -1.282194111611364E-1    2.250919639602072E-2    3.837354460996469E-2    2.309450782766299E-2    3.792756764272311E-2    9.737241541038211E-1   -1.243700277370650E-1
 4.864502338102144E7     9.728806525384748E-1   -1.291918728865895E-1    2.258815618755124E-2    3.870558313058067E-2    2.317997802526907E-2    3.825643939411257E-2    9.735869583806489E-1   -1.253592398450469E-1
 4.901617822786229E7     9.727333313402423E-1   -1.302005762323392E-1    2.266829915338827E-2    3.904482837433072E-2    2.326614225222361E-2    3.858640450582729E-2    9.734443493658305E-1   -1.263441711938414E-1
 4.939016493520518E7     9.725914543701535E-1   -1.312521244021623E-1    2.275399666620357E-2    3.938226580554538E-2    2.335585113527694E-2    3.892101995921007E-2    9.732924144924434E-1   -1.273395255812462E-1
 4.976700510975666E7     9.724392948249384E-1   -1.322933392091824E-1    2.283791247662616E-2    3.971718459513841E-2    2.344627792706255E-2    3.925416144741282E-2    9.731323955016251E-1   -1.283361221726053E-1
 5.014672052307993E7     9.723104306612638E-1   -1.333318930063076E-1    2.292304895795051E-2    4.005227173038474E-2    2.353591948662064E-2    3.959520573244971E-2    9.729921726986160E-1   -1.293464731615108E-1
 5.052933311285146E7     9.721510777949438E-1   -1.344028610057119E-1    2.301175005130805E-2    4.039014182894992E-2    2.363442538173320E-2    3.993344846648883E-2    9.728463564255146E-1   -1.303781926031222E-1
 5.091486498412994E7     9.719709090935313E-1   -1.354510008868925E-1    2.310049441681038E-2    4.073041502348700E-2    2.373411233508295E-2    4.027745908975743E-2    9.726851476557359E-1   -1.313956904317270E-1
 5.130333841063219E7     9.717995635047434E-1   -1.365600004742714E-1    2.319309802902410E-2    4.106434015691291E-2    2.383406184503343E-2    4.062380113470810E-2    9.725244279025301E-1   -1.324482504945659E-1
 5.169477583602042E7     9.716479583085683E-1   -1.376065472681252E-1    2.328383892773152E-2    4.140651188917958E-2    2.393599175255691E-2    4.096959879384031E-2    9.723789328121627E-1   -1.334855748550880E-1
 5.208919987519933E7     9.715021324244582E-1   -1.386888825609831E-1    2.338105716533375E-2    4.175556747328242E-2    2.404316025079946E-2    4.131613138500342E-2    9.722151742427350E-1   -1.345264244366602E-1
 5.248663331562151E7     9.713192674827265E-1   -1.397843725178428E-1    2.348084894165316E-2    4.211610727168317E-2    2.415010809608859E-2    4.166508807998128E-2    9.720510560400978E-1   -1.355771555025773E-1
 5.288709911860541E7     9.711677475074241E-1   -1.408784984347928E-1    2.358707001375665E-2    4.247443396560286E-2    2.425224885732821E-2    4.201779746602061E-2    9.718799498250486E-1   -1.366482400793437E-1
 5.329062042066076E7     9.709951167719066E-1   -1.419612597750135E-1    2.369097629447250E-2    4.283405508497176E-2    2.435817318433915E-2    4.237216361622226E-2    9.717144146584998E-1   -1.377048974872761E-1
 5.369722053482568E7     9.708202889961081E-1   -1.430906027897124E-1    2.379813112934691E-2    4.320007223434008E-2    2.446963336548908E-2    4.272894075799943E-2    9.715341524979606E-1   -1.388079126571707E-1
 5.410692295201402E7     9.706498686559010E-1   -1.441888822165130E-1    2.390258417577053E-2    4.356927311960872E-2    2.457911374403862E-2    4.308827118452840E-2    9.713627944464281E-1   -1.398977027623443E-1
 5.451975134237129E7     9.704662281429395E-1   -1.453142466233399E-1    2.401041633257724E-2    4.393718590139598E-2    2.469197315311943E-2    4.344947848571977E-2    9.711774213477241E-1   -1.409859389079446E-1
 5.493572955664375E7     9.702947355107979E-1   -1.465002978598408E-1    2.411832824444664E-2    4.430484223525256E-2    2.480704539666010E-2    4.381395228827401E-2    9.710045971849145E-1   -1.420921179406069E-1
 5.535488162755510E7     9.701172849431247E-1   -1.476065074883608E-1    2.422555105572769E-2    4.467844045962782E-2    2.492210142067608E-2    4.418253464517734E-2    9.708150989005678E-1   -1.432110753182310E-1
 5.577723177119546E7     9.699116522174622E-1   -1.487337642760336E-1    2.433473120003374E-2    4.505387217133848E-2    2.504158329384602E-2    4.455058452271560E-2    9.706159221184880E-1   -1.443247615046369E-1
 5.620280438842070E7     9.697071891235068E-1   -1.499133825984115E-1    2.444632715257329E-2    4.543226343647445E-2    2.515814657530911E-2    4.492412828470440E-2    9.704202120720260E-1   -1.454460573960312E-1
 5.663162406626155E7     9.695063939859719E-1   -1.510729117321732E-1    2.455867969153166E-2    4.581270598020737E-2    2.528185422439979E-2    4.529991303151201E-2    9.702211197090689E-1   -1.466314790241015E-1
 5.706371557934452E7     9.692903557491628E-1   -1.522552840783970E-1    2.467466196653360E-2    4.619401275013066E-2    2.540594376319470E-2    4.567929279273679E-2    9.700340200128582E-1   -1.477535565249105E-1
 5.749910389132310E7     9.690867002300044E-1   -1.534546620030152E-1    2.479185080028132E-2    4.658108754690826E-2    2.553055677575717E-2    4.606078825566180E-2    9.698214781567506E-1   -1.489178216944817E-1
 5.793781415631992E7     9.688839677398627E-1   -1.546612954840456E-1    2.490837212828866E-2    4.697285183760335E-2    2.565705633671030E-2    4.644576821836392E-2    9.696121106011050E-1   -1.500747450763122E-1
 5.837987172038046E7     9.688839352166134E-1   -1.554335711055204E-1    2.515950971408431E-2    4.739434493776160E-2    2.529598277685583E-2    4.729443421665177E-2    9.693294619469962E-1   -1.513427625665955E-1
 5.882530212293670E7     9.686366985513355E-1   -1.566690790204415E-1    2.528519601154365E-2    4.778320858701463E-2    2.542282498640012E-2    4.768879714122105E-2    9.691057193220872E-1   -1.525160129233631E-1
 5.927413109828297E7     9.684170229799375E-1   -1.578679372128635E-1    2.541250452183207E-2    4.818234169108317E-2    2.555332100873182E-2    4.808552256239742E-2    9.688814677479363E-1   -1.537088457886611E-1
 5.972638457706322E7     9.682011250528026E-1   -1.590579300540346E-1    2.554206828534190E-2    4.858405458268057E-2    2.568406397252879E-2    4.848617833457552E-2    9.686844407432625E-1   -1.549099820926524E-1
 6.018208868776779E7     9.679868648844497E-1   -1.603166804599880E-1    2.567575915234453E-2    4.898333851746153E-2    2.581873039262026E-2    4.889034441921835E-2    9.684580351176691E-1   -1.561039757050798E-1
 6.064126975824468E7     9.677375286178708E-1   -1.615506541251028E-1    2.581112951927049E-2    4.938893093810118E-2    2.595935062621471E-2    4.929569911379361E-2    9.682215281566030E-1   -1.573485593163752E-1
 6.110395431721926E7     9.675020338596664E-1   -1.628109759331404E-1    2.594786231399739E-2    4.979752626505301E-2    2.609849425856553E-2    4.970446422032642E-2    9.679844127067908E-1   -1.585668614378375E-1
 6.157016909582742E7     9.672450372729193E-1   -1.640875176877514E-1    2.608508989661786E-2    5.020842209709993E-2    2.624148654503117E-2    5.011358874448285E-2    9.677427455874004E-1   -1.598089789367155E-1
 6.203994102916045E7     9.670025755234064E-1   -1.653544226600636E-1    2.622990920482276E-2    5.062300808398688E-2    2.638457452603668E-2    5.052677740580443E-2    9.674982401427039E-1   -1.610505154331653E-1
 6.251329725781982E7     9.667332520872816E-1   -1.666233055523718E-1    2.637342751409372E-2    5.103693948529017E-2    2.652858617666238E-2    5.094387895660765E-2    9.672393478761242E-1   -1.623151527456928E-1
 6.299026512948693E7     9.664632091658818E-1   -1.679128318678619E-1    2.651743236424075E-2    5.145307491647468E-2    2.667745035339922E-2    5.136235991312858E-2    9.670080804064436E-1   -1.635655364234296E-1
 6.347087220050172E7     9.661982058875572E-1   -1.692076863222287E-1    2.666791685724676E-2    5.187402001766764E-2    2.683137920669499E-2    5.178345936073663E-2    9.667552487525504E-1   -1.648518107521562E-1
 6.395514623745525E7     9.659496221496729E-1   -1.705405120722574E-1    2.681473955257605E-2    5.230289694658333E-2    2.698039166940816E-2    5.220749407781210E-2    9.664781782674494E-1   -1.661175476986039E-1
 6.444311521879433E7     9.656842920434643E-1   -1.718676880145301E-1    2.696604946777511E-2    5.273213106622500E-2    2.713332344477186E-2    5.263747620288807E-2    9.662219956459730E-1   -1.674288607941541E-1
 6.493480733643661E7     9.654234893022469E-1   -1.732052982468153E-1    2.712155409738607E-2    5.316133529832620E-2    2.728987457361998E-2    5.306714696455783E-2    9.659336492416776E-1   -1.687358632183943E-1
 6.543025099740107E7     9.651180384115907E-1   -1.745360298053699E-1    2.727770798265022E-2    5.359434432171060E-2    2.744754973722608E-2    5.350357950493864E-2    9.656753594225305E-1   -1.700708645866998E-1
 6.592947482544785E7     9.647373601829662E-1   -1.767296125876266E-1    2.717037156265004E-2    5.402681971038723E-2    2.877747508016578E-2    5.333271940601717E-2    9.654756117242947E-1   -1.712499867499749E-1
 6.643250766273243E7     9.644688364591681E-1   -1.781109844785971E-1    2.732607988794563E-2    5.447355786738077E-2    2.896840768048951E-2    5.377056985555846E-2    9.651841306876232E-1   -1.725777960675109E-1
 6.693937857147253E7     9.641756179438516E-1   -1.795040311268511E-1    2.747913850573154E-2    5.491994023111185E-2    2.914720836260679E-2    5.421103578114019E-2    9.649013918878462E-1   -1.739070070968937E-1
 6.745011683562562E7     9.638745275964985E-1   -1.809128833297288E-1    2.762760421089582E-2    5.537864506704823E-2    2.932386708622026E-2    5.466064942260674E-2    9.645982232698705E-1   -1.752575283351719E-1
 6.796475196258274E7     9.635663418024133E-1   -1.822701055363511E-1    2.778362257103095E-2    5.584852128029546E-2    2.950384979314932E-2    5.512482959611038E-2    9.643055328466591E-1   -1.766277886317262E-1
 6.848331368487169E7     9.632698042824066E-1   -1.836483152772727E-1    2.794827776061975E-2    5.632857448842550E-2    2.968926785721777E-2    5.559940830616903E-2    9.639952735982122E-1   -1.779697623487184E-1
 6.900583196187538E7     9.628126559946601E-1   -1.846391449487741E-1    2.820079326985538E-2    5.680252490932458E-2    2.919465597173763E-2    5.616536242311828E-2    9.637113566544256E-1   -1.793688432016393E-1
 6.953233698156311E7     9.624911945082000E-1   -1.860618290855445E-1    2.837647464950925E-2    5.727531060215636E-2    2.939662951326150E-2    5.663083034795760E-2    9.633848700236138E-1   -1.807991061402115E-1
 7.006285916223384E7     9.621891135238851E-1   -1.874414934915036E-1    2.856099122533039E-2    5.774584515662531E-2    2.959861977927565E-2    5.709057328211749E-2    9.630682181732423E-1   -1.821994819957194E-1
 7.059742915427396E7     9.618219706648187E-1   -1.889481746069878E-1    2.874794803719052E-2    5.822060392669660E-2    2.980140503956475E-2    5.755867087065015E-2    9.627422487717049E-1   -1.835902716775301E-1
 7.113607784192866E7     9.615005217515810E-1   -1.903789114385814E-1    2.893905117064842E-2    5.869455791229704E-2    3.000790104751949E-2    5.803155400074679E-2    9.624116069619431E-1   -1.850537516739165E-1
 7.167883634508467E7     9.611800951479270E-1   -1.918550547737439E-1    2.913639625822425E-2    5.917223127957631E-2    3.021406741015613E-2    5.850412891625104E-2    9.620853505267029E-1   -1.864923983267374E-1
 7.222573602107021E7     9.608486423855321E-1   -1.933570579617730E-1    2.933015255496961E-2    5.965334388018124E-2    3.041619227427358E-2    5.898413857247246E-2    9.617652875486942E-1   -1.879234453146800E-1
 7.277680846646504E7     9.604788238067219E-1   -1.948159623384411E-1    2.951697766321016E-2    6.014355712821073E-2    3.061546010575006E-2    5.946751943230529E-2    9.614242230099872E-1   -1.893885816700376E-1
 7.333208551892644E7     9.601075824641330E-1   -1.963051711180657E-1    2.970029358882623E-2    6.064669125826409E-2    3.082849988563782E-2    5.995874085279886E-2    9.610347134868674E-1   -1.909113382630961E-1
 7.389159925902925E7     9.597599518623560E-1   -1.978379641108689E-1    2.990553073525668E-2    6.115645195715121E-2    3.105039174455971E-2    6.045377606023376E-2    9.606811839323492E-1   -1.924143579272981E-1
 7.445538201211768E7     9.593902387885690E-1   -1.993999282093065E-1    3.012196693262408E-2    6.166046674610668E-2    3.127737105920749E-2    6.094961104028589E-2    9.603055542849889E-1   -1.938602567599567E-1
 7.502346635017487E7     9.590513374964024E-1   -2.009475439138584E-1    3.034519637711266E-2    6.216096364424546E-2    3.150483561123993E-2    6.145165427166533E-2    9.599333183527001E-1   -1.953520560793811E-1
 7.559588509370317E7     9.586729213108953E-1   -2.024744413146611E-1    3.056682871511478E-2    6.266475079455683E-2    3.173569017810762E-2    6.195524443816732E-2    9.595587868259052E-1   -1.968886609686701E-1
 7.617267131362079E7     9.583011942262565E-1   -2.040406505833841E-1    3.078807546793307E-2    6.317373341189546E-2    3.195989749504052E-2    6.246080688520175E-2    9.591938607770065E-1   -1.983873770062614E-1
 7.675385833317320E7     9.579092063004749E-1   -2.055859328768924E-1    3.100130003266976E-2    6.369058727731723E-2    3.218642659912248E-2    6.297496063529982E-2    9.587821758039038E-1   -1.999078001618851E-1
 7.733947972985649E7     9.575090766713624E-1   -2.071546354119002E-1    3.121656733926317E-2    6.421678053093124E-2    3.243071009183018E-2    6.348826592457599E-2    9.583738143129202E-1   -2.015225023325482E-1
 7.792956933735959E7     9.570899982702160E-1   -2.087726257996985E-1    3.144028220727941E-2    6.474277434677925E-2    3.268486622429435E-2    6.400679931353678E-2    9.579758803369421E-1   -2.031219458949753E-1
 7.852416124751715E7     9.566564444589246E-1   -2.104235718428437E-1    3.167558579484192E-2    6.526917546901861E-2    3.293225592600501E-2    6.453390836642123E-2    9.575437338799712E-1   -2.046693026831723E-1
 7.912328981227988E7     9.562451189069668E-1   -2.119581173804143E-1    3.191219934193338E-2    6.580429939916480E-2    3.318219607265153E-2    6.506501423419549E-2    9.571374687595579E-1   -2.062489582209112E-1
 7.972698964569975E7     9.558099985171736E-1   -2.135744292110410E-1    3.215147559491296E-2    6.634255981047961E-2    3.342997374431222E-2    6.560448589798076E-2    9.567119211360293E-1   -2.078520997377452E-1
 8.033529562592810E7     9.553845818923044E-1   -2.152108094713789E-1    3.239309087168362E-2    6.689091513358636E-2    3.369468427791766E-2    6.615164781477731E-2    9.562910918213205E-1   -2.094556161931804E-1
 8.094824289723292E7     9.549487418515565E-1   -2.168798505189193E-1    3.264700219011350E-2    6.744274280543262E-2    3.396544036290570E-2    6.670265312696469E-2    9.558480765674428E-1   -2.110514500839301E-1
 8.156586687202743E7     9.544964248114545E-1   -2.185404166197960E-1    3.290455662734673E-2    6.799970961601239E-2    3.424238222556453E-2    6.725732934622904E-2    9.554153339655416E-1   -2.126840725166373E-1
 8.218820323291673E7     9.540074856625501E-1   -2.202119243225169E-1    3.317236352686892E-2    6.855740359851789E-2    3.452559571940979E-2    6.781170977820745E-2    9.549804965463327E-1   -2.143258459716558E-1
 8.281528793475981E7     9.535417753394988E-1   -2.218802151939825E-1    3.344375196263599E-2    6.911985577817015E-2    3.480913431490901E-2    6.836624889677033E-2    9.545456896322915E-1   -2.160124453247249E-1
 8.344715720674579E7     9.531193313400176E-1   -2.236047569416305E-1    3.371748987896394E-2    6.968727859502621E-2    3.510254638951733E-2    6.892734915761879E-2    9.540629191762733E-1   -2.176815554507566E-1
 8.408384755448765E7     9.526928394154666E-1   -2.253207263803713E-1    3.399378231898660E-2    7.026124242793193E-2    3.539323882234403E-2    6.949028890426978E-2    9.536484185253370E-1   -2.194087205424022E-1
 8.472539576213124E7     9.521958557455701E-1   -2.270391438568927E-1    3.427217155436310E-2    7.083710371729564E-2    3.568431760846973E-2    7.005641865158840E-2    9.531778195453127E-1   -2.211239016263880E-1
 8.537183889448020E7     9.516941055333152E-1   -2.287650691539073E-1    3.455279697398816E-2    7.143035304547642E-2    3.597507037142829E-2    7.064310774268383E-2    9.526691207473261E-1   -2.228165015882476E-1
 8.602321429913802E7     9.511862051064034E-1   -2.304808293979372E-1    3.485267604653986E-2    7.202830450802353E-2    3.629296378015964E-2    7.123538872306912E-2    9.521991375634634E-1   -2.245420927047739E-1
 8.667955960866481E7     9.506949712294066E-1   -2.322365898347118E-1    3.516124110272750E-2    7.262023501847745E-2    3.661110805420516E-2    7.182262349777835E-2    9.517238182049038E-1   -2.262879251440623E-1
 8.734091274275188E7     9.501847739073352E-1   -2.340145072925044E-1    3.546308196084293E-2    7.321609295192676E-2    3.692460375247339E-2    7.241325119626239E-2    9.512080681016031E-1   -2.280359343876424E-1
 8.800731191041334E7     9.496567767902894E-1   -2.357901423612198E-1    3.577252289067296E-2    7.382947377728534E-2    3.724649479609612E-2    7.302182065690918E-2    9.506913587624366E-1   -2.297931951366342E-1
 8.867879561219153E7     9.491260144123408E-1   -2.375569264513279E-1    3.609708009965518E-2    7.444708882474126E-2    3.758122628341674E-2    7.363927826926238E-2    9.501873162737864E-1   -2.315656395530547E-1
 8.935540264238395E7     9.486338890935684E-1   -2.393863802650595E-1    3.644565281930572E-2    7.507050220624005E-2    3.793761271943496E-2    7.425664534861803E-2    9.496751042037629E-1   -2.333346242215626E-1
 9.003717209128250E7     9.481161644149503E-1   -2.411784234879694E-1    3.677837009096760E-2    7.566813717119981E-2    3.827461254437420E-2    7.485514778862093E-2    9.491754993197135E-1   -2.351255236060436E-1
 9.072414334743266E7     9.475490270791110E-1   -2.430141439114436E-1    3.713183798980679E-2    7.628414326288883E-2    3.864445403235710E-2    7.546623861470579E-2    9.486734439759544E-1   -2.369679958914367E-1
 9.141635609990983E7     9.470007388007255E-1   -2.449085145969776E-1    3.748725190402399E-2    7.690261038398818E-2    3.901157822650642E-2    7.608316017630558E-2    9.481129659144780E-1   -2.387884905443507E-1
 9.211385034061028E7     9.464444356860022E-1   -2.467654606451698E-1    3.785156127595773E-2    7.753384526403539E-2    3.939264893305246E-2    7.670902546824684E-2    9.475793705049076E-1   -2.406634193154871E-1
 9.281666636656430E7     9.458446423246729E-1   -2.486380099366574E-1    3.823054638889839E-2    7.816177296838225E-2    3.978284814434505E-2    7.733448108110083E-2    9.470385785990779E-1   -2.425470653663608E-1
 9.352484478226222E7     9.452904325319877E-1   -2.505637606179861E-1    3.861539495916235E-2    7.878372393043687E-2    4.017329691840073E-2    7.794823437603526E-2    9.464681228373066E-1   -2.444362587988617E-1
 9.423842650200106E7     9.447038150049035E-1   -2.525072832049363E-1    3.899625169374595E-2    7.940789008370995E-2    4.056694260907772E-2    7.856677456795172E-2    9.458900380424069E-1   -2.463405277140411E-1
 9.495745275224906E7     9.440534221012215E-1   -2.544052946785265E-1    3.937749637217997E-2    8.002986209654728E-2    4.096618237539092E-2    7.919185971584536E-2    9.453050379935737E-1   -2.482752397038553E-1
 9.568196507402541E7     9.434018047475220E-1   -2.563763073903180E-1    3.976763685009130E-2    8.066851171950258E-2    4.136497041926953E-2    7.981888015237512E-2    9.446464318442693E-1   -2.501850650866285E-1
 9.641200532530291E7     9.427601197734765E-1   -2.583495365866622E-1    4.016148116425233E-2    8.131439965324093E-2    4.176889397204796E-2    8.045268740486432E-2    9.440382262467767E-1   -2.521445973128166E-1
 9.714761568342420E7     9.421359472084808E-1   -2.603284540943626E-1    4.055814349014081E-2    8.196802702057228E-2    4.217110633771189E-2    8.109849369766224E-2    9.433752130157284E-1   -2.540779668553640E-1
 9.788883864753923E7     9.413946360503829E-1   -2.623179481729845E-1    4.096531819091730E-2    8.262362689965866E-2    4.259002383547156E-2    8.175271347272381E-2    9.427165687103733E-1   -2.560433294987801E-1
 9.863571704106140E7     9.407038932317152E-1   -2.643411291272733E-1    4.138008090910629E-2    8.328760874987830E-2    4.301267209802142E-2    8.240579814298693E-2    9.420258644060058E-1   -2.580229157029197E-1
 9.938829401413949E7     9.399755921315476E-1   -2.663645763083446E-1    4.179620070755999E-2    8.395580523975768E-2    4.343814427377247E-2    8.307079715577263E-2    9.413555588410405E-1   -2.600184948595129E-1
 1.001466130461536E8     9.392705765367064E-1   -2.684154537305188E-1    4.222678848926661E-2    8.464327313315763E-2    4.387280577171620E-2    8.375130732401220E-2    9.406610728328296E-1   -2.620192068982740E-1
 1.009107179482240E8     9.385086635903522E-1   -2.704632693449111E-1    4.266881924252876E-2    8.533807203504223E-2    4.432639394825785E-2    8.444294844289411E-2    9.399510312277712E-1   -2.640157453376008E-1
 1.016806528657447E8     9.377214787159723E-1   -2.725293424486993E-1    4.313263790597869E-2    8.603738733552242E-2    4.479768114436403E-2    8.513440629096131E-2    9.392477686906346E-1   -2.660352160632795E-1
 1.024564622809335E8     9.369155173468191E-1   -2.746317566245854E-1    4.360905348140667E-2    8.674295219216510E-2    4.528217123625336E-2    8.583016510283215E-2    9.385503566129446E-1   -2.680922381672359E-1
 1.032381910153997E8     9.361341046983964E-1   -2.767217973227467E-1    4.410602880508752E-2    8.744795638156128E-2    4.578620130207918E-2    8.652623841503861E-2    9.378178527234067E-1   -2.701578276304946E-1
 1.040258842327368E8     9.353139212947479E-1   -2.788371756459917E-1    4.462344237424548E-2    8.814090154466314E-2    4.630763369656650E-2    8.720882992545263E-2    9.370461060482902E-1   -2.722132873005106E-1
 1.048195874411304E8     9.344589756680368E-1   -2.809770049138850E-1    4.513846231657560E-2    8.881839286347172E-2    4.682751779143979E-2    8.788066692561158E-2    9.362678289244079E-1   -2.742859841400445E-1
 1.056193464959857E8     9.335624912437184E-1   -2.830820988455631E-1    4.565102866496228E-2    8.949916078890836E-2    4.734326617052425E-2    8.855244389376625E-2    9.355097794555961E-1   -2.763875862218135E-1
 1.064252076025801E8     9.327157873218445E-1   -2.852133513876643E-1    4.615697584728467E-2    9.018359860296031E-2    4.785383087414142E-2    8.922248897634302E-2    9.347475706165657E-1   -2.784940753440961E-1
 1.072372173187304E8     9.318337772255419E-1   -2.873467664495293E-1    4.666256776057594E-2    9.089017341159086E-2    4.836041718609226E-2    8.992824514711659E-2    9.339713493960825E-1   -2.806357992175408E-1
 1.080554225574824E8     9.308966959158627E-1   -2.895511097356101E-1    4.719670284788770E-2    9.160348968240707E-2    4.889411972848123E-2    9.063521617471917E-2    9.331719148133264E-1   -2.827896142100504E-1
 1.088798705898232E8     9.299633766597953E-1   -2.917098313480349E-1    4.773633718461308E-2    9.232811128721446E-2    4.943674775412344E-2    9.134842595178949E-2    9.323562515078975E-1   -2.849715225999579E-1
 1.097106090474096E8     9.290185726113348E-1   -2.938646010505938E-1    4.830508259575748E-2    9.305942300845163E-2    4.999904207649030E-2    9.206987800041952E-2    9.315027948477040E-1   -2.871759201898015E-1
 1.105476859253232E8     9.280669816506062E-1   -2.960342799902634E-1    4.889611214886260E-2    9.376857509050569E-2    5.058957559007898E-2    9.277441758165526E-2    9.306680927002553E-1   -2.893948287349261E-1
 1.113911495848395E8     9.271416295356699E-1   -2.982363321141482E-1    4.947754081201282E-2    9.447061572991591E-2    5.117059743945660E-2    9.346977490754545E-2    9.297829809678528E-1   -2.916338252852483E-1
 1.122410487562254E8     9.262205560751878E-1   -3.004629982210175E-1    5.005050268311626E-2    9.518534996741834E-2    5.174298338291390E-2    9.417119280248228E-2    9.289035749347641E-1   -2.938910465854286E-1
 1.130974325415529E8     9.252823212152377E-1   -3.027367184102160E-1    5.062802549062783E-2    9.591511598278220E-2    5.231925115338269E-2    9.489476136212241E-2    9.279904582579106E-1   -2.961728598083599E-1
 1.139603504175348E8     9.243398835115698E-1   -3.050378486791243E-1    5.122646925886390E-2    9.665553557623158E-2    5.291816225627801E-2    9.563027416362418E-2    9.270535233686361E-1   -2.984453235531290E-1
 1.148298522383858E8     9.233387995536916E-1   -3.073723496354257E-1    5.183812001555793E-2    9.739174658570203E-2    5.353033170811285E-2    9.636263139890849E-2    9.261126215743848E-1   -3.007571510448660E-1
 1.157059882387014E8     9.223438831827291E-1   -3.096968610182158E-1    5.244945303674231E-2    9.813766887570462E-2    5.414795881950943E-2    9.709852228197326E-2    9.251120902484872E-1   -3.030797514720124E-1
 1.165888090363587E8     9.213109471212882E-1   -3.120912891075622E-1    5.308531925322812E-2    9.888728439644025E-2    5.477737291569520E-2    9.784012244118298E-2    9.241389921191837E-1   -3.054173441910106E-1
 1.174783656354443E8     9.202266379551819E-1   -3.144778258818582E-1    5.373231864838608E-2    9.963595072762711E-2    5.542556018296808E-2    9.857332886214540E-2    9.231135581777170E-1   -3.077754944347296E-1
 1.183747094291968E8     9.191182908763014E-1   -3.168328330304018E-1    5.438264654243005E-2    1.003670509558882E-1    5.607267092139646E-2    9.930124883412045E-2    9.221284304217724E-1   -3.101351072496780E-1
 1.192778922029803E8     9.180967968444101E-1   -3.192217388622585E-1    5.501353808259912E-2    1.011261417410226E-1    5.670414478734752E-2    1.000439135308348E-1    9.211106708668801E-1   -3.125336823951561E-1
 1.201879661372721E8     9.170386166460868E-1   -3.216887531245671E-1    5.568225976317668E-2    1.019147728853219E-1    5.736420194673891E-2    1.008223856594790E-1    9.200506301193123E-1   -3.149646917412556E-1
 1.211049838106809E8     9.159414907928863E-1   -3.241489053637825E-1    5.639457412614695E-2    1.026781680475776E-1    5.807406912776235E-2    1.015661320941317E-1    9.189442604940740E-1   -3.173595841380784E-1
 1.220289982029829E8     9.148644371686399E-1   -3.266154921417999E-1    5.706677509860029E-2    1.034041927427502E-1    5.873859140599653E-2    1.022791013079296E-1    9.178773286481409E-1   -3.197580395043573E-1
 1.229600626981811E8     9.137912327160379E-1   -3.291509128196366E-1    5.771380623848531E-2    1.041709295171461E-1    5.938004225886234E-2    1.030389047543968E-1    9.168182221724328E-1   -3.222012013069989E-1
 1.238982310875929E8     9.126966301598282E-1   -3.317355368376298E-1    5.837453881979264E-2    1.049834201525359E-1    6.003236782478604E-2    1.038487351866447E-1    9.157393584645801E-1   -3.246992850767718E-1
 1.248435575729559E8     9.115239208600713E-1   -3.343933794661940E-1    5.908857308262332E-2    1.058245770588408E-1    6.073989902282554E-2    1.046846735547388E-1    9.145869618856755E-1   -3.272368960783161E-1
 1.257960967695579E8     9.102879777507389E-1   -3.370395966287725E-1    5.982655064790381E-2    1.066208254134467E-1    6.146790325201393E-2    1.054761105974230E-1    9.133951941080839E-1   -3.297322793697566E-1
 1.267559037093956E8     9.090645352215508E-1   -3.396815942791186E-1    6.056644790789747E-2    1.073938064637296E-1    6.220104546255532E-2    1.062390903371103E-1    9.122560937215093E-1   -3.322007743366574E-1
 1.277230338443520E8     9.078516265167524E-1   -3.423727522852204E-1    6.125777357684824E-2    1.082189566668400E-1    6.289263911957958E-2    1.070584908595678E-1    9.111468964642491E-1   -3.347650569643780E-1
 1.286975430493991E8     9.065993909158477E-1   -3.451102211720660E-1    6.199354966913419E-2    1.091022810894408E-1    6.363175072555675E-2    1.079335574175323E-1    9.099760284414984E-1   -3.374103422053932E-1
 1.296794876258291E8     9.052648713703348E-1   -3.478392684901496E-1    6.279112502537490E-2    1.099761079518880E-1    6.443155846287754E-2    1.087996648204261E-1    9.087331118599415E-1   -3.400538993556917E-1
 1.306689243045034E8     9.039404821077133E-1   -3.505598854965409E-1    6.360168121126419E-2    1.108278602942315E-1    6.524209744065668E-2    1.096389356017619E-1    9.074779659355825E-1   -3.426684995552897E-1
 1.316659102491341E8     9.026137866845035E-1   -3.532922993310610E-1    6.441061489836740E-2    1.116818247023993E-1    6.605060840046061E-2    1.104775860338880E-1    9.062191621269692E-1   -3.453306533235823E-1
 1.326705030595824E8     9.012971909352281E-1   -3.560426751666511E-1    6.522328407629727E-2    1.125535977351606E-1    6.686684560025678E-2    1.113398505412639E-1    9.049297016095873E-1   -3.480137759079522E-1
 1.336827607751903E8     8.999655656382434E-1   -3.588557155579783E-1    6.606312708869039E-2    1.134348028512489E-1    6.771399170985921E-2    1.122145366737187E-1    9.036250941144455E-1   -3.507106258153226E-1
 1.347027418781318E8     8.985861444712925E-1   -3.617080738295915E-1    6.691829926301827E-2    1.143125384344264E-1    6.857297760657176E-2    1.130805022423598E-1    9.022961029018173E-1   -3.534345288799925E-1
 1.357305052967905E8     8.971849563811841E-1   -3.645784235508110E-1    6.779206698217813E-2    1.151975443012076E-1    6.944674910667550E-2    1.139522430551909E-1    9.009239490200543E-1   -3.561730542078346E-1
 1.367661104091667E8     8.957618397113546E-1   -3.674660063996931E-1    6.868011742802130E-2    1.160830827665148E-1    7.034131192249433E-2    1.148257117776625E-1    8.994879165684458E-1   -3.589011749003239E-1
 1.378096170463071E8     8.942964565288191E-1   -3.703819299215648E-1    6.957404082312063E-2    1.169583068667345E-1    7.124222414191307E-2    1.156914986131613E-1    8.980720564053586E-1   -3.616313781557268E-1
 1.388610854957592E8     8.928151864944022E-1   -3.733288700851296E-1    7.045611168196182E-2    1.178536746883395E-1    7.213517512353929E-2    1.165716393030716E-1    8.966904378892966E-1   -3.643723313001275E-1
 1.399205765050585E8     8.912855517810132E-1   -3.762763772787342E-1    7.135495540437986E-2    1.187681837924789E-1    7.303879190240459E-2    1.174767382183060E-1    8.953009021994813E-1   -3.671652313179987E-1
 1.409881512852336E8     8.897635528975196E-1   -3.792473365230323E-1    7.226980331810771E-2    1.197068949865334E-1    7.397005770508351E-2    1.183996745983774E-1    8.938498862219266E-1   -3.700351159108161E-1
 1.420638715143470E8     8.882002248892014E-1   -3.822175963974839E-1    7.321044433227310E-2    1.206617457267199E-1    7.492204003621987E-2    1.193435107527888E-1    8.923678230415287E-1   -3.728891382113309E-1
 1.431477993410541E8     8.866258492541373E-1   -3.852176759376789E-1    7.417328545914965E-2    1.216278636198921E-1    7.589506489561038E-2    1.202951249446712E-1    8.908682300673751E-1   -3.757674674203888E-1
 1.442399973881980E8     8.850106685924678E-1   -3.882547994970925E-1    7.515156103546251E-2    1.226124533182211E-1    7.689273836424759E-2    1.212692265149256E-1    8.893338046153426E-1   -3.787257469333314E-1
 1.453405287564251E8     8.833621046067079E-1   -3.913464984463311E-1    7.617628160450247E-2    1.236252514797117E-1    7.792849351001163E-2    1.222616194367975E-1    8.877319491040363E-1   -3.816652550445455E-1
 1.464494570278296E8     8.816798981727427E-1   -3.944425824893152E-1    7.724391011485054E-2    1.246314012319691E-1    7.900846567158037E-2    1.232468853518929E-1    8.860797345871557E-1   -3.846262665329031E-1
 1.475668462696298E8     8.799565141882689E-1   -3.975475485019542E-1    7.833324534781662E-2    1.256220477573389E-1    8.010550615787011E-2    1.242199786827336E-1    8.844014184165041E-1   -3.875849833842994E-1
 1.486927610378684E8     8.781620380988563E-1   -4.006823051034169E-1    7.945171049496814E-2    1.266137483181614E-1    8.123252186328249E-2    1.251982191527833E-1    8.826842183569417E-1   -3.905723195590375E-1
 1.498272663811400E8     8.763625272835930E-1   -4.038183148757593E-1    8.058898886930513E-2    1.275979078037726E-1    8.237937595617895E-2    1.261712756612549E-1    8.809131807445644E-1   -3.935974231675085E-1
 1.509704278443526E8     8.745328977416263E-1   -4.069606064191770E-1    8.173782529524042E-2    1.285757157524328E-1    8.353717023264241E-2    1.271389309885915E-1    8.790826718242475E-1   -3.966048291957973E-1
 1.521223114725131E8     8.726882724267607E-1   -4.101058930951581E-1    8.286970220753867E-2    1.295690407828579E-1    8.469598411959287E-2    1.281123715338658E-1    8.772274344686746E-1   -3.995582244609607E-1
 1.532829838145407E8     8.707962874437393E-1   -4.133318613385366E-1    8.403630512412998E-2    1.305788629347151E-1    8.587451288608218E-2    1.291137272249974E-1    8.754455752152470E-1   -4.025421231173116E-1
 1.544525119271165E8     8.688367773855750E-1   -4.165467582916668E-1    8.522755594916552E-2    1.316192925930836E-1    8.708996776931377E-2    1.301275295786854E-1    8.736587934102198E-1   -4.055834636400114E-1
 1.556309633785520E8     8.668576278545969E-1   -4.197975083268838E-1    8.644780190109666E-2    1.326518484015873E-1    8.834207239910122E-2    1.311376336648183E-1    8.718182912125704E-1   -4.086893915657903E-1
 1.568184062526983E8     8.648539813433462E-1   -4.230421095383734E-1    8.766215450793075E-2    1.337040594664226E-1    8.960978683835234E-2    1.321546736342942E-1    8.699532833727626E-1   -4.118100384983413E-1
 1.580149091528745E8     8.628259131239682E-1   -4.263693657252783E-1    8.890854183957123E-2    1.348054779463227E-1    9.091497720365553E-2    1.332103530855404E-1    8.680566514498862E-1   -4.149556731389880E-1
 1.592205412058353E8     8.607416310604648E-1   -4.296575332571854E-1    9.021232744183399E-2    1.359144584016951E-1    9.229324699369500E-2    1.342719637096105E-1    8.661134832886480E-1   -4.181378503261327E-1
 1.604353720657634E8     8.585721496568771E-1   -4.329367262336782E-1    9.156021369166474E-2    1.370120997151107E-1    9.371801285894278E-2    1.353226166884917E-1    8.640811294672911E-1   -4.214050551900183E-1
 1.616594719182909E8     8.563887330143323E-1   -4.362583271373490E-1    9.294462278893385E-2    1.380923653815031E-1    9.516172956463710E-2    1.363538656189398E-1    8.619843688318510E-1   -4.246430152937226E-1
 1.628929114845590E8     8.541688088837770E-1   -4.395379429811518E-1    9.435884580026455E-2    1.391551805850696E-1    9.665043101154175E-2    1.373731225270463E-1    8.598289887599494E-1   -4.279522994503623E-1
 1.641357620253014E8     8.519934015529569E-1   -4.427276567442235E-1    9.576890282502681E-2    1.402132450986015E-1    9.809408014608127E-2    1.384060169020274E-1    8.576192493738723E-1   -4.312274180182759E-1
 1.653880953449593E8     8.497024287561061E-1   -4.461020940240133E-1    9.722599427859786E-2    1.412505023710062E-1    9.957014483258705E-2    1.394254236835851E-1    8.553911336952096E-1   -4.345302029026984E-1
 1.666499837958347E8     8.473669401906957E-1   -4.495054080715788E-1    9.870989566103738E-2    1.422922046264008E-1    1.010785471861330E-1    1.404480551459313E-1    8.530898921083948E-1   -4.378568818885070E-1
 1.679215002822650E8     8.450120581970466E-1   -4.529438965174656E-1    1.002057881978787E-1    1.433658168174826E-1    1.025963595998875E-1    1.414942309270378E-1    8.507591677377375E-1   -4.411835124371922E-1
 1.692027182648404E8     8.425794668298847E-1   -4.564403152988699E-1    1.017544266660596E-1    1.444565807202795E-1    1.041730526573875E-1    1.425640106916794E-1    8.483545283869470E-1   -4.445647030549535E-1
 1.704937117646426E8     8.400356243758736E-1   -4.599559431328374E-1    1.033479065335963E-1    1.455544852988685E-1    1.057925478556797E-1    1.436336522416854E-1    8.459308453097849E-1   -4.479406193909619E-1
 1.717945553675260E8     8.374614572850217E-1   -4.634620223388058E-1    1.049765560730966E-1    1.466255758660364E-1    1.074585372329798E-1    1.446837422692167E-1    8.434358011362070E-1   -4.513421855382895E-1
 1.731053242284249E8     8.348244798135285E-1   -4.670144096892593E-1    1.066108632963603E-1    1.476827503717051E-1    1.091227037271627E-1    1.457176554632830E-1    8.408603913685707E-1   -4.547581132839307E-1
 1.744260940756933E8     8.321535445487128E-1   -4.705919664199719E-1    1.082836369267094E-1    1.487742982805047E-1    1.108230847921584E-1    1.467776884400367E-1    8.382569696240705E-1   -4.582141526484311E-1
 1.757569412154842E8     8.294253848225157E-1   -4.741757433238133E-1    1.099375314000108E-1    1.498371635104943E-1    1.125011951092401E-1    1.478079538345354E-1    8.355346858142472E-1   -4.615909678095076E-1
 1.770979425361561E8     8.265519763154847E-1   -4.777901206271598E-1    1.115824773314126E-1    1.509670860449400E-1    1.141761764458245E-1    1.489024054210993E-1    8.328458513288519E-1   -4.649706555373484E-1
 1.784491755127131E8     8.235839217600127E-1   -4.814118449109214E-1    1.133008896851532E-1    1.521675185742885E-1    1.159162753282200E-1    1.500745306450691E-1    8.301397816602568E-1   -4.684701233718715E-1
 1.798107182112848E8     8.205121653848615E-1   -4.849590538820647E-1    1.151123353901847E-1    1.533900997668979E-1    1.177484087470616E-1    1.512687756401189E-1    8.273331720010040E-1   -4.720013250369416E-1
 1.811826492936349E8     8.173777752227395E-1   -4.884884578024720E-1    1.169910275947025E-1    1.546002834460704E-1    1.196301993869112E-1    1.524544471344186E-1    8.244307767681816E-1   -4.754959494279828E-1
 1.825650480217040E8     8.141805029109566E-1   -4.920102270997413E-1    1.189592690888799E-1    1.557839815631473E-1    1.216246214053888E-1    1.536099123954310E-1    8.214717908228381E-1   -4.790760099229039E-1
 1.839579942621904E8     8.109050158794522E-1   -4.955028291468435E-1    1.209759080575740E-1    1.569449783074682E-1    1.236532627043836E-1    1.547406449046861E-1    8.184237946473008E-1   -4.826197404424814E-1
 1.853615684911660E8     8.076182223328396E-1   -4.989479421124371E-1    1.230192516775285E-1    1.580760557379836E-1    1.257147097193827E-1    1.558424867515542E-1    8.153187001418015E-1   -4.861549850998934E-1
 1.867758517987237E8     8.043121241390649E-1   -5.024495568122412E-1    1.250655071888735E-1    1.591957554881636E-1    1.277644806909704E-1    1.569296603488614E-1    8.121660952277041E-1   -4.897918624014324E-1
 1.882009258936609E8     8.009389074480663E-1   -5.059465954297514E-1    1.271490146075461E-1    1.603618871560190E-1    1.298622459939530E-1    1.580742680656656E-1    8.089070308881319E-1   -4.933591050722499E-1
 1.896368731082037E8     7.974464364348502E-1   -5.094745891762372E-1    1.292781748335808E-1    1.615183178203831E-1    1.319993985021696E-1    1.592035445400111E-1    8.055051071746044E-1   -4.970033261639932E-1
 1.910837764027621E8     7.938943601047415E-1   -5.130888132043491E-1    1.314638829341117E-1    1.626965082223712E-1    1.341764347480494E-1    1.603475302701149E-1    8.020829288121184E-1   -5.005699981724624E-1
 1.925417193707203E8     7.901864707136035E-1   -5.167203527358066E-1    1.336769195767268E-1    1.638578236335859E-1    1.363922105373933E-1    1.614878060795135E-1    7.985685913824184E-1   -5.041761107884627E-1
 1.940107862432706E8     7.863077871519869E-1   -5.203328815810637E-1    1.358794084003798E-1    1.650321254199798E-1    1.386007946492802E-1    1.626456888963288E-1    7.949547239198257E-1   -5.078189775005009E-1
 1.954910618942780E8     7.822176397814427E-1   -5.239048533776703E-1    1.380712171326808E-1    1.663283607584334E-1    1.408025836040015E-1    1.639220395129462E-1    7.912087690910075E-1   -5.113859304877761E-1
 1.969826318451810E8     7.780379226444748E-1   -5.273650059856809E-1    1.404524457907003E-1    1.677458523768255E-1    1.431844815516986E-1    1.653156944110156E-1    7.875207346852110E-1   -5.149067058531615E-1
 1.984855822699381E8     7.737346087234739E-1   -5.306508677274423E-1    1.429331836444384E-1    1.691273923340269E-1    1.456723067592587E-1    1.666765885654739E-1    7.837740674408202E-1   -5.185437405225928E-1
 2.000000000000000E8     7.694349578168421E-1   -5.338218039295360E-1    1.454980689707892E-1    1.705671141920781E-1    1.482401138353803E-1    1.680811984390442E-1    7.798595225451870E-1   -5.222259787218124E-1
