#  HZ   S   RI   R     50.00 
! Rohde & Schwarz Vector Network Analyzer 
! Rohde-Schwarz,ZNLE6-2Port,1323001256200024,1.71.1.10-23.02.1.238
! Created: UTC 4/11/2025, 6:06:44 AM
! freq[Hz]                re:S11                  im:S11                  re:S21                  im:S21                  re:S12                  im:S12                  re:S22                  im:S22
 1.000000000000000E5     9.358823214936606E-1    5.070942858548332E-2    6.494881426058609E-2   -5.106186520050766E-2    6.503644447423015E-2   -5.111588192409225E-2    9.357262400210973E-1    5.056630897908872E-2
 1.007629862646662E5     9.359935563345431E-1    5.048021835134381E-2    6.481316529842659E-2   -5.086133605941703E-2    6.490451005244018E-2   -5.091368875404879E-2    9.358418431711286E-1    5.036941626165699E-2
 1.015317940097331E5     9.361364659155262E-1    5.027468007375520E-2    6.467984408329788E-2   -5.066374132292259E-2    6.477244058419292E-2   -5.071521588661825E-2    9.359391548773590E-1    5.018194332663563E-2
 1.023064676522963E5     9.362227880126396E-1    5.007931505387693E-2    6.455608175556246E-2   -5.046775566920156E-2    6.464527246389135E-2   -5.051771936175922E-2    9.360953167543906E-1    4.997517789718587E-2
 1.030870519483485E5     9.363446357547288E-1    4.987520880178476E-2    6.442360508013788E-2   -5.027115124782072E-2    6.451574989827118E-2   -5.032162227485868E-2    9.361873809665950E-1    4.978184741742216E-2
 1.038735919953636E5     9.364454559084217E-1    4.967822380553318E-2    6.428875799672806E-2   -5.007521946962897E-2    6.438571393895259E-2   -5.012721843387817E-2    9.363389461887059E-1    4.956726612177785E-2
 1.046661332349037E5     9.365514389324601E-1    4.946685881731252E-2    6.416069635018042E-2   -4.988156576935104E-2    6.425389409515313E-2   -4.993640947555963E-2    9.364835307283971E-1    4.939322628351835E-2
 1.054647214552430E5     9.367354978874339E-1    4.927406389230642E-2    6.403272053987917E-2   -4.969576274032758E-2    6.412463221551275E-2   -4.974836287484261E-2    9.366300875221291E-1    4.919834911966935E-2
 1.062694027940149E5     9.368493185934580E-1    4.908086340219728E-2    6.390035059666238E-2   -4.950784958764027E-2    6.399422247174755E-2   -4.955572092532595E-2    9.367324813196070E-1    4.900623351735783E-2
 1.070802237408760E5     9.369597282642550E-1    4.888897577545605E-2    6.377258982779679E-2   -4.931515307290456E-2    6.386294284759313E-2   -4.936405003733259E-2    9.368153526149224E-1    4.883563621391360E-2
 1.078972311401927E5     9.370961846825803E-1    4.869816931070622E-2    6.364183527996047E-2   -4.913009308326590E-2    6.372786905237852E-2   -4.917792890479630E-2    9.369443314534871E-1    4.864264501604555E-2
 1.087204721937475E5     9.372552138882480E-1    4.851413189514788E-2    6.351182687473675E-2   -4.894811192616424E-2    6.360173937463597E-2   -4.899630494535329E-2    9.370842386504035E-1    4.843689875064514E-2
 1.095499944634658E5     9.373817261634719E-1    4.833612029711425E-2    6.338166297353660E-2   -4.876166198787209E-2    6.347039862906241E-2   -4.881383982318917E-2    9.372367302069170E-1    4.828508891388847E-2
 1.103858458741646E5     9.375043896064563E-1    4.814510786110952E-2    6.324779611204555E-2   -4.857867487474123E-2    6.334147083448223E-2   -4.863001076626257E-2    9.373335937730263E-1    4.808822268068942E-2
 1.112280747163201E5     9.375966145067086E-1    4.796317782062769E-2    6.311897914964716E-2   -4.839436919387904E-2    6.320737608619950E-2   -4.844799819073826E-2    9.374665457374161E-1    4.791116151247207E-2
 1.120767296488583E5     9.377261046304706E-1    4.775992852394810E-2    6.298346721260589E-2   -4.821581174288643E-2    6.307364204049436E-2   -4.826863356944459E-2    9.375973453240445E-1    4.772918892703112E-2
 1.129318597019661E5     9.378307053413818E-1    4.758142731179719E-2    6.285229876859706E-2   -4.803427130615059E-2    6.294688084438707E-2   -4.808834640445616E-2    9.377383446573579E-1    4.754966971117881E-2
 1.137935142799240E5     9.379886189473562E-1    4.742741881162426E-2    6.272582585196909E-2   -4.785825302442496E-2    6.281119510411680E-2   -4.791070861291828E-2    9.379017125791902E-1    4.737298889107033E-2
 1.146617431639607E5     9.380875922295018E-1    4.724149579374628E-2    6.259074811982121E-2   -4.768224765822207E-2    6.267899166474371E-2   -4.772953575715872E-2    9.379826165956978E-1    4.720415554530508E-2
 1.155365965151286E5     9.382647799836299E-1    4.707074355037133E-2    6.246148548010625E-2   -4.750638572355707E-2    6.254687240606746E-2   -4.755561053214803E-2    9.381204630008350E-1    4.701690401800926E-2
 1.164181248772018E5     9.383555296034826E-1    4.688256593380299E-2    6.232644786636217E-2   -4.733479422958223E-2    6.241352764755156E-2   -4.738478409858732E-2    9.382194452427896E-1    4.685338585805959E-2
 1.173063791795965E5     9.385228825482527E-1    4.672880501764687E-2    6.219983140353257E-2   -4.715728072330282E-2    6.227762948373185E-2   -4.720965885555753E-2    9.383659715066272E-1    4.666052966954859E-2
 1.182014107403141E5     9.386410521535065E-1    4.653895441228138E-2    6.206750880503195E-2   -4.698960666733809E-2    6.214511982515458E-2   -4.703544326040098E-2    9.384889205007275E-1    4.651154039079786E-2
 1.191032712689044E5     9.387434103355073E-1    4.635864593403374E-2    6.192826946824825E-2   -4.681955329586946E-2    6.201179745467836E-2   -4.686265478852476E-2    9.385701767467259E-1    4.632197982038147E-2
 1.200120128694542E5     9.388941481681359E-1    4.619520259961055E-2    6.179852545495366E-2   -4.665087575957827E-2    6.187862263596499E-2   -4.669350813970272E-2    9.387161071846721E-1    4.616672113557993E-2
 1.209276880435975E5     9.390193121069753E-1    4.603418170113807E-2    6.166691806804429E-2   -4.647903757003560E-2    6.174940452041421E-2   -4.652946072348171E-2    9.388778640387334E-1    4.599047283850862E-2
 1.218503496935483E5     9.391304594226361E-1    4.586125116433731E-2    6.153043686507324E-2   -4.631170458078725E-2    6.161404042387507E-2   -4.635676343633614E-2    9.389882500684655E-1    4.582063158161356E-2
 1.227800511251578E5     9.392928772761601E-1    4.569772065744990E-2    6.139875338690452E-2   -4.614868122820996E-2    6.148199209406071E-2   -4.619442492223205E-2    9.391199307480163E-1    4.565010047647894E-2
 1.237168460509929E5     9.393999502630473E-1    4.551827787470643E-2    6.126858942597408E-2   -4.598074986976709E-2    6.134425673648613E-2   -4.602810697196584E-2    9.392764930343538E-1    4.550088475742309E-2
 1.246607885934402E5     9.395368392306825E-1    4.536365669040423E-2    6.113456971288145E-2   -4.581449112644909E-2    6.121358541736986E-2   -4.586705043903926E-2    9.394135283555312E-1    4.531792639560791E-2
 1.256119332878327E5     9.396656640257421E-1    4.518832310419475E-2    6.099777728428472E-2   -4.565432665433238E-2    6.108279416160101E-2   -4.570389004357725E-2    9.395712398848540E-1    4.516004580528013E-2
 1.265703350856002E5     9.397983244113579E-1    4.502937665929654E-2    6.086231753567230E-2   -4.549203567780227E-2    6.094650283384186E-2   -4.554284108649306E-2    9.396825792923741E-1    4.500023032374807E-2
 1.275360493574453E5     9.399169659340502E-1    4.486733537150905E-2    6.073412833575886E-2   -4.533227732576636E-2    6.081021914519744E-2   -4.537640810607955E-2    9.398166198315790E-1    4.483312498176600E-2
 1.285091318965405E5     9.400333339519535E-1    4.470122746116057E-2    6.059861717680730E-2   -4.517424931683969E-2    6.067968766172299E-2   -4.522138600268009E-2    9.399493604835530E-1    4.467545402658341E-2
 1.294896389217529E5     9.401332415188766E-1    4.454400260781634E-2    6.046068013959659E-2   -4.500999711943433E-2    6.054286225492907E-2   -4.505788919436302E-2    9.400642345455344E-1    4.452972350163661E-2
 1.304776270808914E5     9.402926666735238E-1    4.438810338386816E-2    6.032798668405764E-2   -4.485553167007843E-2    6.041099763597126E-2   -4.490432808953154E-2    9.402561572360217E-1    4.437271429960661E-2
 1.314731534539810E5     9.403948987217703E-1    4.423476796325798E-2    6.019538863944610E-2   -4.469798931349275E-2    6.027534416951121E-2   -4.474853425241691E-2    9.403719190841996E-1    4.420788437967677E-2
 1.324762755565583E5     9.405457536719606E-1    4.407803655002868E-2    6.005994660189791E-2   -4.454103710282678E-2    6.014206746959652E-2   -4.458889111653627E-2    9.405136184429566E-1    4.405154664518215E-2
 1.334870513429962E5     9.406933983939186E-1    4.390524364564961E-2    5.992700281062927E-2   -4.438742396770595E-2    6.000644936312148E-2   -4.443648727429375E-2    9.406574908887901E-1    4.389868553751922E-2
 1.345055392098512E5     9.408427414825318E-1    4.376175511742689E-2    5.979445018562284E-2   -4.423324519734573E-2    5.986962171682390E-2   -4.427947864046681E-2    9.407454961004466E-1    4.373492809836529E-2
 1.355317979992373E5     9.409928282259998E-1    4.360685360959274E-2    5.965879436444805E-2   -4.407846951088605E-2    5.973404300513615E-2   -4.412361334373909E-2    9.409201033147245E-1    4.359578828414867E-2
 1.365658870022265E5     9.410944913507943E-1    4.345049339684490E-2    5.952706321707378E-2   -4.392635244562752E-2    5.960155337875844E-2   -4.396725509421079E-2    9.410541867288105E-1    4.344786241562919E-2
 1.376078659622731E5     9.412215769437736E-1    4.328477345016705E-2    5.938735337799963E-2   -4.377510762225835E-2    5.946369207510333E-2   -4.381915012245755E-2    9.411752667340343E-1    4.326901463201059E-2
 1.386577950786655E5     9.413470661965528E-1    4.313841371105167E-2    5.925514011508685E-2   -4.362442197832252E-2    5.932780009360336E-2   -4.367005767021127E-2    9.412939377153564E-1    4.312846239692082E-2
 1.397157350100044E5     9.414746438734350E-1    4.297259245541616E-2    5.911811884044296E-2   -4.347475705082842E-2    5.918944559611423E-2   -4.351769360957327E-2    9.413969195233636E-1    4.296777407644076E-2
 1.407817468777081E5     9.416018207157494E-1    4.284053113925814E-2    5.897918649677918E-2   -4.332335076007707E-2    5.905481270132169E-2   -4.337024831491610E-2    9.415374961944871E-1    4.282079810287263E-2
 1.418558922695422E5     9.417399890389955E-1    4.267885367831264E-2    5.884460243917786E-2   -4.317631361444449E-2    5.891935777408972E-2   -4.321862797749276E-2    9.417133512734225E-1    4.267071864249550E-2
 1.429382332431784E5     9.419081527640014E-1    4.254872870989178E-2    5.871092157891830E-2   -4.302653062157137E-2    5.878429361156999E-2   -4.307199822903252E-2    9.418435985699378E-1    4.254504534243218E-2
 1.440288323297804E5     9.420308552205335E-1    4.239178857824052E-2    5.857444606234040E-2   -4.288287552048224E-2    5.864941698151652E-2   -4.292388132736846E-2    9.419663712286066E-1    4.237231690375119E-2
 1.451277525376154E5     9.421441614586783E-1    4.224263030745574E-2    5.843685962042002E-2   -4.273724390040215E-2    5.851068411411320E-2   -4.277992425621496E-2    9.421039722184882E-1    4.223412372143411E-2
 1.462350573556962E5     9.422803447507344E-1    4.211047243328251E-2    5.830017295104242E-2   -4.258822961075234E-2    5.838071114362695E-2   -4.263524562284007E-2    9.422234440797059E-1    4.208473410457608E-2
 1.473508107574468E5     9.424197862778336E-1    4.196172893541920E-2    5.816201075511689E-2   -4.244372271631288E-2    5.823741122093980E-2   -4.248804166189902E-2    9.423318265580582E-1    4.194742696209872E-2
 1.484750772044004E5     9.425495813713380E-1    4.181013059142896E-2    5.803071930244667E-2   -4.230234804554316E-2    5.810180181973221E-2   -4.234817347675855E-2    9.424913762818522E-1    4.180614517867180E-2
 1.496079216499225E5     9.427193902199158E-1    4.166410309406360E-2    5.789897586134495E-2   -4.215759906847686E-2    5.796575034125113E-2   -4.219987724587961E-2    9.426129249864198E-1    4.165485843213568E-2
 1.507494095429637E5     9.428088346897386E-1    4.152107665897911E-2    5.775782430749686E-2   -4.201585422431242E-2    5.783070058566856E-2   -4.205791670614038E-2    9.427742670993104E-1    4.152077195782489E-2
 1.518996068318418E5     9.429411840739109E-1    4.137920726846447E-2    5.761651157844138E-2   -4.187540617594132E-2    5.769169951349735E-2   -4.191647377658621E-2    9.429147276755274E-1    4.136636257295882E-2
 1.530585799680507E5     9.430737038855175E-1    4.123552777475318E-2    5.748350642460852E-2   -4.173140782401791E-2    5.755779077164133E-2   -4.177723239322324E-2    9.430309299433153E-1    4.122978649920989E-2
 1.542263959101001E5     9.432233906440332E-1    4.107276241250062E-2    5.734581432232077E-2   -4.159480706283262E-2    5.742088354632521E-2   -4.163678621494640E-2    9.431569565550489E-1    4.108912290419819E-2
 1.554031221273835E5     9.433580204371271E-1    4.093600555763934E-2    5.721148498980604E-2   -4.145404183310195E-2    5.728337464478703E-2   -4.149837939958251E-2    9.432958514075447E-1    4.092792732652830E-2
 1.565888266040779E5     9.435039340764010E-1    4.080422501939190E-2    5.707742537575908E-2   -4.131199756554509E-2    5.714598812766029E-2   -4.135838037164250E-2    9.434334925342930E-1    4.080774050855969E-2
 1.577835778430689E5     9.436395776604084E-1    4.065756077825460E-2    5.693762225154002E-2   -4.117356047465490E-2    5.700773787030124E-2   -4.121599483383814E-2    9.435209623200932E-1    4.065006525956246E-2
 1.589874448699104E5     9.437588425144970E-1    4.051604544707313E-2    5.680161006541040E-2   -4.103910333153183E-2    5.686984789093640E-2   -4.108080246472420E-2    9.436906718271891E-1    4.051964745572364E-2
 1.602004972368116E5     9.438991054534335E-1    4.039547112652839E-2    5.666710170612781E-2   -4.089752540110717E-2    5.673690703453466E-2   -4.094290672473631E-2    9.438040594002296E-1    4.038476587230264E-2
 1.614228050266550E5     9.440358467911985E-1    4.025810153767105E-2    5.652812665779736E-2   -4.076379900762383E-2    5.659788441048535E-2   -4.080733780948264E-2    9.439494024714085E-1    4.025369457533057E-2
 1.626544388570473E5     9.441700906771396E-1    4.011849759587074E-2    5.638756323213175E-2   -4.062980020454510E-2    5.646026251717388E-2   -4.066826716878864E-2    9.440629589291816E-1    4.009621911490899E-2
 1.638954698843964E5     9.442723998737756E-1    3.996061437907094E-2    5.625310936998535E-2   -4.049016385455662E-2    5.632484208240315E-2   -4.053682611987154E-2    9.441823761475991E-1    3.996025499788714E-2
 1.651459698080244E5     9.444412360874944E-1    3.982753781310263E-2    5.611386864693985E-2   -4.035880052703422E-2    5.618646585676144E-2   -4.040137389850099E-2    9.443285369458346E-1    3.980057821746082E-2
 1.664060108743095E5     9.445957485359705E-1    3.968770677172784E-2    5.597751119867179E-2   -4.022153382034292E-2    5.605010606911492E-2   -4.026342433636823E-2    9.444808822737035E-1    3.969857132819283E-2
 1.676756658808590E5     9.447014405769992E-1    3.956126330757041E-2    5.583500983637861E-2   -4.009002918803217E-2    5.591049107089607E-2   -4.013032366504800E-2    9.446124613001051E-1    3.955670757037853E-2
 1.689550081807175E5     9.448513026309872E-1    3.942029938121792E-2    5.570362397759162E-2   -3.995801656514428E-2    5.577112593952865E-2   -3.999977700846199E-2    9.447483134242453E-1    3.942967856700862E-2
 1.702441116866020E5     9.449915878554188E-1    3.928669887443002E-2    5.556438148886814E-2   -3.982374003451726E-2    5.563273411350940E-2   -3.986682345602045E-2    9.449046533602730E-1    3.929151521802925E-2
 1.715430508751738E5     9.451454041302914E-1    3.916543807104041E-2    5.542899472654413E-2   -3.969267182719687E-2    5.549661761846372E-2   -3.973567137363329E-2    9.450502712453830E-1    3.916380221554954E-2
 1.728519007913403E5     9.452421378904020E-1    3.901870298323942E-2    5.529072081152359E-2   -3.956336493109266E-2    5.535736379967761E-2   -3.960348102846665E-2    9.451927325895600E-1    3.903848595830827E-2
 1.741707370525927E5     9.454198315712311E-1    3.888582728860590E-2    5.515490821537477E-2   -3.943079345477837E-2    5.522683877903748E-2   -3.947142905059256E-2    9.453468168695033E-1    3.890830924160963E-2
 1.754996358533718E5     9.455341913904979E-1    3.877866680567588E-2    5.501886042782483E-2   -3.929863662923247E-2    5.509101328441101E-2   -3.934120244060446E-2    9.454534906963646E-1    3.875164912731260E-2
 1.768386739694722E5     9.456669538449890E-1    3.863427491144459E-2    5.487926887229075E-2   -3.916982438869733E-2    5.494745275361054E-2   -3.921371319042825E-2    9.456239189761195E-1    3.862769833376300E-2
 1.781879287624771E5     9.458168271384084E-1    3.848907995651411E-2    5.474104023809397E-2   -3.904035486016599E-2    5.481465269483497E-2   -3.908137798377283E-2    9.457483564835207E-1    3.850285925571538E-2
 1.795474781842276E5     9.459202616891533E-1    3.836838624566200E-2    5.460258091440592E-2   -3.890879580963686E-2    5.467352142369770E-2   -3.895366499716512E-2    9.458799665728368E-1    3.838259702140311E-2
 1.809174007813277E5     9.460413830275977E-1    3.821888478633016E-2    5.446728769569190E-2   -3.877998273434702E-2    5.453579291616447E-2   -3.882374861830142E-2    9.460005132002215E-1    3.824551816609254E-2
 1.822977756996804E5     9.462031340240989E-1    3.809489198378126E-2    5.433158655376214E-2   -3.865515953430301E-2    5.440256181681741E-2   -3.869476049493906E-2    9.461392619166358E-1    3.811737722287561E-2
 1.836886826890609E5     9.463618446660563E-1    3.798113975240306E-2    5.418859584372081E-2   -3.852626324084310E-2    5.426471016762719E-2   -3.856869789975151E-2    9.462653621585818E-1    3.797502936140865E-2
 1.850902021077247E5     9.464760330490352E-1    3.783940385846532E-2    5.405502595538710E-2   -3.839758030205202E-2    5.412507436644785E-2   -3.844430075439704E-2    9.464067735669619E-1    3.785547914571114E-2
 1.865024149270491E5     9.465713053600253E-1    3.770038546684898E-2    5.391838635144032E-2   -3.827270433475252E-2    5.398790977265998E-2   -3.831421854165006E-2    9.465543337359416E-1    3.772443777241678E-2
 1.879254027362132E5     9.467294821571203E-1    3.759262628764707E-2    5.378245466358361E-2   -3.814413571732286E-2    5.384801476312335E-2   -3.819113901779202E-2    9.467230070212097E-1    3.761178455549832E-2
 1.893592477469092E5     9.468649305141313E-1    3.746899450361084E-2    5.366755216971515E-2   -3.801205774977726E-2    5.372403038699156E-2   -3.806691186739558E-2    9.468232308198817E-1    3.750268777098374E-2
 1.908040327980933E5     9.470480416723516E-1    3.733646233204691E-2    5.350813683414164E-2   -3.789403773360561E-2    5.357528429414345E-2   -3.793870888033198E-2    9.469595070573593E-1    3.735385186807810E-2
 1.922598413607715E5     9.471554973797324E-1    3.720176175401183E-2    5.337466002098368E-2   -3.776834795971076E-2    5.344105138035010E-2   -3.781249813833316E-2    9.470975111828128E-1    3.722411524603825E-2
 1.937267575428232E5     9.472686280380919E-1    3.707028442381400E-2    5.323225618712452E-2   -3.764373524262717E-2    5.330183150045160E-2   -3.768464533543198E-2    9.472192016237334E-1    3.709410757529005E-2
 1.952048660938581E5     9.474284778491755E-1    3.695392397510318E-2    5.309516576790934E-2   -3.752201006122192E-2    5.316683808940333E-2   -3.756283580941335E-2    9.473741493332388E-1    3.696265870670067E-2
 1.966942524101142E5     9.475721934360970E-1    3.682671582510254E-2    5.296241552694807E-2   -3.739706075179731E-2    5.302816188059305E-2   -3.743604206843568E-2    9.475257908036153E-1    3.685189170393819E-2
 1.981950025393913E5     9.477131409549621E-1    3.671470650220573E-2    5.281999941790644E-2   -3.727615835427664E-2    5.289054674964541E-2   -3.731221236534549E-2    9.476375048811745E-1    3.670291632233037E-2
 1.997072031860212E5     9.478470904265911E-1    3.658939656299267E-2    5.268583841470161E-2   -3.714825445079865E-2    5.275052161215339E-2   -3.718973309971143E-2    9.477783298657454E-1    3.658930428574196E-2
 2.012309417158795E5     9.479874332559373E-1    3.645416296106604E-2    5.254788597255064E-2   -3.702687884919464E-2    5.261417664733321E-2   -3.706613519751333E-2    9.479129590153221E-1    3.646186930679398E-2
 2.027663061614301E5     9.481211284662896E-1    3.632956841595426E-2    5.241151214196760E-2   -3.690083091337853E-2    5.248355620327667E-2   -3.694517854889743E-2    9.480612727733125E-1    3.633682753913607E-2
 2.043133852268128E5     9.482517499231083E-1    3.620935697364724E-2    5.227774944902317E-2   -3.678031160487685E-2    5.234150792682748E-2   -3.682164407261920E-2    9.481664617643718E-1    3.620465351171206E-2
 2.058722682929675E5     9.483727260347330E-1    3.609333316437327E-2    5.214179698247899E-2   -3.665937746873424E-2    5.220612689646040E-2   -3.669885020172999E-2    9.483068525863904E-1    3.607826510204574E-2
 2.074430454227995E5     9.485027577061130E-1    3.596527370790913E-2    5.200474511208894E-2   -3.653752527998960E-2    5.206809574897649E-2   -3.657866611452281E-2    9.484398361348562E-1    3.594914210841724E-2
 2.090258073663807E5     9.486419021117889E-1    3.582191343928813E-2    5.187060689523082E-2   -3.641401644067369E-2    5.193239784879206E-2   -3.645716524182511E-2    9.485829286567921E-1    3.582422839912296E-2
 2.106206455661938E5     9.487898542574768E-1    3.571368450612619E-2    5.173245471428584E-2   -3.629187816526775E-2    5.179663128182216E-2   -3.633241728377224E-2    9.487176499840974E-1    3.571433924917832E-2
 2.122276521624151E5     9.488784401283603E-1    3.557543919798633E-2    5.159567427171616E-2   -3.617217873678755E-2    5.165478508316077E-2   -3.621245179725981E-2    9.488268521493901E-1    3.559525074626844E-2
 2.138469199982374E5     9.490409696481065E-1    3.546783166273983E-2    5.146241202660214E-2   -3.605519577542183E-2    5.152113456818436E-2   -3.609515832342439E-2    9.489661668580129E-1    3.545427033333749E-2
 2.154785426252357E5     9.491694812630599E-1    3.534548186644652E-2    5.132661161489546E-2   -3.593392787539253E-2    5.138764932892317E-2   -3.597082065388668E-2    9.490919665703043E-1    3.534077155481338E-2
 2.171226143087691E5     9.493090234274867E-1    3.520467987858291E-2    5.118772137127824E-2   -3.581521387997470E-2    5.125068789369774E-2   -3.584911903476218E-2    9.492015957742861E-1    3.521075206655484E-2
 2.187792300334291E5     9.494512969840516E-1    3.510800627014864E-2    5.105734833084986E-2   -3.569007285500370E-2    5.111355206340838E-2   -3.572658465795443E-2    9.493858061352681E-1    3.509765410328041E-2
 2.204484855085266E5     9.495789145707788E-1    3.496617101391547E-2    5.091881070525867E-2   -3.557198633670022E-2    5.098080217820047E-2   -3.561079165173106E-2    9.494765758663273E-1    3.494886266591298E-2
 2.221304771736209E5     9.497286929596518E-1    3.484389611297521E-2    5.078407267961139E-2   -3.545200196391356E-2    5.084695765313049E-2   -3.549093909806091E-2    9.496072183885960E-1    3.485194063621968E-2
 2.238253022040931E5     9.498557584368555E-1    3.473668554985151E-2    5.064372961536661E-2   -3.533233928895850E-2    5.071410091340905E-2   -3.537044896255104E-2    9.498007396926675E-1    3.473242690932817E-2
 2.255330585167579E5     9.499838006437733E-1    3.461263780886881E-2    5.051251970561841E-2   -3.521763057454046E-2    5.057906695996406E-2   -3.525135224902724E-2    9.498913878149297E-1    3.459953811517871E-2
 2.272538447755223E5     9.501636242712862E-1    3.450831683404981E-2    5.037843456702871E-2   -3.509535006562141E-2    5.044125359432284E-2   -3.513173804962264E-2    9.500559328584915E-1    3.448713290154408E-2
 2.289877603970853E5     9.502701556641243E-1    3.437534384740152E-2    5.024088832878111E-2   -3.497835073317556E-2    5.030612422031464E-2   -3.501428937430068E-2    9.501957334567319E-1    3.437208342851466E-2
 2.307349055566813E5     9.504121563403591E-1    3.425904922806477E-2    5.010832811530336E-2   -3.486074189020594E-2    5.017440368790335E-2   -3.489540665743878E-2    9.503192067665492E-1    3.423748567681806E-2
 2.324953811938693E5     9.505531655764184E-1    3.412868795904250E-2    4.997517232700575E-2   -3.473995063910636E-2    5.003832415147524E-2   -3.477580384522460E-2    9.504391399835754E-1    3.412447373463622E-2
 2.342692890183618E5     9.506600717564566E-1    3.400921621919689E-2    4.984310351392744E-2   -3.462362268004365E-2    4.990454845934311E-2   -3.465735100605528E-2    9.505879316743974E-1    3.402280248897808E-2
 2.360567315159030E5     9.508110720536103E-1    3.387449041230047E-2    4.970302628869772E-2   -3.450413679381722E-2    4.976812700524856E-2   -3.453697608742871E-2    9.506928743550787E-1    3.388269188148699E-2
 2.378578119541888E5     9.509713546837936E-1    3.376978602171923E-2    4.957602590849008E-2   -3.438871721237831E-2    4.963699303452221E-2   -3.442238844909857E-2    9.508257631115888E-1    3.376480351087717E-2
 2.396726343888348E5     9.510684250866644E-1    3.364552218391235E-2    4.944046748623346E-2   -3.426801434981815E-2    4.950457576673113E-2   -3.430985291553864E-2    9.509500085217395E-1    3.364075166069101E-2
 2.415013036693852E5     9.511928302014583E-1    3.351420232429822E-2    4.930445869402502E-2   -3.415232921474806E-2    4.937514165293054E-2   -3.419056606021779E-2    9.511052692146740E-1    3.354761716754070E-2
 2.433439254453724E5     9.513201464749288E-1    3.340095044744965E-2    4.917472978890829E-2   -3.403615418583885E-2    4.923904489107631E-2   -3.407169883518938E-2    9.512338605699682E-1    3.341124841057497E-2
 2.452006061724201E5     9.514439930354009E-1    3.327830345351888E-2    4.904470870935473E-2   -3.391928201517568E-2    4.910837967394616E-2   -3.395202072607649E-2    9.514078315121315E-1    3.330378976333712E-2
 2.470714531183934E5     9.515693887785995E-1    3.315764164741573E-2    4.891443530190219E-2   -3.380236412996774E-2    4.897376952682116E-2   -3.383692590336584E-2    9.515278540428667E-1    3.317389095051001E-2
 2.489565743695979E5     9.517236884598465E-1    3.303803541414842E-2    4.877789540494330E-2   -3.368545520052688E-2    4.884164734671910E-2   -3.372072973697471E-2    9.516280732473892E-1    3.305383436936091E-2
 2.508560788370214E5     9.518691532865149E-1    3.291708636973153E-2    4.864615670412701E-2   -3.356671780518857E-2    4.870881235376589E-2   -3.360316923875628E-2    9.517703652614913E-1    3.294964201941002E-2
 2.527700762626280E5     9.519703673341667E-1    3.280197736442687E-2    4.851385281285654E-2   -3.344933658351996E-2    4.857738767452520E-2   -3.348654541433306E-2    9.518850793229747E-1    3.282310180536390E-2
 2.546986772256976E5     9.520929829438268E-1    3.267425119301490E-2    4.838574391034432E-2   -3.333842024899678E-2    4.844442349025329E-2   -3.337282558405929E-2    9.520179419662582E-1    3.269968210990026E-2
 2.566419931492161E5     9.522068921064399E-1    3.255697026007105E-2    4.825499937072458E-2   -3.321642355413337E-2    4.831689262295526E-2   -3.325584293160031E-2    9.521360267546262E-1    3.258427786496836E-2
 2.586001363063102E5     9.523580478048571E-1    3.243550262271458E-2    4.812577965272351E-2   -3.309966950462734E-2    4.818392114559509E-2   -3.313919796315813E-2    9.522162264164574E-1    3.247909769914827E-2
 2.605732198267354E5     9.524220201766226E-1    3.231964669845391E-2    4.799628498466135E-2   -3.298677457782927E-2    4.805454517426494E-2   -3.302173711779959E-2    9.523784841910574E-1    3.235255526656521E-2
 2.625613577034118E5     9.525641120575387E-1    3.221368306517900E-2    4.786583274825561E-2   -3.286926458297260E-2    4.792519847353963E-2   -3.290779274576183E-2    9.524884991361658E-1    3.222824719152215E-2
 2.645646647990093E5     9.527023587814891E-1    3.209557117778133E-2    4.773616932165623E-2   -3.275599818532365E-2    4.779469564157625E-2   -3.279506529836786E-2    9.526080660884410E-1    3.211674352623864E-2
 2.665832568525859E5     9.528083961011177E-1    3.197157291451438E-2    4.760697258125047E-2   -3.264094844974810E-2    4.766390372998003E-2   -3.267944993832637E-2    9.527587115244083E-1    3.198208095310025E-2
 2.686172504862709E5     9.529401217989850E-1    3.185305156030540E-2    4.748038758309622E-2   -3.252494265112060E-2    4.753509525240861E-2   -3.256165169205264E-2    9.528482959422192E-1    3.188363761564807E-2
 2.706667632120051E5     9.530679979617060E-1    3.173610953426944E-2    4.735313270937609E-2   -3.240738007079142E-2    4.740773905478527E-2   -3.245002992888295E-2    9.529934017443636E-1    3.176612295795404E-2
 2.727319134383292E5     9.531947589651428E-1    3.162126854644919E-2    4.722822968196930E-2   -3.229388320870589E-2    4.727803098411829E-2   -3.233490551358605E-2    9.531617923133723E-1    3.165303224395986E-2
 2.748128204772244E5     9.532937591584227E-1    3.150521363283904E-2    4.709677033392817E-2   -3.217838889071816E-2    4.715175303969983E-2   -3.221818406211108E-2    9.532608949865703E-1    3.153232985673306E-2
 2.769096045510074E5     9.534611918363333E-1    3.139378684230303E-2    4.697488548749157E-2   -3.206605674113990E-2    4.702521047276409E-2   -3.210501569603214E-2    9.533704759301306E-1    3.141050045561985E-2
 2.790223867992730E5     9.535827972940453E-1    3.128773388494491E-2    4.685188429052225E-2   -3.195172110581998E-2    4.690626627248966E-2   -3.199153402427953E-2    9.535193296751933E-1    3.129471356116590E-2
 2.811512892858952E5     9.537103998992397E-1    3.116249413875023E-2    4.672322134305933E-2   -3.183996579016746E-2    4.677585814618860E-2   -3.187451106647386E-2    9.536134179011926E-1    3.118668792267689E-2
 2.832964350060779E5     9.538508658280275E-1    3.105971534255768E-2    4.659676596945620E-2   -3.172227400567004E-2    4.665146737269456E-2   -3.176529100285138E-2    9.537304316586454E-1    3.105981696347231E-2
 2.854579478934632E5     9.539280105363868E-1    3.092438482337777E-2    4.647067388364925E-2   -3.161082008099361E-2    4.652428213977137E-2   -3.165026447302199E-2    9.538679694930036E-1    3.094322925311523E-2
 2.876359528272883E5     9.540793981706607E-1    3.080703629778171E-2    4.635027884628419E-2   -3.150119389698366E-2    4.639949675399042E-2   -3.153576952295416E-2    9.539840778973430E-1    3.083214352932657E-2
 2.898305756396023E5     9.541819462592748E-1    3.069636720541338E-2    4.622858757675424E-2   -3.138436150951162E-2    4.627785236596105E-2   -3.142389215168567E-2    9.541360425849593E-1    3.072365779619966E-2
 2.920419431225354E5     9.543036330500635E-1    3.058095622042130E-2    4.610448042812394E-2   -3.127422064014097E-2    4.615329388335983E-2   -3.131081266397012E-2    9.542431239062680E-1    3.059703025482417E-2
 2.942701830356239E5     9.544308116921305E-1    3.046056696360609E-2    4.598334418287339E-2   -3.116345871353875E-2    4.602986403588844E-2   -3.119813740727265E-2    9.543635727748176E-1    3.047286765699950E-2
 2.965154241131938E5     9.545528967302662E-1    3.034399519349489E-2    4.586077891340622E-2   -3.105192726757516E-2    4.590848196652555E-2   -3.108906877075820E-2    9.545461371862995E-1    3.038071985587803E-2
 2.987777960717941E5     9.546685640871725E-1    3.024241034001245E-2    4.574190620034981E-2   -3.093899628221907E-2    4.578536191613647E-2   -3.097458526328482E-2    9.546469949791045E-1    3.025640269031089E-2
 3.010574296176943E5     9.548162020992745E-1    3.011987809250978E-2    4.561871419832354E-2   -3.082768596060095E-2    4.566587695878838E-2   -3.086386256771783E-2    9.547472240974851E-1    3.014366940618772E-2
 3.033544564544337E5     9.549018686956458E-1    3.001570014536088E-2    4.550060996107559E-2   -3.071631543743750E-2    4.554477946820229E-2   -3.075330812977968E-2    9.548594524555235E-1    3.002690290964263E-2
 3.056690092904338E5     9.550302592653428E-1    2.989928736680855E-2    4.538002680022017E-2   -3.060773471300219E-2    4.542581046121168E-2   -3.064355825498456E-2    9.550055115472397E-1    2.992032064396041E-2
 3.080012218466610E5     9.551743167954020E-1    2.979579957248574E-2    4.526514485950564E-2   -3.049429454135005E-2    4.530754178332213E-2   -3.053151515645297E-2    9.550795157643671E-1    2.979959557201105E-2
 3.103512288643551E5     9.552849330010855E-1    2.967406700223457E-2    4.514498626926762E-2   -3.038338180217418E-2    4.518568435910934E-2   -3.042248088238333E-2    9.552316711297717E-1    2.968640442068754E-2
 3.127191661128128E5     9.554114617757286E-1    2.956482970148713E-2    4.502630038151853E-2   -3.027252137798501E-2    4.507104669827608E-2   -3.031293058339635E-2    9.553355928829741E-1    2.956541865380688E-2
 3.151051703972316E5     9.554817735816009E-1    2.945182829255001E-2    4.490923532895426E-2   -3.016449820031136E-2    4.494965364301634E-2   -3.020045077903266E-2    9.554332129872726E-1    2.947041626254631E-2
 3.175093795666154E5     9.556016491296275E-1    2.933181233816657E-2    4.479074340774385E-2   -3.005668026388881E-2    4.483281533941096E-2   -3.009260068419936E-2    9.555578259752213E-1    2.935124405514897E-2
 3.199319325217355E5     9.557139806946146E-1    2.921298411493066E-2    4.467584690305915E-2   -2.994823379562789E-2    4.471362974282006E-2   -2.998031918283372E-2    9.556184869009232E-1    2.923100196019700E-2
 3.223729692231574E5     9.558133884369712E-1    2.910870873554918E-2    4.455548824742363E-2   -2.983868682160730E-2    4.459736809636035E-2   -2.987634110122801E-2    9.557842363456115E-1    2.910331843881105E-2
 3.248326306993267E5     9.559345725492110E-1    2.897887923966003E-2    4.444178560662556E-2   -2.973241762581278E-2    4.448059321646532E-2   -2.976600736212398E-2    9.558938535435529E-1    2.901232135338982E-2
 3.273110590547157E5     9.560314459605573E-1    2.887556637358429E-2    4.432658814239972E-2   -2.962648135407476E-2    4.436745495880567E-2   -2.965605329445533E-2    9.560259188696627E-1    2.888911680823385E-2
 3.298083974780366E5     9.562221576562682E-1    2.878119380782593E-2    4.420836776927566E-2   -2.951677394469323E-2    4.425285150228431E-2   -2.954890560813915E-2    9.561359358794110E-1    2.877739055037966E-2
 3.323247902505097E5     9.563181325379994E-1    2.866788098196491E-2    4.409561289354070E-2   -2.941132922385349E-2    4.413785158519824E-2   -2.944366983040323E-2    9.562752822744327E-1    2.868605055722033E-2
 3.348603827542018E5     9.564128882948357E-1    2.856208344066053E-2    4.398366019842225E-2   -2.930577441402608E-2    4.402156398534882E-2   -2.933909618051760E-2    9.563820245245591E-1    2.857013595588382E-2
 3.374153214804250E5     9.565215845420496E-1    2.845799711030738E-2    4.386862750537478E-2   -2.919621991301187E-2    4.390678871122611E-2   -2.922826434644052E-2    9.564779006394937E-1    2.844764144140090E-2
 3.399897540381991E5     9.566607861120308E-1    2.832870913689521E-2    4.376019332121814E-2   -2.909304826168376E-2    4.379628721396115E-2   -2.912307389257639E-2    9.565963032938053E-1    2.832938608163795E-2
 3.425838291627830E5     9.567669636101500E-1    2.823277486857184E-2    4.364228076052028E-2   -2.898554896729874E-2    4.368381755622899E-2   -2.901546966682091E-2    9.566989345403732E-1    2.822738278447191E-2
 3.451976967242625E5     9.568804532652541E-1    2.810835545666976E-2    4.353454942104393E-2   -2.888112886210807E-2    4.356919570265359E-2   -2.891073792582764E-2    9.568434405868989E-1    2.812824303156973E-2
 3.478315077362126E5     9.570191123503492E-1    2.801245046024449E-2    4.341631878630776E-2   -2.878036758308310E-2    4.345970363063995E-2   -2.880857609246176E-2    9.569706914361906E-1    2.802292714038113E-2
 3.504854143644205E5     9.570853383759884E-1    2.789098342385355E-2    4.330706319882107E-2   -2.867004821912366E-2    4.334385780164372E-2   -2.870354231624618E-2    9.570621735503974E-1    2.791405202143465E-2
 3.531595699356794E5     9.572372714530318E-1    2.778622972848630E-2    4.319646816295876E-2   -2.857212580876734E-2    4.323250963269772E-2   -2.859721246366502E-2    9.571809011420356E-1    2.780512570312458E-2
 3.558541289466428E5     9.573476854605520E-1    2.768244419016616E-2    4.308652504467003E-2   -2.846632076609476E-2    4.312049905423086E-2   -2.849535115281028E-2    9.572692289969651E-1    2.768194282264864E-2
 3.585692470727532E5     9.574035011225339E-1    2.757617512612693E-2    4.297868666270833E-2   -2.836541236276237E-2    4.301268205846877E-2   -2.838963932184346E-2    9.573973609475231E-1    2.758366625679078E-2
 3.613050811772345E5     9.575288039072051E-1    2.746460727828654E-2    4.287030073747515E-2   -2.826464094262640E-2    4.290104920807843E-2   -2.828374830535615E-2    9.574802913213848E-1    2.747048848317881E-2
 3.640617893201578E5     9.576468748659972E-1    2.735126507893670E-2    4.275729323005935E-2   -2.816225275320711E-2    4.279195534731983E-2   -2.818253735583125E-2    9.575828268769514E-1    2.735629179479870E-2
 3.668395307675686E5     9.577706410869344E-1    2.725238876235114E-2    4.264804906615190E-2   -2.806038516866275E-2    4.268720738874192E-2   -2.807907603690669E-2    9.576714049855920E-1    2.725025002782938E-2
 3.696384660006910E5     9.578432183459586E-1    2.714051914983751E-2    4.253695364577411E-2   -2.795548311798357E-2    4.257578406179459E-2   -2.797963174034012E-2    9.578154893829006E-1    2.715244962252965E-2
 3.724587567251991E5     9.579335002687621E-1    2.703195302175509E-2    4.242766987779342E-2   -2.785544651299555E-2    4.246379821009152E-2   -2.788192080031184E-2    9.579037284965994E-1    2.704054543476834E-2
 3.753005658805580E5     9.580699795165931E-1    2.693229100057771E-2    4.231832090500296E-2   -2.775714912742203E-2    4.235514212281844E-2   -2.777920287347675E-2    9.579972683129740E-1    2.693930464255699E-2
 3.781640576494411E5     9.581743306760289E-1    2.683102814708898E-2    4.221470159980061E-2   -2.766032242868499E-2    4.224779386677300E-2   -2.767877715075168E-2    9.581434728562360E-1    2.683537841906657E-2
 3.810493974672107E5     9.583317629848748E-1    2.673258504934740E-2    4.210802075358665E-2   -2.755703034636456E-2    4.214291346400332E-2   -2.757927447097070E-2    9.582401300981586E-1    2.674062447425223E-2
 3.839567520314787E5     9.584444140650030E-1    2.661724170754356E-2    4.199536716229121E-2   -2.745773247225505E-2    4.203820985032562E-2   -2.747975241263749E-2    9.583464194452042E-1    2.662645492379162E-2
 3.868862893117373E5     9.584857737959652E-1    2.650402260669423E-2    4.189023183754934E-2   -2.735691062537086E-2    4.192743568993582E-2   -2.737860368943926E-2    9.584608770095393E-1    2.652352954995128E-2
 3.898381785590618E5     9.586083019397835E-1    2.642046217226479E-2    4.178449390459944E-2   -2.726075616567801E-2    4.182124529600786E-2   -2.728042433486025E-2    9.585627190718795E-1    2.643147925723748E-2
 3.928125903158922E5     9.587072185170574E-1    2.630044628413131E-2    4.167765166407138E-2   -2.716150183775621E-2    4.171775886115933E-2   -2.718377397066863E-2    9.586482529581750E-1    2.631317451930365E-2
 3.958096964258819E5     9.588003156795230E-1    2.619703959873266E-2    4.156893128113583E-2   -2.706637925586606E-2    4.161128565756519E-2   -2.708331559401191E-2    9.587909330407708E-1    2.620383083258908E-2
 3.988296700438284E5     9.589320506312320E-1    2.608991064099841E-2    4.146392271198131E-2   -2.696960798299375E-2    4.150873190957987E-2   -2.698803963564144E-2    9.588919101347303E-1    2.609218295833536E-2
 4.018726856456762E5     9.590501685455959E-1    2.599564230770753E-2    4.136025052199673E-2   -2.687391412782096E-2    4.140180926983687E-2   -2.688992781117248E-2    9.589786093779936E-1    2.599783247230807E-2
 4.049389190385970E5     9.591370947342798E-1    2.589962932525927E-2    4.125730954197503E-2   -2.677825544740909E-2    4.129459741300797E-2   -2.679080705435543E-2    9.590687995228305E-1    2.589655271172637E-2
 4.080285473711492E5     9.591892462021034E-1    2.579502352160739E-2    4.114588026314559E-2   -2.667694263551333E-2    4.119141155218266E-2   -2.669715286744859E-2    9.591784638666880E-1    2.578692289740104E-2
 4.111417491435081E5     9.593074800434408E-1    2.569373655484334E-2    4.103808015924760E-2   -2.658263378149407E-2    4.108500609601445E-2   -2.660036871105796E-2    9.592880134456003E-1    2.570548827282353E-2
 4.142787042177814E5     9.594327896994657E-1    2.557993330765718E-2    4.094042392253763E-2   -2.648598820141735E-2    4.098317694381393E-2   -2.650599342679582E-2    9.593895464844775E-1    2.558891384026939E-2
 4.174395938283992E5     9.595302273829709E-1    2.549218975138534E-2    4.083828973379433E-2   -2.639481008106514E-2    4.087467037234363E-2   -2.640860370235872E-2    9.595090674274720E-1    2.549077350218219E-2
 4.206246005925882E5     9.596544248513064E-1    2.537284788910003E-2    4.072841364948249E-2   -2.630036746524338E-2    4.077517716042112E-2   -2.631783857180641E-2    9.596117101138784E-1    2.538637817228217E-2
 4.238339085209167E5     9.598049980632380E-1    2.527869152917577E-2    4.062747492224902E-2   -2.620531416540905E-2    4.066834395490419E-2   -2.622170638982124E-2    9.597386580376782E-1    2.529178984316389E-2
 4.270677030279291E5     9.598427031212416E-1    2.517934317765965E-2    4.052261279263759E-2   -2.610926789053226E-2    4.056890651675975E-2   -2.612421732350122E-2    9.597995947975306E-1    2.519908104375832E-2
 4.303261709428567E5     9.599915008455542E-1    2.508095243651197E-2    4.042051258780537E-2   -2.601802834251651E-2    4.046337729769444E-2   -2.603137155253979E-2    9.598784866087046E-1    2.508579403713277E-2
 4.336095005204146E5     9.601251190059364E-1    2.496962587326976E-2    4.032104947889483E-2   -2.592203826113977E-2    4.036517513446215E-2   -2.593799138085433E-2    9.600371026184994E-1    2.498961544262616E-2
 4.369178814516730E5     9.602032491935193E-1    2.487857926754173E-2    4.021210392791797E-2   -2.582658863341726E-2    4.026063175714445E-2   -2.584503213076186E-2    9.600997445811298E-1    2.488038747350923E-2
 4.402515048750198E5     9.602988997667382E-1    2.477756063503453E-2    4.010639666937280E-2   -2.573358168778512E-2    4.015502314434409E-2   -2.574868026196952E-2    9.602259948079878E-1    2.478110866409202E-2
 4.436105633872023E5     9.603878451050750E-1    2.468299357610823E-2    4.000801753343797E-2   -2.564098795917102E-2    4.005421767848449E-2   -2.565483899598990E-2    9.603366506184081E-1    2.467838819689588E-2
 4.469952510544541E5     9.604696669451914E-1    2.457627156603430E-2    3.990493854431559E-2   -2.554584800567380E-2    3.994837537724932E-2   -2.556233731140127E-2    9.604568956201370E-1    2.459075041759972E-2
 4.504057634237097E5     9.605805086623277E-1    2.448517365080566E-2    3.980396531925700E-2   -2.545373537331122E-2    3.984811361824965E-2   -2.546864325268809E-2    9.605787757510802E-1    2.449150002214372E-2
 4.538422975338975E5     9.606447257701096E-1    2.438433904884758E-2    3.969666791073646E-2   -2.535967082885705E-2    3.974772355970066E-2   -2.537500721942923E-2    9.606634194165792E-1    2.439302022694763E-2
 4.573050519273265E5     9.607661528624046E-1    2.427750113824855E-2    3.959464477910890E-2   -2.526965757791096E-2    3.964603778459590E-2   -2.528535288230782E-2    9.607894809662920E-1    2.428531876147889E-2
 4.607942266611566E5     9.608543261608880E-1    2.419156254181663E-2    3.949342673288044E-2   -2.517560468292339E-2    3.954228404337605E-2   -2.519476410865300E-2    9.608731387694552E-1    2.418774162336555E-2
 4.643100233189550E5     9.609962630389181E-1    2.407904019311555E-2    3.939509933900598E-2   -2.508432693461251E-2    3.944251165863435E-2   -2.509914949767358E-2    9.609844820490853E-1    2.409018830302329E-2
 4.678526450223470E5     9.610911275495548E-1    2.398416985769602E-2    3.929912370798497E-2   -2.498904099078748E-2    3.934565348038898E-2   -2.500932285305077E-2    9.610696207434455E-1    2.399172125405584E-2
 4.714222964427450E5     9.611881065913145E-1    2.387607432862374E-2    3.919603456534199E-2   -2.489807233830957E-2    3.924437934945544E-2   -2.491727324371492E-2    9.611730591164542E-1    2.388559501250520E-2
 4.750191838131770E5     9.612964481537803E-1    2.378386085011233E-2    3.909432721074050E-2   -2.480567187211344E-2    3.914272422163233E-2   -2.482739692104810E-2    9.612671269912891E-1    2.378587624884089E-2
 4.786435149402010E5     9.613998496216293E-1    2.368483741704387E-2    3.899860851606659E-2   -2.471524219347969E-2    3.904278002104357E-2   -2.473337026085076E-2    9.613815908045137E-1    2.370437582918042E-2
 4.822954992159092E5     9.614886221476004E-1    2.358403038685170E-2    3.889495510495244E-2   -2.462960545033952E-2    3.894293471276203E-2   -2.464233201023230E-2    9.614219340189680E-1    2.360031911421824E-2
 4.859753476300298E5     9.615952781977128E-1    2.347831133482205E-2    3.879664740269709E-2   -2.453425339660553E-2    3.884410212620274E-2   -2.455276063392972E-2    9.615575438388964E-1    2.349271393950263E-2
 4.896832727821107E5     9.616849741048612E-1    2.338683625823988E-2    3.869709311549314E-2   -2.444189311587527E-2    3.874784713049420E-2   -2.445826839953969E-2    9.616059643108256E-1    2.340633750484954E-2
 4.934194888938060E5     9.617584448689829E-1    2.329072394120828E-2    3.859822417102483E-2   -2.435280979265188E-2    3.864780800492711E-2   -2.436804871777431E-2    9.617350735372509E-1    2.330265830384292E-2
 4.971842118212518E5     9.618335070861846E-1    2.320005648285388E-2    3.850384078207190E-2   -2.425965787664636E-2    3.854886396496218E-2   -2.428106988863611E-2    9.618353050421993E-1    2.321777404173640E-2
 5.009776590675358E5     9.619274745324494E-1    2.309526232741185E-2    3.840359103589955E-2   -2.416657878812518E-2    3.844892961687278E-2   -2.418808306502127E-2    9.618868898973808E-1    2.310842851174489E-2
 5.048000497952673E5     9.620542895456998E-1    2.298543163674249E-2    3.830860887148303E-2   -2.407982205311850E-2    3.835534498281076E-2   -2.410005217182273E-2    9.620234105465905E-1    2.300590936315520E-2
 5.086516048392332E5     9.621563523756862E-1    2.289846092142950E-2    3.821399481001374E-2   -2.398850176303823E-2    3.825571133571787E-2   -2.400878646621479E-2    9.621329763927107E-1    2.290348811806460E-2
 5.125325467191607E5     9.622246534553099E-1    2.280712789594741E-2    3.811860677162741E-2   -2.389883475492743E-2    3.816349450388681E-2   -2.391916966794852E-2    9.621997035203770E-1    2.280777684284714E-2
 5.164430996525706E5     9.622868087690670E-1    2.270562775031393E-2    3.801933927400710E-2   -2.380634154516197E-2    3.806314289281090E-2   -2.383087484346735E-2    9.622736234054704E-1    2.272100869138012E-2
 5.203834895677360E5     9.624567085589520E-1    2.259283969691873E-2    3.792751083674870E-2   -2.371860038805190E-2    3.796960550115343E-2   -2.374151498446483E-2    9.623508198078853E-1    2.264115262257735E-2
 5.243539441167285E5     9.625421130117567E-1    2.249968695205940E-2    3.782952352463095E-2   -2.362932770177966E-2    3.787503149594964E-2   -2.365001046233358E-2    9.624780332324907E-1    2.252356119135175E-2
 5.283546926885745E5     9.625861869041487E-1    2.240739796240566E-2    3.773374914715143E-2   -2.353810943658430E-2    3.777429368286930E-2   -2.356108017179716E-2    9.625546209942548E-1    2.242724774053662E-2
 5.323859664225065E5     9.626996618350104E-1    2.230784923683694E-2    3.764107992604727E-2   -2.344629128618305E-2    3.768461320725162E-2   -2.346911749589150E-2    9.626341906467467E-1    2.232828297749169E-2
 5.364479982213206E5     9.627751061135899E-1    2.221788909713683E-2    3.754682838897187E-2   -2.335765532108098E-2    3.758755904054904E-2   -2.338006823045737E-2    9.627269953155770E-1    2.223009405672635E-2
 5.405410227648258E5     9.629068000204370E-1    2.211020551636986E-2    3.745321713363033E-2   -2.326697461832590E-2    3.749873490652897E-2   -2.329589892435755E-2    9.628596545616110E-1    2.212906359035430E-2
 5.446652765234077E5     9.630039618812302E-1    2.201507419963641E-2    3.736052026822952E-2   -2.318164869300032E-2    3.740546733944298E-2   -2.320901240692840E-2    9.629758166430533E-1    2.202125715955725E-2
 5.488209977716873E5     9.630518102380964E-1    2.192377070898703E-2    3.726771651796973E-2   -2.309004918884262E-2    3.731325928786053E-2   -2.311600260591423E-2    9.630320675433104E-1    2.193118716222809E-2
 5.530084266022880E5     9.631092212948393E-1    2.181874455018240E-2    3.717778646863642E-2   -2.300307505075742E-2    3.722143473554694E-2   -2.302638920807533E-2    9.631401189565906E-1    2.184543448581850E-2
 5.572278049397101E5     9.631925891396432E-1    2.172111702076082E-2    3.708787722417840E-2   -2.291964747938944E-2    3.713166093334044E-2   -2.294283763158055E-2    9.632593989678546E-1    2.174410432093433E-2
 5.614793765543010E5     9.632874639084120E-1    2.163203612640227E-2    3.699643210449512E-2   -2.283208761264055E-2    3.704672099518953E-2   -2.285882892703075E-2    9.633557895693016E-1    2.163300060964175E-2
 5.657633870763436E5     9.633836669565515E-1    2.154441930406729E-2    3.690689735304437E-2   -2.274105364169935E-2    3.694993553792181E-2   -2.277240068651541E-2    9.634624263685414E-1    2.152510125079306E-2
 5.700800840102463E5     9.635370679971421E-1    2.145111991718626E-2    3.682045083990588E-2   -2.265604972021792E-2    3.685998798144388E-2   -2.268096868389013E-2    9.635200994718883E-1    2.143409651670218E-2
 5.744297167488408E5     9.636355173933691E-1    2.134342936509093E-2    3.672790686643890E-2   -2.256859809963687E-2    3.677180885582259E-2   -2.259755035997256E-2    9.635793241284619E-1    2.134506816905746E-2
 5.788125365877954E5     9.637328609900038E-1    2.125125542758501E-2    3.663956450181884E-2   -2.248267953936709E-2    3.668270717515933E-2   -2.250841247201135E-2    9.636924586769986E-1    2.126174060291745E-2
 5.832287967401261E5     9.637589880584568E-1    2.116043935746915E-2    3.655047109399145E-2   -2.239184758465445E-2    3.659286514126352E-2   -2.242567689634830E-2    9.637944861090197E-1    2.117784961732235E-2
 5.876787523508312E5     9.638363719016285E-1    2.107358934044575E-2    3.646031857512014E-2   -2.230808960054448E-2    3.650297716704654E-2   -2.233455392505218E-2    9.638555580009194E-1    2.106884892024304E-2
 5.921626605116295E5     9.639458533600955E-1    2.095901399762027E-2    3.637534943689870E-2   -2.222711976638417E-2    3.641494125087697E-2   -2.225363759853763E-2    9.639386421480330E-1    2.098127344510107E-2
 5.966807802758140E5     9.640623057471729E-1    2.087449511743567E-2    3.629076033438912E-2   -2.214104802462971E-2    3.633001783960887E-2   -2.216715706719639E-2    9.640326096681905E-1    2.090454846510198E-2
 6.012333726732214E5     9.641392195999090E-1    2.077561863269375E-2    3.620146638671900E-2   -2.205640531095642E-2    3.624307794067318E-2   -2.208574769919730E-2    9.640604791510539E-1    2.080337692501643E-2
 6.058207007253073E5     9.641952053999008E-1    2.069301328305032E-2    3.611233754755794E-2   -2.197312417301479E-2    3.615601543150910E-2   -2.200051246721342E-2    9.641623709657201E-1    2.070525248538923E-2
 6.104430294603459E5     9.642958090827741E-1    2.059490576607094E-2    3.602845386188092E-2   -2.188788264466050E-2    3.607038466163938E-2   -2.191784672768820E-2    9.642235055750736E-1    2.062697047278505E-2
 6.151006259287392E5     9.643997298490304E-1    2.051824833964558E-2    3.594346979578122E-2   -2.180534177762880E-2    3.598354953612651E-2   -2.183492325455454E-2    9.643610677753640E-1    2.051223407712868E-2
 6.197937592184512E5     9.644716938521553E-1    2.041293416666398E-2    3.585587150645040E-2   -2.172061588705545E-2    3.589778597774488E-2   -2.175007655064749E-2    9.644287690142199E-1    2.042293741637365E-2
 6.245227004705463E5     9.645177702397472E-1    2.033080832761562E-2    3.577239674761317E-2   -2.163840366040276E-2    3.581287447854294E-2   -2.166544426011012E-2    9.644913944864979E-1    2.034365104731959E-2
 6.292877228948588E5     9.645851911435841E-1    2.024720368977378E-2    3.568630867705372E-2   -2.155899679718350E-2    3.572675753920623E-2   -2.158389729642589E-2    9.645428596904184E-1    2.025450332432328E-2
 6.340891017857760E5     9.647068352687223E-1    2.013809247590118E-2    3.560186049825406E-2   -2.147535547881813E-2    3.564383944047769E-2   -2.150591588470281E-2    9.646171493850453E-1    2.016837496251929E-2
 6.389271145381465E5     9.647638299644120E-1    2.006003418030976E-2    3.551780364125643E-2   -2.139282288790189E-2    3.556066214511450E-2   -2.142485103554283E-2    9.647597315194789E-1    2.006232327155290E-2
 6.438020406633007E5     9.648015072612934E-1    1.997408920366625E-2    3.543780513496139E-2   -2.131504414325677E-2    3.547311743509110E-2   -2.134302782515334E-2    9.648226797656169E-1    1.997581319540024E-2
 6.487141618052023E5     9.649248932405731E-1    1.988322654776056E-2    3.535300773428528E-2   -2.123693849222039E-2    3.539019510440636E-2   -2.126468636996677E-2    9.649092039499791E-1    1.987491334040068E-2
 6.536637617567203E5     9.650077649357784E-1    1.979182149298276E-2    3.526958557848339E-2   -2.115669432332212E-2    3.530692110703539E-2   -2.118014721315278E-2    9.650225654795874E-1    1.979149159530457E-2
 6.586511264760230E5     9.650500986772964E-1    1.972127475973178E-2    3.518376111805029E-2   -2.107475398534936E-2    3.522261042323979E-2   -2.110261420408811E-2    9.650854426615748E-1    1.971840800139109E-2
 6.636765441031042E5     9.651262636005444E-1    1.961706036394277E-2    3.510280344607574E-2   -2.099398170953543E-2    3.514154901679685E-2   -2.102256341081044E-2    9.652065150016951E-1    1.961373716700553E-2
 6.687403049764220E5     9.652273814795002E-1    1.952614591953532E-2    3.502104831389032E-2   -2.091866759868059E-2    3.505856384485741E-2   -2.094414342275763E-2    9.652209614089994E-1    1.953030820351662E-2
 6.738427016496789E5     9.652970048117224E-1    1.946133363238799E-2    3.493767718005783E-2   -2.083546026846802E-2    3.497310023226013E-2   -2.086675885980600E-2    9.653104272743159E-1    1.944914966403308E-2
 6.789840289087215E5     9.654074504894914E-1    1.936120626268993E-2    3.485420441529131E-2   -2.075912387362280E-2    3.489306684597108E-2   -2.079001703551306E-2    9.654038973374999E-1    1.934602876100400E-2
 6.841645837885707E5     9.655134979501107E-1    1.926724955949030E-2    3.477248573959354E-2   -2.068312058710538E-2    3.481219847286322E-2   -2.071074764456239E-2    9.655184818749774E-1    1.925907079366982E-2
 6.893846655905881E5     9.656027237514204E-1    1.916647112328766E-2    3.469383203738884E-2   -2.060672531285511E-2    3.472774418951237E-2   -2.063234563052091E-2    9.655558817180030E-1    1.918475760652022E-2
 6.946445758997592E5     9.656506026303615E-1    1.910009347812012E-2    3.460706856565858E-2   -2.052935128305904E-2    3.464363175830654E-2   -2.056042452634526E-2    9.656630099434477E-1    1.908418170243580E-2
 6.999446186021230E5     9.657230854107408E-1    1.900693089242410E-2    3.452669991150744E-2   -2.045156657352829E-2    3.456416887120179E-2   -2.048292869562625E-2    9.657752362865752E-1    1.897916945620293E-2
 7.052850999023273E5     9.657972538597099E-1    1.891862219144374E-2    3.444254229404192E-2   -2.037554415900275E-2    3.448231684127177E-2   -2.040535339581450E-2    9.658315066416698E-1    1.891907732524819E-2
 7.106663283413178E5     9.658656573875689E-1    1.885152668954339E-2    3.436557819724904E-2   -2.030408153029934E-2    3.440073629379886E-2   -2.032975006652374E-2    9.659109528727022E-1    1.884983111792019E-2
 7.160886148141696E5     9.659732160001225E-1    1.873782554959605E-2    3.427932605180814E-2   -2.022869555560328E-2    3.431961307833786E-2   -2.025578279982071E-2    9.659848672514777E-1    1.873463289128889E-2
 7.215522725880400E5     9.660718540108331E-1    1.863598590509491E-2    3.419843067778434E-2   -2.014986278346446E-2    3.423692848779834E-2   -2.018106103098609E-2    9.660284471526407E-1    1.866305530078261E-2
 7.270576173202734E5     9.661554956624185E-1    1.857067770585648E-2    3.411519493119378E-2   -2.007282816715880E-2    3.415789268237514E-2   -2.010767014522823E-2    9.661226661002872E-1    1.857513450068493E-2
 7.326049670766364E5     9.662179120339232E-1    1.847483351390639E-2    3.403615107820674E-2   -2.000033969640498E-2    3.407496617348389E-2   -2.003096195260105E-2    9.662401614040480E-1    1.845537911199833E-2
 7.381946423496918E5     9.662633398203690E-1    1.840696061592295E-2    3.395488993380829E-2   -1.992411550598121E-2    3.398978857319128E-2   -1.995492386373788E-2    9.663061967433756E-1    1.838416767988775E-2
 7.438269660773217E5     9.663442059015406E-1    1.833859491451737E-2    3.387645559098914E-2   -1.984987920356555E-2    3.391205353945215E-2   -1.988116917481833E-2    9.664201361967638E-1    1.828942890741748E-2
 7.495022636613748E5     9.664476078934281E-1    1.823426004275698E-2    3.379595632934466E-2   -1.977518771471988E-2    3.382972165727859E-2   -1.980679100918948E-2    9.664809012655140E-1    1.820552496094765E-2
 7.552208629864733E5     9.665092722466375E-1    1.815049295750293E-2    3.371254657906649E-2   -1.970464874389794E-2    3.374801986832630E-2   -1.973079641298190E-2    9.665610888481154E-1    1.812303761925158E-2
 7.609830944389519E5     9.666150249919603E-1    1.805432896937545E-2    3.363088305267547E-2   -1.962851619525527E-2    3.366869171382898E-2   -1.965868059711864E-2    9.666395720154187E-1    1.804847022945940E-2
 7.667892909259528E5     9.667069113643053E-1    1.794322909101199E-2    3.355021179439656E-2   -1.955203317598707E-2    3.358944172546357E-2   -1.958620073167658E-2    9.667451424589092E-1    1.794745907053004E-2
 7.726397878946491E5     9.667393775772812E-1    1.789225362494250E-2    3.346797943140425E-2   -1.947481644155410E-2    3.350315791099910E-2   -1.950870306007408E-2    9.667819609349005E-1    1.787674861820656E-2
 7.785349233516312E5     9.668547620157537E-1    1.779947350448291E-2    3.338654455211960E-2   -1.940267557902309E-2    3.342198794153326E-2   -1.943295330951311E-2    9.668606989249714E-1    1.779320826985287E-2
 7.844750378824320E5     9.669237717884407E-1    1.772375561743070E-2    3.331002156194715E-2   -1.932875990965982E-2    3.334198405925003E-2   -1.935881730578798E-2    9.669109822520086E-1    1.772438779005479E-2
 7.904604746712097E5     9.670143369538641E-1    1.762597389134193E-2    3.322951705152608E-2   -1.925772671708516E-2    3.326152288093245E-2   -1.928806557998474E-2    9.669820861495022E-1    1.763881403401496E-2
 7.964915795205662E5     9.671065541037412E-1    1.753439045408503E-2    3.314821450428017E-2   -1.918544278163016E-2    3.318350974167133E-2   -1.921317829917387E-2    9.670983597309475E-1    1.753912821566049E-2
 8.025687008715309E5     9.672075318371728E-1    1.741705819687631E-2    3.306894788804914E-2   -1.910633670902423E-2    3.310391022040933E-2   -1.913902557468603E-2    9.671428172176877E-1    1.747323014666067E-2
 8.086921898236905E5     9.672777434975829E-1    1.735792104921199E-2    3.299169865231726E-2   -1.903645066966818E-2    3.302092129745621E-2   -1.906492489047991E-2    9.672003367279328E-1    1.738702750499400E-2
 8.148624001554718E5     9.673350588896416E-1    1.727756126431829E-2    3.291151511700007E-2   -1.895917159237325E-2    3.294505201020100E-2   -1.899177450407135E-2    9.672920568884272E-1    1.727690865758642E-2
 8.210796883445872E5     9.674166420113297E-1    1.718252664144907E-2    3.282944099174558E-2   -1.888828337112855E-2    3.286320808372388E-2   -1.891924409137185E-2    9.673970379313399E-1    1.720098719693760E-2
 8.273444135886204E5     9.674804596134677E-1    1.707897648703394E-2    3.275437330795419E-2   -1.880973027264685E-2    3.278515614585808E-2   -1.884493328395203E-2    9.674503318780383E-1    1.711551792904257E-2
 8.336569378257846E5     9.675602625422031E-1    1.702199694058533E-2    3.267506205358744E-2   -1.873760034222627E-2    3.270527412751396E-2   -1.876971726638819E-2    9.675560822100524E-1    1.702799024185551E-2
 8.400176257558319E5     9.676312385159223E-1    1.694914059241609E-2    3.259626202525059E-2   -1.866403153574136E-2    3.263030392218898E-2   -1.869536321207623E-2    9.676765629801839E-1    1.692539056608410E-2
 8.464268448611222E5     9.677179521415277E-1    1.686596806443433E-2    3.252127847171175E-2   -1.859566880459282E-2    3.255290199117090E-2   -1.862203908498687E-2    9.676626337177381E-1    1.685543546287208E-2
 8.528849654278599E5     9.677969439978428E-1    1.677896513325437E-2    3.243810182350591E-2   -1.851304539147008E-2    3.247051572233716E-2   -1.854848663955806E-2    9.677670806364613E-1    1.675971178440377E-2
 8.593923605674774E5     9.678787999679028E-1    1.666920750257086E-2    3.236789980334697E-2   -1.844449023945634E-2    3.239756064220184E-2   -1.847427643121712E-2    9.678310458561977E-1    1.668713014522097E-2
 8.659494062381978E5     9.679374373489250E-1    1.659014885607336E-2    3.229097134947725E-2   -1.837252390785859E-2    3.231977859867358E-2   -1.840297453146664E-2    9.679397852677154E-1    1.659906450988433E-2
 8.725564812667536E5     9.680029549025616E-1    1.648308572944353E-2    3.221485702249475E-2   -1.829722738641999E-2    3.224308885813147E-2   -1.832583775031171E-2    9.680009542306333E-1    1.650754228991608E-2
 8.792139673702718E5     9.681043996705198E-1    1.639761695590965E-2    3.213772702906872E-2   -1.822507882280263E-2    3.216526492435035E-2   -1.825615776137175E-2    9.680664899741973E-1    1.643706574457960E-2
 8.859222491783336E5     9.681959323581049E-1    1.631001941141672E-2    3.206202208299651E-2   -1.814989188964456E-2    3.208991166296056E-2   -1.817987741613503E-2    9.681386925654436E-1    1.636068066874842E-2
 8.926817142551860E5     9.682875175904598E-1    1.621890768042525E-2    3.198952179085854E-2   -1.807917378606077E-2    3.201805931427250E-2   -1.810769084188871E-2    9.682017074001699E-1    1.627357970263928E-2
 8.994927531221397E5     9.683343895803234E-1    1.613488844233086E-2    3.191513655040878E-2   -1.800518433671400E-2    3.194063348126888E-2   -1.803534325902677E-2    9.682911757268764E-1    1.618246226119721E-2
 9.063557592801275E5     9.683920980424774E-1    1.603419199289687E-2    3.183691352024725E-2   -1.793005626454556E-2    3.186824791230077E-2   -1.795931612862144E-2    9.683572916712655E-1    1.611858570792141E-2
 9.132711292324457E5     9.684513425948080E-1    1.596464783210024E-2    3.176662342110047E-2   -1.785923854558640E-2    3.179577298223495E-2   -1.789305883828245E-2    9.684354821181979E-1    1.602368920950019E-2
 9.202392625076511E5     9.685145836617346E-1    1.588494877475027E-2    3.169344261796741E-2   -1.778566276789575E-2    3.172137017989046E-2   -1.781851779345703E-2    9.685121893424078E-1    1.593294143098829E-2
 9.272605616826499E5     9.685761617982317E-1    1.580153230793358E-2    3.162200290681898E-2   -1.771480980987618E-2    3.164558387633582E-2   -1.774714752667228E-2    9.685755936493716E-1    1.582605908609667E-2
 9.343354324059531E5     9.686941883278238E-1    1.570786743210308E-2    3.154730031480785E-2   -1.764606249515099E-2    3.157268640603645E-2   -1.767756467946024E-2    9.686484616897414E-1    1.574274367074571E-2
 9.414642834211199E5     9.687779284224651E-1    1.562068966925142E-2    3.147469218873788E-2   -1.757282362054563E-2    3.150240105772609E-2   -1.760510719234168E-2    9.687171789937481E-1    1.562067545341104E-2
 9.486475265903610E5     9.688248798298221E-1    1.552738250929422E-2    3.140338116332819E-2   -1.749912167148709E-2    3.142795039789127E-2   -1.753384414225264E-2    9.687848812993141E-1    1.556215426511135E-2
 9.558855769183410E5     9.689225030587262E-1    1.542733629344242E-2    3.133313524703304E-2   -1.743252453256459E-2    3.135633723534168E-2   -1.745937540580657E-2    9.688400511375898E-1    1.550377778811935E-2
 9.631788525761530E5     9.689813375729369E-1    1.531417786232181E-2    3.126286595608572E-2   -1.735894072323663E-2    3.128767942805524E-2   -1.738912352849172E-2    9.689120883605101E-1    1.542194955411524E-2
 9.705277749254764E5     9.690258138816229E-1    1.526341166398103E-2    3.119151630709308E-2   -1.729290734907719E-2    3.121504352390000E-2   -1.732048796504053E-2    9.689845383216784E-1    1.531839061696659E-2
 9.779327685429282E5     9.690750763286838E-1    1.519777553871588E-2    3.112096799011357E-2   -1.721937778258034E-2    3.114407240225152E-2   -1.724839025253725E-2    9.690783940964417E-1    1.520720081459888E-2
 9.853942612445805E5     9.691635141452033E-1    1.512022049789627E-2    3.105365842937215E-2   -1.714967190046578E-2    3.107547152955354E-2   -1.718065144870145E-2    9.691249269539592E-1    1.512534512533253E-2
 9.929126841106854E5     9.692364778960362E-1    1.501599184909797E-2    3.098065983467215E-2   -1.708140119812963E-2    3.100484229809294E-2   -1.711001609193113E-2    9.692136035753718E-1    1.503449097140862E-2
 1.000488471510578E6     9.692931747486992E-1    1.497714387605959E-2    3.091477131073168E-2   -1.701209980088781E-2    3.093678013051722E-2   -1.704255904222834E-2    9.692748578552040E-1    1.494601658764009E-2
 1.008122061127771E6     9.693638309600501E-1    1.488782905167105E-2    3.084501580137763E-2   -1.694400885630916E-2    3.086527142650227E-2   -1.697469004692201E-2    9.693227310063480E-1    1.487031769248874E-2
 1.015813893985245E6     9.694550327031843E-1    1.480323491212472E-2    3.077411130595260E-2   -1.687891191793200E-2    3.079667368403222E-2   -1.690565387513809E-2    9.694013980486539E-1    1.477569505622895E-2
 1.023564414470923E6     9.695384879399438E-1    1.470023892968819E-2    3.070374181383630E-2   -1.680753607715223E-2    3.072694268302199E-2   -1.683957370070045E-2    9.694522859717095E-1    1.470328077800373E-2
 1.031374070363347E6     9.695939025252287E-1    1.461890925511942E-2    3.063473727285346E-2   -1.674434853255410E-2    3.065690501327480E-2   -1.677126889568873E-2    9.695058062342490E-1    1.463583287663497E-2
 1.039243312857548E6     9.696745709649849E-1    1.451196660043880E-2    3.056821843355658E-2   -1.667625437189923E-2    3.058846595441921E-2   -1.670242017153283E-2    9.695720782819736E-1    1.456905993507931E-2
 1.047172596591111E6     9.697059821865027E-1    1.446135294679732E-2    3.049882545749455E-2   -1.660680824217933E-2    3.051861615074923E-2   -1.663409508025803E-2    9.696451573711501E-1    1.444326540755472E-2
 1.055162379670449E6     9.697867008504683E-1    1.439295181561655E-2    3.043296924652512E-2   -1.654189965847231E-2    3.045207515340083E-2   -1.656903454612700E-2    9.697491753964567E-1    1.437394047570891E-2
 1.063213123697260E6     9.698634621533998E-1    1.429396428094181E-2    3.036170356393635E-2   -1.647313681300164E-2    3.038353380767432E-2   -1.650674445397435E-2    9.698199567995039E-1    1.430997475798030E-2
 1.071325293795198E6     9.699345175489448E-1    1.421178438015341E-2    3.029662289722789E-2   -1.640330458553171E-2    3.031483396433943E-2   -1.643913565130873E-2    9.699122313723149E-1    1.420825651167396E-2
 1.079499358636750E6     9.700091952929295E-1    1.410481231491361E-2    3.022607885164441E-2   -1.634448406874386E-2    3.024422823642351E-2   -1.637293206606427E-2    9.699657420407506E-1    1.411918576847499E-2
 1.087735790470306E6     9.700499153945294E-1    1.407137500290681E-2    3.015690232942062E-2   -1.627708863051988E-2    3.017772311206103E-2   -1.630573924417702E-2    9.700233824471294E-1    1.406366649300559E-2
 1.096035065147453E6     9.701288291832536E-1    1.399813448179279E-2    3.009023449903445E-2   -1.620673150165641E-2    3.010641780885486E-2   -1.623917767029324E-2    9.700984150896389E-1    1.397493459871417E-2
 1.104397662150453E6     9.701708690132023E-1    1.391319219321619E-2    3.002209418894902E-2   -1.614127589380908E-2    3.004007398010448E-2   -1.617247211615839E-2    9.701593786875066E-1    1.389670847322272E-2
 1.112824064619953E6     9.702145614748922E-1    1.382847851344930E-2    2.995371394285840E-2   -1.607925091860948E-2    2.997341049464064E-2   -1.611030449545051E-2    9.702068444127809E-1    1.380053046062977E-2
 1.121314759382903E6     9.703038206095417E-1    1.374076083197005E-2    2.988742636926611E-2   -1.601406497570324E-2    2.990456112749346E-2   -1.604263016645587E-2    9.702691318379340E-1    1.373485557266981E-2
 1.129870236980669E6     9.703564941924445E-1    1.366722035713630E-2    2.981627908468873E-2   -1.594994150715811E-2    2.983352345308696E-2   -1.597809206227054E-2    9.703395996117805E-1    1.362827709633438E-2
 1.138490991697383E6     9.704114454154131E-1    1.356983927420547E-2    2.975084351948168E-2   -1.588614147618672E-2    2.976635868597065E-2   -1.591247127019689E-2    9.704162042237219E-1    1.358523408168307E-2
 1.147177521588496E6     9.704908374388900E-1    1.350288731142087E-2    2.968301492297686E-2   -1.581909033794212E-2    2.969905486107139E-2   -1.584522665226629E-2    9.704846686077226E-1    1.349073884014715E-2
 1.155930328509552E6     9.705527657384770E-1    1.342488036831775E-2    2.961311715332169E-2   -1.575323445397968E-2    2.963087978259065E-2   -1.578275980059906E-2    9.705403122418609E-1    1.341945209669540E-2
 1.164749918145190E6     9.706438053782313E-1    1.333027815855757E-2    2.954636329010841E-2   -1.569209095367047E-2    2.956444290403019E-2   -1.571958803926053E-2    9.706093828394828E-1    1.333376663269945E-2
 1.173636800038349E6     9.706683192105853E-1    1.324481292739654E-2    2.947533465240169E-2   -1.562366093894955E-2    2.949599341700107E-2   -1.565187602026744E-2    9.706789251883216E-1    1.321666644476991E-2
 1.182591487619709E6     9.707665846477710E-1    1.316865544185224E-2    2.941023123208179E-2   -1.555923183683456E-2    2.942480920889470E-2   -1.558567211551966E-2    9.707583266949142E-1    1.315747412422109E-2
 1.191614498237359E6     9.708303248055931E-1    1.307317533669254E-2    2.934443320101378E-2   -1.549079584255724E-2    2.935700463508294E-2   -1.552318873395417E-2    9.708211007789065E-1    1.304940871691881E-2
 1.200706353186678E6     9.708604427536947E-1    1.300518121777874E-2    2.927862077562593E-2   -1.542950383500579E-2    2.928771951607519E-2   -1.546128467391740E-2    9.708586776024923E-1    1.297872361307409E-2
 1.209867577740467E6     9.709502271654312E-1    1.290030356584294E-2    2.920759441445209E-2   -1.536493133833113E-2    2.922198536135057E-2   -1.539353628803336E-2    9.709197820640204E-1    1.294193656492798E-2
 1.219098701179276E6     9.710593289318156E-1    1.283227416635090E-2    2.914622532579012E-2   -1.530044596062049E-2    2.915230584726197E-2   -1.532571756426021E-2    9.710251270968728E-1    1.284912610802355E-2
 1.228400256821998E6     9.710990468545246E-1    1.275298757530332E-2    2.907642657089797E-2   -1.523357971758819E-2    2.908842985010044E-2   -1.526282789419945E-2    9.710559846035005E-1    1.275572984581091E-2
 1.237772782056674E6     9.711634754151038E-1    1.265235188599428E-2    2.900879487394240E-2   -1.516807200977350E-2    2.902197844072644E-2   -1.519766070341038E-2    9.710921214590311E-1    1.267748107445396E-2
 1.247216818371540E6     9.712240066658352E-1    1.256041585330767E-2    2.894463590196308E-2   -1.510088075570041E-2    2.896030788069946E-2   -1.513263507760982E-2    9.711936619448918E-1    1.260904909228478E-2
 1.256732911386322E6     9.712972368667345E-1    1.246681879020727E-2    2.888012606517928E-2   -1.503761953934373E-2    2.888963222794215E-2   -1.506182283271285E-2    9.712710245627210E-1    1.252420866984194E-2
 1.266321610883739E6     9.713621942000931E-1    1.240594283174654E-2    2.881189709833959E-2   -1.497183319951890E-2    2.882596818157919E-2   -1.499953246193063E-2    9.713274650538096E-1    1.246006965574463E-2
 1.275983470841281E6     9.714281755540964E-1    1.233867362908217E-2    2.874523857562093E-2   -1.490432881474291E-2    2.875991980706312E-2   -1.493270435813001E-2    9.713987430750188E-1    1.236185213346466E-2
 1.285719049463211E6     9.715044385239375E-1    1.227720550584739E-2    2.868318309242788E-2   -1.484055357709427E-2    2.869361001922803E-2   -1.486778483215819E-2    9.714428327960803E-1    1.226376382215103E-2
 1.295528909212810E6     9.715521142482374E-1    1.216247743171150E-2    2.861820053427793E-2   -1.477554796079349E-2    2.863240161372447E-2   -1.480173447559921E-2    9.715280124074662E-1    1.218697474062868E-2
 1.305413616844883E6     9.716198439066149E-1    1.208940972747695E-2    2.855428244869026E-2   -1.471125053657443E-2    2.856689739935677E-2   -1.473672419527111E-2    9.715722010171263E-1    1.210434742462013E-2
 1.315373743438491E6     9.716730983214610E-1    1.197944932762307E-2    2.849163839015737E-2   -1.464697256003111E-2    2.850047508830481E-2   -1.467228402289936E-2    9.716517725292235E-1    1.202798953816411E-2
 1.325409864429950E6     9.717468446371819E-1    1.197243201292157E-2    2.842706967502931E-2   -1.457782476044043E-2    2.843599195300243E-2   -1.460534805751314E-2    9.716795540334532E-1    1.192634715784819E-2
 1.335522559646084E6     9.718083331177590E-1    1.183686032850979E-2    2.836773067051490E-2   -1.451319070240105E-2    2.837728666355510E-2   -1.453791175822014E-2    9.717260789772811E-1    1.184751638380444E-2
 1.345712413337699E6     9.718604139087079E-1    1.176012526889693E-2    2.830173959376720E-2   -1.444993601410456E-2    2.831763548179499E-2   -1.447356867593322E-2    9.717935738520990E-1    1.174585693111729E-2
 1.355980014213373E6     9.718989668391007E-1    1.167066161986701E-2    2.824098276566806E-2   -1.438841219717599E-2    2.825280151383769E-2   -1.440495246372842E-2    9.718501123478904E-1    1.165960884185049E-2
 1.366325955473440E6     9.719781874029093E-1    1.158524106167628E-2    2.817984466076233E-2   -1.432426751964601E-2    2.819111394186229E-2   -1.434441926213697E-2    9.719342701663869E-1    1.159170787433216E-2
 1.376750834844268E6     9.719937210917382E-1    1.150137274198302E-2    2.811793908666202E-2   -1.425702995313697E-2    2.813100304909812E-2   -1.427881752614618E-2    9.720134825879548E-1    1.153192459114604E-2
 1.387255254612807E6     9.720798385513032E-1    1.140418727534914E-2    2.805825143561391E-2   -1.419201300712528E-2    2.807062704513546E-2   -1.421341971456445E-2    9.720799952462649E-1    1.145935982080771E-2
 1.397839821661363E6     9.721401473848771E-1    1.133415903000745E-2    2.799915600648934E-2   -1.412666242032173E-2    2.800665716574808E-2   -1.414806278276647E-2    9.721386199460291E-1    1.138016321618134E-2
 1.408505147502673E6     9.722178118860300E-1    1.127778702235606E-2    2.793675576271864E-2   -1.406596866010061E-2    2.794907698452872E-2   -1.408521703244554E-2    9.721530431259457E-1    1.127756737275242E-2
 1.419251848315235E6     9.722373774503419E-1    1.115564330165894E-2    2.787610235615167E-2   -1.400388920906750E-2    2.788592008269626E-2   -1.402087123010078E-2    9.722397740389533E-1    1.120693896116817E-2
 1.430080544978898E6     9.722899686187626E-1    1.108239051440386E-2    2.781734283945409E-2   -1.393649442738393E-2    2.782771529332085E-2   -1.395882704421283E-2    9.722993758597303E-1    1.112233909505701E-2
 1.440991863110751E6     9.723719346845670E-1    1.101799204193343E-2    2.775845297862597E-2   -1.387400478285586E-2    2.776765424074990E-2   -1.389478881607243E-2    9.723660185387307E-1    1.103309545068140E-2
 1.451986433101243E6     9.724207879346397E-1    1.090870173287120E-2    2.769952967634663E-2   -1.381103967673559E-2    2.770981695657510E-2   -1.383263151604360E-2    9.724233613638236E-1    1.095842802958761E-2
 1.463064890150622E6     9.724724437764317E-1    1.084168407679135E-2    2.763938988264831E-2   -1.375209694162948E-2    2.765300341308111E-2   -1.376985366650406E-2    9.724842931237120E-1    1.087936957141998E-2
 1.474227874305625E6     9.725166367243947E-1    1.074270290462155E-2    2.758106937109314E-2   -1.369060238534450E-2    2.759364888217026E-2   -1.370713635813259E-2    9.725453740022310E-1    1.079094477207241E-2
 1.485476030496454E6     9.725994630533408E-1    1.067911484381242E-2    2.752339641246782E-2   -1.362647342740084E-2    2.753331486844194E-2   -1.364680188956016E-2    9.726032209408231E-1    1.069881651073023E-2
 1.496810008574050E6     9.726635380542527E-1    1.060053581302488E-2    2.746380628775864E-2   -1.356516787772930E-2    2.747735728120944E-2   -1.358478574714149E-2    9.726255954768401E-1    1.062815448131597E-2
 1.508230463347619E6     9.727188716070758E-1    1.052652518021083E-2    2.740440124626536E-2   -1.350164793145594E-2    2.741901038162074E-2   -1.352138818618007E-2    9.726978639183866E-1    1.056594947916102E-2
 1.519738054622472E6     9.727854383583495E-1    1.045214353426907E-2    2.734903694057369E-2   -1.344223215590858E-2    2.735633577090806E-2   -1.346543319031492E-2    9.727229061289372E-1    1.045503972261948E-2
 1.531333447238147E6     9.728239998013263E-1    1.036689343279383E-2    2.728838049689855E-2   -1.338130181457296E-2    2.729744479539214E-2   -1.340272055521044E-2    9.728153927067488E-1    1.040476002503591E-2
 1.543017311106810E6     9.728875648682561E-1    1.025931939038644E-2    2.723062342386988E-2   -1.331942518854892E-2    2.724126910901941E-2   -1.333917110103677E-2    9.728732574609270E-1    1.032964174862792E-2
 1.554790321251977E6     9.729301341814199E-1    1.019453181154125E-2    2.717605910391966E-2   -1.326041076357305E-2    2.718437369814158E-2   -1.327783304458700E-2    9.729715885359477E-1    1.026241110701419E-2
 1.566653157847488E6     9.730108791598568E-1    1.011160657466279E-2    2.711626960355298E-2   -1.319954442986871E-2    2.712871656420363E-2   -1.321975952966721E-2    9.729922218926346E-1    1.017092725986852E-2
 1.578606506256824E6     9.730265040114922E-1    1.000564047385567E-2    2.705337796790218E-2   -1.314113783738712E-2    2.706624426910610E-2   -1.315794449343097E-2    9.730341610460743E-1    1.008080480512897E-2
 1.590651057072690E6     9.731028815111774E-1    9.928412723046651E-3    2.699514623352315E-2   -1.307950064822230E-2    2.700753478808024E-2   -1.309784228703618E-2    9.730937278333120E-1    1.000797829275839E-2
 1.602787506156919E6     9.731632489470120E-1    9.834866801311503E-3    2.693986003203083E-2   -1.302213871414222E-2    2.695183445020680E-2   -1.303489838609131E-2    9.731372345199182E-1    9.929722246009867E-3
 1.615016554680682E6     9.732197395840771E-1    9.770647149242221E-3    2.687877785243084E-2   -1.295860691903168E-2    2.689224332959388E-2   -1.297655806174819E-2    9.732397575551096E-1    9.833959005577916E-3
 1.627338909164981E6     9.733110386036558E-1    9.693035692138374E-3    2.682169789769371E-2   -1.289981287826788E-2    2.683156298521368E-2   -1.291806952057885E-2    9.732923455846737E-1    9.783601206452865E-3
 1.639755281521474E6     9.733591528461473E-1    9.615320421726964E-3    2.676813602338924E-2   -1.283897192124545E-2    2.677710750346446E-2   -1.285609711869783E-2    9.733476873508893E-1    9.667020764557581E-3
 1.652266389093622E6     9.734091331011021E-1    9.513087313292604E-3    2.670693015482556E-2   -1.277685495613680E-2    2.671701082690232E-2   -1.279136078244640E-2    9.733954995604116E-1    9.607775722853878E-3
 1.664872954698102E6     9.734573608442233E-1    9.440996613266618E-3    2.664815888232766E-2   -1.271773818132164E-2    2.665826026560270E-2   -1.273339234223640E-2    9.734296308602816E-1    9.504530607199186E-3
 1.677575706666590E6     9.735009364726236E-1    9.344265116532559E-3    2.659139645087782E-2   -1.265877963205460E-2    2.659974424778497E-2   -1.267392263513068E-2    9.735022984324865E-1    9.409559111885658E-3
 1.690375378887833E6     9.735798298889562E-1    9.281258244981813E-3    2.653490963647416E-2   -1.259568281486192E-2    2.654293968118884E-2   -1.261483441739894E-2    9.735519375446685E-1    9.324142109540709E-3
 1.703272710850043E6     9.736609997845612E-1    9.198736466823808E-3    2.647578704820170E-2   -1.253297678119787E-2    2.648668806390726E-2   -1.255163436014017E-2    9.736051059233551E-1    9.255082873477543E-3
 1.716268447683636E6     9.737302856477853E-1    9.130041997133619E-3    2.641795507236511E-2   -1.247591965561922E-2    2.642950578104474E-2   -1.249068386406175E-2    9.736512611664461E-1    9.171652345865462E-3
 1.729363340204262E6     9.737561565518490E-1    9.024390432813249E-3    2.636144971672093E-2   -1.241514595427245E-2    2.637153693346872E-2   -1.243027665926599E-2    9.737250874399825E-1    9.070146768164995E-3
 1.742558144956193E6     9.738181793482007E-1    8.954395954966396E-3    2.630373440322049E-2   -1.235368963658169E-2    2.631391966681757E-2   -1.236824005891438E-2    9.737597987427540E-1    8.989575020206782E-3
 1.755853624256030E6     9.738373611958483E-1    8.850591759680759E-3    2.624973338936495E-2   -1.229340096726008E-2    2.625910167326450E-2   -1.230733469053289E-2    9.738353043549163E-1    8.918419017165580E-3
 1.769250546236744E6     9.739262039930210E-1    8.763585926099193E-3    2.619021853249477E-2   -1.223082347097266E-2    2.620185103335206E-2   -1.224666296535952E-2    9.738591989796669E-1    8.816603758693992E-3
 1.782749684892061E6     9.739561885718986E-1    8.662867877956927E-3    2.613623956001478E-2   -1.216747798670550E-2    2.614577884291353E-2   -1.218533130733701E-2    9.739352890981253E-1    8.728578472138863E-3
 1.796351820121167E6     9.740038977026347E-1    8.574505783099904E-3    2.608035664648959E-2   -1.210571409842263E-2    2.608924339827376E-2   -1.212476664352985E-2    9.739696554013162E-1    8.651736636182086E-3
 1.810057737773773E6     9.740642111975928E-1    8.489696347658251E-3    2.602516015962508E-2   -1.204834263443862E-2    2.603254839277982E-2   -1.206179415392123E-2    9.740156206606387E-1    8.567027678465424E-3
 1.823868229695514E6     9.741482213622775E-1    8.416078882233070E-3    2.596956623954144E-2   -1.198771150924442E-2    2.597759350969179E-2   -1.200138601303187E-2    9.740311290515749E-1    8.478939533289039E-3
 1.837784093773698E6     9.742043241366896E-1    8.322067191237225E-3    2.591662140454782E-2   -1.192354053833709E-2    2.592348094207425E-2   -1.193836726200920E-2    9.741010734545311E-1    8.382675685808588E-3
 1.851806133983411E6     9.742488689085465E-1    8.246450377591891E-3    2.586320088454440E-2   -1.186408088333723E-2    2.587157855213316E-2   -1.187789962632167E-2    9.742125898916697E-1    8.313853929647601E-3
 1.865935160433950E6     9.743263550273340E-1    8.152474957825425E-3    2.580959665213286E-2   -1.180411042665777E-2    2.581752595725598E-2   -1.181613119051068E-2    9.742451155514090E-1    8.232622163685997E-3
 1.880171989415638E6     9.743603248543152E-1    8.076394472653205E-3    2.575554721684277E-2   -1.174494594929247E-2    2.576388735013741E-2   -1.175536241329773E-2    9.742848980088440E-1    8.136564575922510E-3
 1.894517443446981E6     9.744274987525791E-1    7.985652716079915E-3    2.570216811143499E-2   -1.168316552072497E-2    2.570982310508933E-2   -1.169537583259952E-2    9.743109612840751E-1    8.057360568859423E-3
 1.908972351322182E6     9.744631214528328E-1    7.883866600208940E-3    2.565021369154595E-2   -1.162137243492970E-2    2.565834028512252E-2   -1.163179806349972E-2    9.743397635983052E-1    7.951512081714898E-3
 1.923537548159045E6     9.745038551632106E-1    7.802316987137911E-3    2.559882328361044E-2   -1.156172809743574E-2    2.560569948609505E-2   -1.157280934256488E-2    9.743600469746495E-1    7.879155313115956E-3
 1.938213875447196E6     9.745505175324890E-1    7.702825165196043E-3    2.554946986669234E-2   -1.150022883938666E-2    2.555185791716468E-2   -1.151135714323206E-2    9.744615468182427E-1    7.786588825119276E-3
 1.953002181096708E6     9.745650991688950E-1    7.625702090941889E-3    2.549732907584213E-2   -1.144235031821912E-2    2.550194573020297E-2   -1.145011291671288E-2    9.745403151160302E-1    7.711717856360580E-3
 1.967903319487111E6     9.746205045269363E-1    7.527280539190941E-3    2.544214509516467E-2   -1.138288430498112E-2    2.544824371991036E-2   -1.139162685324026E-2    9.745476271477167E-1    7.634956314742159E-3
 1.982918151516703E6     9.746636976326408E-1    7.440736027752319E-3    2.538940463687925E-2   -1.132177642031916E-2    2.539726559798136E-2   -1.133119112149929E-2    9.746158249692241E-1    7.548196208861795E-3
 1.998047544652348E6     9.747354339932338E-1    7.351684221773822E-3    2.533654926095976E-2   -1.126204419971273E-2    2.534425795692859E-2   -1.127174467038037E-2    9.746522560290070E-1    7.456903871684347E-3
 2.013292372979546E6     9.747569242003200E-1    7.269173359239356E-3    2.528790734383034E-2   -1.120371170450285E-2    2.529203201025203E-2   -1.121111901499986E-2    9.747219299772928E-1    7.375890335209885E-3
 2.028653517252947E6     9.747968883038868E-1    7.168388869347364E-3    2.523552675937020E-2   -1.114536054747998E-2    2.524453442683944E-2   -1.115563494541333E-2    9.748018915986266E-1    7.289245538012776E-3
 2.044131864947255E6     9.748696977979159E-1    7.090841889786026E-3    2.518724521286178E-2   -1.108783316288049E-2    2.519129326522796E-2   -1.109589108390158E-2    9.748051453755222E-1    7.189084178089697E-3
 2.059728310308467E6     9.749128713917972E-1    7.009688159009726E-3    2.513326288369272E-2   -1.102929676670117E-2    2.514001862658232E-2   -1.103867664120506E-2    9.748927391402268E-1    7.111093569721349E-3
 2.075443754405562E6     9.749462105631400E-1    6.928129808371639E-3    2.508199372139703E-2   -1.096860902134190E-2    2.509096875515468E-2   -1.097789717100000E-2    9.749317412063520E-1    7.031256388851701E-3
 2.091279105182548E6     9.749932941736272E-1    6.834141211074484E-3    2.502959159325498E-2   -1.091496653354783E-2    2.504151662480170E-2   -1.092218996872820E-2    9.750050206316535E-1    6.952100675481890E-3
 2.107235277510921E6     9.750342024313727E-1    6.747509802790803E-3    2.498036545648454E-2   -1.085478152086233E-2    2.498732091522022E-2   -1.086118093994421E-2    9.750062201018617E-1    6.864289726669675E-3
 2.123313193242529E6     9.750698132185077E-1    6.659976225999952E-3    2.493044513326563E-2   -1.079507464638610E-2    2.493561890735838E-2   -1.080137856486815E-2    9.750440000904134E-1    6.782920649720726E-3
 2.139513781262815E6     9.750910569420321E-1    6.573128000270398E-3    2.487480050260956E-2   -1.073972034938198E-2    2.488553814406532E-2   -1.074364424076025E-2    9.751240358544480E-1    6.683053642474830E-3
 2.155837977544490E6     9.751877866849208E-1    6.483381187118356E-3    2.482386373115771E-2   -1.068077816517114E-2    2.483197089675394E-2   -1.068631461668257E-2    9.751489993623894E-1    6.607328554479978E-3
 2.172286725201612E6     9.752849762726179E-1    6.408738716040661E-3    2.477453265674761E-2   -1.062512695845435E-2    2.478175981215469E-2   -1.062608725706286E-2    9.751549312243000E-1    6.530884168005538E-3
 2.188860974544063E6     9.753285328788646E-1    6.315894949132805E-3    2.472295499113465E-2   -1.056533512538627E-2    2.473146389388442E-2   -1.056802538005872E-2    9.752375821102551E-1    6.435870380811727E-3
 2.205561683132472E6     9.753833673384729E-1    6.240923809127846E-3    2.467675018938829E-2   -1.050647705499115E-2    2.467910168005067E-2   -1.050890501907029E-2    9.753088995276284E-1    6.343302220335066E-3
 2.222389815833514E6     9.754414009598010E-1    6.148944473526334E-3    2.462111562084716E-2   -1.045165302851452E-2    2.462985481231982E-2   -1.045139252704333E-2    9.753666310038789E-1    6.269896331640540E-3
 2.239346344875663E6     9.754689686560446E-1    6.061079689824503E-3    2.456919468321232E-2   -1.039001753699289E-2    2.457904244971618E-2   -1.039242623218815E-2    9.753717146690966E-1    6.161736461763357E-3
 2.256432249905369E6     9.755279570182592E-1    5.977689096796970E-3    2.452084841022310E-2   -1.033494208002939E-2    2.452585242130368E-2   -1.032900609897145E-2    9.754769082106511E-1    6.064073226849933E-3
 2.273648518043640E6     9.755800886820496E-1    5.872640721633189E-3    2.446895570226413E-2   -1.027326568750643E-2    2.447489906849761E-2   -1.027080542563781E-2    9.755323356464179E-1    5.986696033569446E-3
 2.290996143943099E6     9.755890212609145E-1    5.797269041773414E-3    2.441895234650467E-2   -1.021967907315622E-2    2.442621316239880E-2   -1.021252991600552E-2    9.755399043566820E-1    5.895770003273885E-3
 2.308476129845417E6     9.756648287496797E-1    5.712492250970516E-3    2.436934683538398E-2   -1.015642035073355E-2    2.437677803944165E-2   -1.014927760996131E-2    9.755970475121650E-1    5.796727561167576E-3
 2.326089485639235E6     9.756587760234432E-1    5.632103796699738E-3    2.431663335044916E-2   -1.009517541161462E-2    2.432795335306598E-2   -1.008923965021694E-2    9.756380029979828E-1    5.711960142489869E-3
 2.343837228918507E6     9.757476986522197E-1    5.565133041753411E-3    2.426640393812259E-2   -1.003680019091376E-2    2.427678838191721E-2   -1.003012428028191E-2    9.756885262727895E-1    5.642409363624550E-3
 2.361720385041283E6     9.757771963010518E-1    5.438655564954431E-3    2.421789769160883E-2   -9.976843591786379E-3    2.423280382740554E-2   -9.968750301018757E-3    9.757305823545271E-1    5.548519741239822E-3
 2.379739987188969E6     9.758442367452500E-1    5.366754764871607E-3    2.417017433004957E-2   -9.918649234655108E-3    2.418336197312894E-2   -9.911097930274899E-3    9.757610911444736E-1    5.467239171526321E-3
 2.397897076425990E6     9.758891307120346E-1    5.232508482554621E-3    2.412029613471375E-2   -9.861003105548230E-3    2.413695444886147E-2   -9.849807908700794E-3    9.758090773737081E-1    5.372487013919590E-3
 2.416192701759947E6     9.759347734946646E-1    5.142672220017869E-3    2.406967825161407E-2   -9.794691931774874E-3    2.408960339029222E-2   -9.788732053139130E-3    9.758862758728463E-1    5.284384093623556E-3
 2.434627920202243E6     9.759907632780497E-1    5.030764636431775E-3    2.402060516539167E-2   -9.737758517851428E-3    2.404485378167613E-2   -9.727812141303386E-3    9.759120633239114E-1    5.156541082932756E-3
 2.453203796829114E6     9.760667320676718E-1    4.924717643881979E-3    2.397448436097543E-2   -9.678158768800666E-3    2.399546141929076E-2   -9.671681382845215E-3    9.759501519903711E-1    5.077156564452570E-3
 2.471921404843189E6     9.761309933566028E-1    4.838524177663101E-3    2.392774206422294E-2   -9.619981166156080E-3    2.394968685305066E-2   -9.611821901405882E-3    9.760011581938447E-1    4.993474138376902E-3
 2.490781825635486E6     9.761481197261904E-1    4.764441916302109E-3    2.387913443450001E-2   -9.553902665095964E-3    2.390337761463512E-2   -9.554223866160479E-3    9.760518400221616E-1    4.936065391902577E-3
 2.509786148847881E6     9.762620697565582E-1    4.298324990891732E-3    2.397825210892702E-2   -9.381132777745571E-3    2.385926900350073E-2   -9.695187735168684E-3    9.763546053311988E-1    5.197233703081894E-3
 2.528935472436085E6     9.763409103534675E-1    4.517378583205563E-3    2.394239853301706E-2   -9.284093443838914E-3    2.381322720411884E-2   -9.631509781652493E-3    9.763723985150475E-1    5.109392045645683E-3
 2.548230902733043E6     9.764180651034629E-1    4.495330160387864E-3    2.389978520382785E-2   -9.225152174200727E-3    2.376475398037462E-2   -9.578865847297127E-3    9.764117656904990E-1    4.959917360776660E-3
 2.567673554512876E6     9.764366249106491E-1    4.145754428264680E-3    2.385579074277336E-2   -9.164225594202992E-3    2.372432003377216E-2   -9.517443296160428E-3    9.764011427964280E-1    4.917458454567326E-3
 2.587264551055275E6     9.764465059065693E-1    3.993871367986412E-3    2.380621757478663E-2   -9.109736889878678E-3    2.368430910643688E-2   -9.450931899799423E-3    9.764849135840615E-1    4.705073187176010E-3
 2.607005024210399E6     9.764776479052731E-1    3.963140174267348E-3    2.375976719687574E-2   -9.051064456943385E-3    2.363789090121364E-2   -9.382184124321402E-3    9.765272641895899E-1    4.675928510074388E-3
 2.626896114464281E6     9.765440161765528E-1    3.860135457973329E-3    2.371738894003702E-2   -8.990938407775149E-3    2.360654375328144E-2   -9.315735463804119E-3    9.765817309428482E-1    4.652025484175613E-3
 2.646938971004693E6     9.765658522320121E-1    3.737339273817209E-3    2.367045948558826E-2   -8.925380325000455E-3    2.356176368392417E-2   -9.259239953609636E-3    9.765911808310139E-1    4.435686632464786E-3
 2.667134751787555E6     9.765940502026846E-1    3.552618627489289E-3    2.361639305508658E-2   -8.880938875708578E-3    2.352146757479369E-2   -9.195895481208253E-3    9.766542080437903E-1    4.430119228216943E-3
 2.687484623603833E6     9.766616048263648E-1    3.509997928138760E-3    2.358510602156388E-2   -8.815799842824086E-3    2.347532036691895E-2   -9.134499567524547E-3    9.767006690631044E-1    4.307631528348543E-3
 2.707989762146940E6     9.767271040469747E-1    3.425658793562435E-3    2.353713660526669E-2   -8.757707541660911E-3    2.343868237011392E-2   -9.070083760094872E-3    9.767305861675559E-1    4.109984850260598E-3
 2.728651352080688E6     9.767286516136283E-1    3.455078807197657E-3    2.348907970285877E-2   -8.696959127921835E-3    2.339768172309777E-2   -9.004631826914944E-3    9.768079212776937E-1    4.185412391726582E-3
 2.749470587107692E6     9.767386268818943E-1    3.106623661946048E-3    2.344330732462606E-2   -8.644793879365519E-3    2.335724458519911E-2   -8.944666129552135E-3    9.768257202880227E-1    3.895901655579676E-3
 2.770448670038360E6     9.768145067186794E-1    3.114397288240572E-3    2.340053519042930E-2   -8.586771336363097E-3    2.331096996963986E-2   -8.886244455332704E-3    9.768404313402771E-1    3.854425273782383E-3
 2.791586812860380E6     9.769238510468902E-1    3.179825463092637E-3    2.335217334635736E-2   -8.526383868993299E-3    2.326825127562305E-2   -8.825340039648908E-3    9.768930418842481E-1    3.704920220892187E-3
 2.812886236808732E6     9.769728755502227E-1    3.068870804941188E-3    2.331577324430825E-2   -8.466140809680263E-3    2.322410141897433E-2   -8.768261736867771E-3    9.769070316860194E-1    3.580012288360894E-3
 2.834348172436268E6     9.769351830222535E-1    2.955771629083814E-3    2.326569632937861E-2   -8.403137785057906E-3    2.318628195776962E-2   -8.701994283762322E-3    9.770190767487358E-1    3.564912383340641E-3
 2.855973859684773E6     9.769939158121274E-1    2.886300958093556E-3    2.322028660134969E-2   -8.350318339185909E-3    2.314106474119402E-2   -8.644740984523003E-3    9.770235604272313E-1    3.417629483698366E-3
 2.877764547956619E6     9.770439799568076E-1    2.817280724609451E-3    2.318411188432405E-2   -8.285520986918316E-3    2.309905124155558E-2   -8.582136570130169E-3    9.770813763418361E-1    3.289058987694512E-3
 2.899721496186967E6     9.771040935576575E-1    2.777940851649515E-3    2.313022456288146E-2   -8.235579936597039E-3    2.305971704323110E-2   -8.518869402549098E-3    9.771391634601858E-1    3.308671810607000E-3
 2.921845972916440E6     9.771334933721758E-1    2.548282650620452E-3    2.308835068658151E-2   -8.181129511857290E-3    2.301395088868423E-2   -8.462638342362161E-3    9.771193947633278E-1    3.142495623454873E-3
 2.944139256364495E6     9.772088282236910E-1    2.573196627992319E-3    2.304574247607574E-2   -8.120216720213990E-3    2.297600777000213E-2   -8.391377174982461E-3    9.772473025259201E-1    3.158900523485820E-3
 2.966602634503201E6     9.771965874030334E-1    2.325096487754395E-3    2.299946226477903E-2   -8.065343946986674E-3    2.293095050571952E-2   -8.336908843976570E-3    9.773166423136364E-1    3.125058616181029E-3
 2.989237405131679E6     9.772393433450687E-1    2.317395880043689E-3    2.295390860508259E-2   -8.004765800861192E-3    2.289301461319621E-2   -8.268474092392663E-3    9.773796536002848E-1    3.186288499654169E-3
 3.012044875951098E6     9.772513298068493E-1    2.596407107679098E-3    2.292678822528688E-2   -7.985594494113915E-3    2.287840455153138E-2   -8.121772242812738E-3    9.774158321815094E-1    2.936760127455103E-3
 3.035026364640187E6     9.773605425830363E-1    2.316263482389579E-3    2.288627294307905E-2   -7.930082169600786E-3    2.283915988622132E-2   -8.060453998755214E-3    9.774107963691411E-1    2.779687411783679E-3
 3.058183198931389E6     9.773469562577222E-1    2.087226749312613E-3    2.284045668743720E-2   -7.875526615035053E-3    2.279532456969767E-2   -8.002798356327010E-3    9.774915621522440E-1    2.758121125519673E-3
 3.081516716687564E6     9.773101873095587E-1    1.942151338142030E-3    2.279577953694415E-2   -7.812038639694481E-3    2.275842079172252E-2   -7.942021628400599E-3    9.775487545543293E-1    2.708969715326126E-3
 3.105028265979277E6     9.774469582386808E-1    2.068067664257101E-3    2.275402670812633E-2   -7.749216848487505E-3    2.271734940725405E-2   -7.884367168426217E-3    9.775702974538409E-1    2.417430934744672E-3
 3.128719205162701E6     9.774565918269038E-1    1.933328196238191E-3    2.271073548205495E-2   -7.697469435692351E-3    2.266982628780746E-2   -7.822136758025535E-3    9.776286663303512E-1    2.386104265018744E-3
 3.152590902958065E6     9.774351944892793E-1    1.514782035453559E-3    2.266787210706619E-2   -7.645935743050144E-3    2.263526488053140E-2   -7.764117819353348E-3    9.776571509525737E-1    2.290948540803351E-3
 3.176644738528751E6     9.774266022303623E-1    1.372122469922445E-3    2.262255618927212E-2   -7.577407490350777E-3    2.258934979241144E-2   -7.707187834629261E-3    9.776677005999079E-1    1.994169101022233E-3
 3.200882101560967E6     9.775292054020486E-1    1.425328084791989E-3    2.258818115809974E-2   -7.515627665818230E-3    2.254899496872270E-2   -7.646066067043354E-3    9.776996403155103E-1    1.977029447402767E-3
 3.225304392344028E6     9.775806885470957E-1    1.220314222143346E-3    2.254527840198174E-2   -7.462329751168797E-3    2.250808378562394E-2   -7.583996540735038E-3    9.777691970977627E-1    1.838346342167549E-3
 3.249913021851289E6     9.776473297681230E-1    1.261302562328767E-3    2.250552249069535E-2   -7.397137280185016E-3    2.247310523542886E-2   -7.525449919476962E-3    9.778337815508136E-1    1.836487081562436E-3
 3.274709411821612E6     9.776336065763177E-1    9.821032608530703E-4    2.246474230592697E-2   -7.338928765147272E-3    2.243289052325887E-2   -7.464791969124224E-3    9.778680436909520E-1    1.764214594615790E-3
 3.299694994841541E6     9.776763341781239E-1    9.471080123965083E-4    2.242759137215318E-2   -7.279781453319700E-3    2.239379629503686E-2   -7.404245705345328E-3    9.778597123174093E-1    1.534341359529445E-3
 3.324871214428060E6     9.777705727572136E-1    7.980810106242391E-4    2.238307807204956E-2   -7.206031254544405E-3    2.234100232709840E-2   -7.351560886690056E-3    9.779132284018970E-1    1.528501801505612E-3
 3.350239525111979E6     9.777834732076337E-1    6.364622189249024E-4    2.234355753268292E-2   -7.146959082983634E-3    2.230346224357114E-2   -7.301138554732495E-3    9.779359245781107E-1    1.370952218119820E-3
 3.375801392522001E6     9.778442683604615E-1    6.097287113920242E-4    2.230294290957984E-2   -7.093066895949198E-3    2.226104555124366E-2   -7.241880456959205E-3    9.780040539163105E-1    1.365248757645834E-3
 3.401558293469354E6     9.778358573635727E-1    3.558158699133622E-4    2.226638395350083E-2   -7.044342197576107E-3    2.223203660812827E-2   -7.169202534523853E-3    9.780236192088617E-1    1.117385296907490E-3
 3.427511716033138E6     9.778894210325773E-1    3.118929225954215E-4    2.222660694927638E-2   -6.986928921496483E-3    2.219158952971078E-2   -7.105318650383683E-3    9.780227822424696E-1    1.017459150694434E-3
 3.453663159646295E6     9.779324175619908E-1    1.375959171010963E-4    2.218630214066681E-2   -6.925625840409462E-3    2.215542615565357E-2   -7.044329328709202E-3    9.780663916681966E-1    9.022842695831744E-4
 3.480014135182226E6     9.779963709718236E-1    1.733385919849090E-4    2.214526461500178E-2   -6.870558365221786E-3    2.211808074851175E-2   -6.984643742788069E-3    9.781522886238557E-1    8.364248614971088E-4
 3.506566165042107E6     9.780238480354572E-1    1.571078259106117E-4    2.210362749059413E-2   -6.820647720292818E-3    2.209077178739460E-2   -6.914754605341464E-3    9.781266945408544E-1    5.529918338862660E-4
 3.533320783242811E6     9.780525612263020E-1    1.046382897284104E-4    2.206945825873159E-2   -6.749185658247487E-3    2.205036604528822E-2   -6.849480354506716E-3    9.782859783355583E-1    7.513393287995736E-4
 3.560279535505542E6     9.780596619105228E-1    4.982805574614243E-5    2.203434252335148E-2   -6.690182980998596E-3    2.200952005421574E-2   -6.796873672071866E-3    9.783031628763903E-1    5.546217704578175E-4
 3.587443979345170E6     9.781039710192615E-1   -2.485809095615213E-4    2.198597730180972E-2   -6.636985210200012E-3    2.197227334522182E-2   -6.731899313505236E-3    9.783154894304376E-1    4.485045168091611E-4
 3.614815684160168E6     9.781123834492408E-1   -4.540197261298961E-4    2.194554539192718E-2   -6.585623889156832E-3    2.193557789986484E-2   -6.671895224262829E-3    9.783936482076134E-1    3.279519866418514E-4
 3.642396231323309E6     9.782239154311041E-1   -4.532704987931538E-4    2.191808420785050E-2   -6.515509966799855E-3    2.189423175838769E-2   -6.619244877328010E-3    9.783973303717677E-1    1.240771644709486E-4
 3.670187214273024E6     9.782943212107285E-1   -6.199342415308865E-4    2.185461615954285E-2   -6.407832774482174E-3    2.182014524183603E-2   -6.645045057949533E-3    9.783621251600731E-1    1.613738723551593E-4
 3.698190238605455E6     9.783166128046906E-1   -8.534760533302596E-4    2.181377802205781E-2   -6.346927003403340E-3    2.178361506590321E-2   -6.587369710124794E-3    9.783891526473407E-1   -3.608261006561041E-5
 3.726406922167240E6     9.783995796094880E-1   -8.813223028783519E-4    2.177887044186363E-2   -6.285364244365084E-3    2.174620834773200E-2   -6.526455879724363E-3    9.784731133986271E-1   -1.024972686828758E-4
 3.754838895148946E6     9.784190761842421E-1   -1.092850563926462E-3    2.173345227219574E-2   -6.227278853173356E-3    2.170901275591971E-2   -6.460646150395236E-3    9.784813198696631E-1   -2.897524539898536E-4
 3.783487800179276E6     9.784287087052274E-1   -1.207026168095415E-3    2.170430567039331E-2   -6.174135525471605E-3    2.167363278046579E-2   -6.368832406316867E-3    9.784409800522675E-1   -5.102718135769107E-4
 3.812355292419964E6     9.785268401613786E-1   -1.138133526206092E-3    2.167030077730444E-2   -6.113941854290861E-3    2.163225090590986E-2   -6.305072790447206E-3    9.785892806767645E-1   -5.817677244499890E-4
 3.841443039661395E6     9.785136535430227E-1   -1.331028794410142E-3    2.163175231541381E-2   -6.054392007589469E-3    2.159903404005704E-2   -6.243371325446545E-3    9.786646692815810E-1   -4.229484131644376E-4
 3.870752722418987E6     9.785460009741185E-1   -1.408834616924294E-3    2.158918220712400E-2   -5.997313592195464E-3    2.156119054321083E-2   -6.184553352825393E-3    9.786360100207809E-1   -6.127385297499278E-4
 3.900286034030236E6     9.785661206825444E-1   -1.460921199912202E-3    2.155503520117960E-2   -5.933643934193034E-3    2.152978421669801E-2   -6.121687653023968E-3    9.788110945792169E-1   -4.863548869398078E-4
 3.930044680752580E6     9.786062367019971E-1   -1.623497825902625E-3    2.151753594236832E-2   -5.869812140017712E-3    2.148920748758370E-2   -6.064614830800338E-3    9.787530507409562E-1   -7.676972257909214E-4
 3.960030381861967E6     9.786428753280375E-1   -1.777168556990239E-3    2.148318090083583E-2   -5.809186750886503E-3    2.145015256695902E-2   -6.001209483052507E-3    9.787859837427199E-1   -1.017074982059754E-3
 3.990244869752173E6     9.786525442594406E-1   -1.879881943091153E-3    2.144134338897731E-2   -5.754141316274840E-3    2.141129695225454E-2   -5.945465654344508E-3    9.788083021437139E-1   -1.125353153142749E-3
 4.020689890034929E6     9.786842758459319E-1   -1.945876044410078E-3    2.141404252592290E-2   -5.720900525206836E-3    2.139857230417382E-2   -5.831988343376986E-3    9.788069981569028E-1   -1.438376890001025E-3
 4.051367201640718E6     9.787297841310345E-1   -1.961469945606921E-3    2.137679910550816E-2   -5.662746955977975E-3    2.136141967727201E-2   -5.771322332324212E-3    9.787728421470639E-1   -1.630482489888218E-3
 4.082278576920427E6     9.787699671687615E-1   -2.166204240874014E-3    2.134483565886982E-2   -5.600269656420972E-3    2.132653322808540E-2   -5.710851704585118E-3    9.789160407454262E-1   -1.454312378199258E-3
 4.113425801747740E6     9.788113488457342E-1   -2.157466019374765E-3    2.130602339395699E-2   -5.534525372618889E-3    2.128749190388885E-2   -5.650903634541319E-3    9.789917224812353E-1   -1.547283446384537E-3
 4.144810675622302E6     9.787746575326323E-1   -2.251101857120125E-3    2.126754836665760E-2   -5.475083315730310E-3    2.126034124802998E-2   -5.582868371642304E-3    9.791519654319046E-1   -1.434305780455603E-3
 4.176435011773718E6     9.788214057069214E-1   -2.332822478478792E-3    2.123720905436598E-2   -5.409747707770259E-3    2.122366144086625E-2   -5.517722546812160E-3    9.792283924450654E-1   -1.376030352590296E-3
 4.208300637266261E6     9.788697786585759E-1   -2.571071527335713E-3    2.119177144815551E-2   -5.353836403783488E-3    2.118098866271063E-2   -5.461993986514480E-3    9.791938523266002E-1   -1.672797896679906E-3
 4.240409393104453E6     9.788919828930470E-1   -2.711251312353427E-3    2.115898396619011E-2   -5.292162828431108E-3    2.115205947618031E-2   -5.397694028465795E-3    9.791292286762209E-1   -1.977435566589372E-3
 4.272763134339464E6     9.789413078313657E-1   -2.736503744718457E-3    2.112675576468559E-2   -5.229076174646419E-3    2.111673345304217E-2   -5.336059169327545E-3    9.792537816267629E-1   -1.962066337679795E-3
 4.305363730176185E6     9.789696548974541E-1   -2.854065462116420E-3    2.109083743994192E-2   -5.171602822940338E-3    2.107572564463431E-2   -5.272064194472974E-3    9.792176733259050E-1   -2.096320522282400E-3
 4.338213064081349E6     9.790366444600226E-1   -3.059393194534550E-3    2.105113894264336E-2   -5.098881918944154E-3    2.103798545023158E-2   -5.222969656530314E-3    9.793023639406446E-1   -2.117799686956873E-3
 4.371313033892244E6     9.790594070051596E-1   -3.285077693445316E-3    2.101376615677416E-2   -5.039883917131352E-3    2.099929474858243E-2   -5.159787565980027E-3    9.793351645206638E-1   -2.192802085285486E-3
 4.404665551926396E6     9.790816865483568E-1   -3.334117850044008E-3    2.097775051919496E-2   -4.975235017385568E-3    2.096504886050893E-2   -5.102950448882006E-3    9.793429443620908E-1   -2.412880150689186E-3
 4.438272545092077E6     9.791275339686730E-1   -3.476382874366714E-3    2.094646812764399E-2   -4.911921770687351E-3    2.092317135191804E-2   -5.038185681303733E-3    9.794270322297586E-1   -2.490063605145270E-3
 4.472135954999580E6     9.791915759432473E-1   -3.559497352846479E-3    2.090819919737017E-2   -4.850928986620738E-3    2.089783254218705E-2   -4.973213586813951E-3    9.793850485501249E-1   -2.723296843211132E-3
 4.506257738073424E6     9.792398931196884E-1   -3.618408711626663E-3    2.087863101586585E-2   -4.784895212026657E-3    2.085739265309887E-2   -4.914495714770550E-3    9.794373614765360E-1   -2.773138639657291E-3
 4.540639865665382E6     9.792199489197163E-1   -3.737306652269333E-3    2.084258260649406E-2   -4.732636719415498E-3    2.083435917200139E-2   -4.834145386225693E-3    9.794587121134104E-1   -3.116392056293495E-3
 4.575284324168356E6     9.792916740666011E-1   -3.883280147213825E-3    2.081310168058229E-2   -4.669104462098331E-3    2.080343538135922E-2   -4.769748031041442E-3    9.795757906539946E-1   -3.024086100691916E-3
 4.610193115131186E6     9.793376018982142E-1   -4.104644679538793E-3    2.076475183049561E-2   -4.581522579374079E-3    2.074843583160073E-2   -4.757118009122803E-3    9.795756755012178E-1   -2.948672301210932E-3
 4.645368255374223E6     9.793368304441868E-1   -4.237541222719082E-3    2.073112158005657E-2   -4.520995879474087E-3    2.070826741130125E-2   -4.694344569167616E-3    9.795550074312289E-1   -3.154780083251769E-3
 4.680811777105891E6     9.793534630316096E-1   -4.422723674025264E-3    2.069940904743744E-2   -4.451501201698592E-3    2.068120692645324E-2   -4.630075423497555E-3    9.795738222901216E-1   -3.256733220511148E-3
 4.716525728040087E6     9.794065341740789E-1   -4.597193524586414E-3    2.066318104203458E-2   -4.395753719672565E-3    2.064225345014319E-2   -4.563289692521082E-3    9.796256779668752E-1   -3.281657065048801E-3
 4.752512171514469E6     9.794713790831576E-1   -4.743456988742077E-3    2.062762036826377E-2   -4.332285382871082E-3    2.061252811185128E-2   -4.502615991275781E-3    9.797051740754780E-1   -3.282159787528907E-3
 4.788773186609713E6     9.794950994810333E-1   -4.833352641244920E-3    2.059614685855680E-2   -4.274889763274465E-3    2.058046840623481E-2   -4.440906473982997E-3    9.796894031267813E-1   -3.634286780330437E-3
 4.825310868269563E6     9.795575781077390E-1   -5.044840492099851E-3    2.055459964642698E-2   -4.198204012171507E-3    2.054159337821213E-2   -4.415181496101747E-3    9.796439660574771E-1   -3.829183075889389E-3
 4.862127327421905E6     9.795716705175634E-1   -5.213952962829932E-3    2.052120018357617E-2   -4.130639461079506E-3    2.051105382053002E-2   -4.349094084841437E-3    9.797659638382826E-1   -3.709952229525895E-3
 4.899224691100715E6     9.795886988729751E-1   -5.339731477710228E-3    2.048724251362243E-2   -4.061839743034013E-3    2.047688976333374E-2   -4.285352457509346E-3    9.797742582316561E-1   -3.943608569013085E-3
 4.936605102568937E6     9.796125647266788E-1   -5.478758650607659E-3    2.045416937276414E-2   -4.004211520672322E-3    2.044757437180013E-2   -4.211991711339934E-3    9.798470600895725E-1   -3.761682227701145E-3
 4.974270721442348E6     9.796406728496183E-1   -5.564692524014144E-3    2.042056478891544E-2   -3.938235909880182E-3    2.041346455458526E-2   -4.152183269445886E-3    9.798035362324887E-1   -4.217619509650574E-3
 5.012223723814265E6     9.796929682756684E-1   -5.755593060855061E-3    2.039037491503160E-2   -3.865036856561773E-3    2.037871528542354E-2   -4.091394151681049E-3    9.798263915532370E-1   -4.314760908078108E-3
 5.050466302381308E6     9.797342932386907E-1   -5.871236966085132E-3    2.035873962628921E-2   -3.800720484587176E-3    2.034801718976054E-2   -4.027024343312255E-3    9.798739686302068E-1   -4.460693188885765E-3
 5.089000666570071E6     9.797226104522014E-1   -6.016854329981156E-3    2.032437505013879E-2   -3.738330931562921E-3    2.031514316241747E-2   -3.959752380139769E-3    9.798591676875290E-1   -4.585190910256632E-3
 5.127829042664761E6     9.797873021916910E-1   -6.149672965513319E-3    2.029686332530144E-2   -3.674418438808913E-3    2.028412021409648E-2   -3.894976459313677E-3    9.798822951008246E-1   -4.828428021880168E-3
 5.166953673935857E6     9.798071214796371E-1   -6.268613198671225E-3    2.026302489386466E-2   -3.605165967318747E-3    2.024933784265071E-2   -3.828956061081222E-3    9.799088306928990E-1   -4.920176068448277E-3
 5.206376820769652E6     9.798449405399952E-1   -6.370072920472752E-3    2.023086643224433E-2   -3.546790789187090E-3    2.021649419953567E-2   -3.770403319645481E-3    9.798957140115044E-1   -5.380306113068279E-3
 5.246100760798878E6     9.799098174827151E-1   -6.514940793374704E-3    2.019629979304210E-2   -3.487621417045046E-3    2.018336378751841E-2   -3.714078120321914E-3    9.798995567038594E-1   -5.528185520070289E-3
 5.286127789034322E6     9.799593510084132E-1   -6.685844944664766E-3    2.016451990415023E-2   -3.414394652702117E-3    2.015251947591776E-2   -3.650544233951722E-3    9.799295096722715E-1   -5.561215653579460E-3
 5.326460217997355E6     9.799218745783149E-1   -6.497381752193433E-3    2.015221093258818E-2   -3.414224393850833E-3    2.016155994419353E-2   -3.457903437565567E-3    9.802116708758801E-1   -5.339264435109656E-3
 5.367100377853584E6     9.799726934809181E-1   -6.680388800314250E-3    2.012248532987600E-2   -3.345039574779741E-3    2.012929627641680E-2   -3.396572972617672E-3    9.801500307125461E-1   -5.800466247164397E-3
 5.408050616547454E6     9.800014661599895E-1   -6.780683507639617E-3    2.009387293977883E-2   -3.277845269115646E-3    2.009427151036243E-2   -3.330265829518318E-3    9.802238593475758E-1   -5.670267217401366E-3
 5.449313299937895E6     9.800381968510743E-1   -6.949385408939033E-3    2.006561675881324E-2   -3.204847499747426E-3    2.006515323851440E-2   -3.260731750705762E-3    9.802046339503450E-1   -5.841485480868562E-3
 5.490890811935049E6     9.800641181992512E-1   -7.381055732331352E-3    2.001221369033917E-2   -3.083637580435810E-3    1.999675993459818E-2   -3.314218558855501E-3    9.800925091518332E-1   -6.226685979068343E-3
 5.532785554637930E6     9.800531148683261E-1   -7.537476539863998E-3    1.997659915538143E-2   -3.016127706281946E-3    1.996684354486462E-2   -3.245641924977971E-3    9.800899214685591E-1   -6.222155006334799E-3
 5.574999948473252E6     9.800684069914279E-1   -7.452282326087940E-3    1.997127292210724E-2   -3.012514584518770E-3    1.996898407706345E-2   -3.064581536867463E-3    9.801880403458072E-1   -6.601533492133236E-3
 5.617536432335250E6     9.801150106180625E-1   -7.589026375660422E-3    1.993974458147290E-2   -2.942726425442133E-3    1.993783450106809E-2   -3.003166046212697E-3    9.801686404533023E-1   -6.925693751121962E-3
 5.660397463726575E6     9.801472593254366E-1   -7.727741525598122E-3    1.991148930327780E-2   -2.874433009065261E-3    1.990910265504315E-2   -2.929864320844039E-3    9.801818559863738E-1   -7.035154014182312E-3
 5.703585518900323E6     9.802784416061965E-1   -8.154015492477310E-3    1.985873156133768E-2   -2.750442704192953E-3    1.984650498261224E-2   -2.980073986325703E-3    9.802042767405639E-1   -6.972538847825248E-3
 5.747103093003022E6     9.803006257723264E-1   -8.285470242791576E-3    1.982765346717950E-2   -2.680189068324115E-3    1.981633337462002E-2   -2.915315158964775E-3    9.802585023424792E-1   -7.274564898970837E-3
 5.790952700218840E6     9.803021819787391E-1   -8.439933443001547E-3    1.979410316457782E-2   -2.619164474503199E-3    1.978723425791773E-2   -2.848661464319235E-3    9.802635731313614E-1   -7.444054836060176E-3
 5.835136873914825E6     9.802676306516110E-1   -8.314357682952488E-3    1.979362523437998E-2   -2.609741488181462E-3    1.979216013234586E-2   -2.655083788278884E-3    9.804026145068321E-1   -7.415590274000829E-3
 5.879658166787256E6     9.803058812458347E-1   -8.489631441721981E-3    1.976008549723234E-2   -2.539569354688578E-3    1.976244265707288E-2   -2.584387247585779E-3    9.803517133088804E-1   -7.586243151930007E-3
 5.924519151009166E6     9.803388408757171E-1   -8.620456171361637E-3    1.973080441418124E-2   -2.472536315830904E-3    1.973553425612417E-2   -2.509801300041144E-3    9.804480892851811E-1   -7.607365947667965E-3
 5.969722418378883E6     9.803264820206993E-1   -8.794973037612858E-3    1.970071244032797E-2   -2.407324712515044E-3    1.970339580068611E-2   -2.444789163206743E-3    9.804419308297417E-1   -8.011930074718497E-3
 6.015270580469812E6     9.803803483665561E-1   -8.937822228949273E-3    1.966996280067438E-2   -2.338463923013302E-3    1.967350548138969E-2   -2.379045813430308E-3    9.803717792573537E-1   -8.278262350301649E-3
 6.061166268781302E6     9.804035687531802E-1   -9.069063011829744E-3    1.964314848678270E-2   -2.268558549580736E-3    1.964461246859254E-2   -2.310369940753190E-3    9.804799637676590E-1   -8.476861897460679E-3
 6.107412134890671E6     9.803832281028276E-1   -9.256199399202634E-3    1.961455919700316E-2   -2.189511126465283E-3    1.960366929935668E-2   -2.251825410969266E-3    9.804704624103441E-1   -8.637738286966132E-3
 6.154010850606443E6     9.804808407161595E-1   -9.431069295591661E-3    1.958273557423157E-2   -2.120925067999250E-3    1.957699819028725E-2   -2.178309412538436E-3    9.804718922098388E-1   -8.721740875021722E-3
 6.200965108122637E6     9.804767927889545E-1   -9.570706412239664E-3    1.955863311232045E-2   -2.054892032852672E-3    1.954843260213607E-2   -2.107008401510592E-3    9.804735878723201E-1   -8.960829273356551E-3
 6.248277620174343E6     9.805033476083886E-1   -9.762026695522895E-3    1.952725743696591E-2   -1.984483967204076E-3    1.952040191316517E-2   -2.031820324643344E-3    9.805600071102978E-1   -9.039828996970476E-3
 6.295951120194497E6     9.805622879565250E-1   -9.893439041763114E-3    1.949950455915920E-2   -1.902811091325732E-3    1.948838283514460E-2   -1.963640756125129E-3    9.805825269527846E-1   -9.054461260521878E-3
 6.343988362471664E6     9.805438377514739E-1   -1.003375654327539E-2    1.946916642786306E-2   -1.848498138426975E-3    1.946891325998554E-2   -1.887052176513654E-3    9.805910828949130E-1   -9.290655524484766E-3
 6.392392122309345E6     9.806242163588224E-1   -1.020555930937944E-2    1.944585160064143E-2   -1.777879568750481E-3    1.944111892752740E-2   -1.816170198835103E-3    9.806177097978558E-1   -9.567376809845873E-3
 6.441165196186168E6     9.806083289932538E-1   -1.035527134900952E-2    1.941465435957836E-2   -1.708620283881708E-3    1.941240639189280E-2   -1.746471289779761E-3    9.806342742592734E-1   -9.831609850378132E-3
 6.490310401917514E6     9.806348736753843E-1   -1.051117014142049E-2    1.938935696495264E-2   -1.632325972137083E-3    1.938525594923809E-2   -1.671097593761909E-3    9.806393715915748E-1   -9.940486042633022E-3
 6.539830578818345E6     9.806473443501350E-1   -1.068303675151157E-2    1.935909677032514E-2   -1.567971435135485E-3    1.935953474138365E-2   -1.600225425131497E-3    9.807001484516368E-1   -1.005430326589581E-2
 6.589728587867169E6     9.806747205124851E-1   -1.083890540242835E-2    1.933033438148908E-2   -1.494755203060163E-3    1.932905906657987E-2   -1.529664381460124E-3    9.807570593823434E-1   -1.019010474647165E-2
 6.640007311871376E6     9.807554497246905E-1   -1.098762859392784E-2    1.930662640488208E-2   -1.417914253465082E-3    1.930223798515707E-2   -1.460142401491685E-3    9.807898514580581E-1   -1.051807632044303E-2
 6.690669655633785E6     9.807944368199187E-1   -1.117856219366402E-2    1.927840449025373E-2   -1.346229651125687E-3    1.927357674512191E-2   -1.384340110236972E-3    9.807951509070623E-1   -1.056365724467403E-2
 6.741718546120445E6     9.808048755469054E-1   -1.133831420186318E-2    1.925330140738230E-2   -1.266941528360005E-3    1.924796401437289E-2   -1.315132722288983E-3    9.808156797951137E-1   -1.081233009716532E-2
 6.793156932629797E6     9.808126079851142E-1   -1.151920920300901E-2    1.922637174145551E-2   -1.200582393663759E-3    1.921906327877943E-2   -1.241125810972092E-3    9.808480439408638E-1   -1.094413696868399E-2
 6.844987786962981E6     9.808128545651871E-1   -1.168410883014218E-2    1.920064529435158E-2   -1.129481211178344E-3    1.919289789946513E-2   -1.169149833765300E-3    9.808625780799749E-1   -1.111267694051107E-2
 6.897214103595586E6     9.808459196239493E-1   -1.191198887481390E-2    1.916395396822960E-2   -1.033238123055753E-3    1.914938812162482E-2   -1.124038608209874E-3    9.809052230143801E-1   -1.134642715980065E-2
 6.949838899850640E6     9.808521509484045E-1   -1.206064080969408E-2    1.914040248966538E-2   -9.559555896919941E-4    1.912244703648350E-2   -1.054050226478869E-3    9.809310002820421E-1   -1.160596981312936E-2
 7.002865216072913E6     9.808763791123607E-1   -1.237396703756949E-2    1.909631781645378E-2   -8.557755695097111E-4    1.908529183187264E-2   -1.044838448917659E-3    9.810091749099233E-1   -1.173573370832969E-2
 7.056296115804635E6     9.809268421587622E-1   -1.257226709335519E-2    1.906982013276661E-2   -7.807975877180988E-4    1.906094707743982E-2   -9.737787648058939E-4    9.810365909495055E-1   -1.190200658241738E-2
 7.110134685962399E6     9.809905126321473E-1   -1.273348746860081E-2    1.904298315010409E-2   -7.066628729288185E-4    1.903416736898630E-2   -8.994519077569409E-4    9.810587385286279E-1   -1.206402334963485E-2
 7.164384037015557E6     9.810311534356225E-1   -1.292980890130354E-2    1.901379356181081E-2   -6.310748571866746E-4    1.900808702172858E-2   -8.244036414202115E-4    9.810842196294619E-1   -1.225941440184473E-2
 7.219047303165923E6     9.810211082271560E-1   -1.310905645885103E-2    1.898894934181169E-2   -5.538805055864114E-4    1.898226441598896E-2   -7.498226615370296E-4    9.810806033069330E-1   -1.246783458675679E-2
 7.274127642528819E6     9.810519765139050E-1   -1.327028250371976E-2    1.896616568574243E-2   -4.769852589069632E-4    1.895751125118701E-2   -6.756487436217756E-4    9.811481979077061E-1   -1.261701918256325E-2
 7.329628237315600E6     9.811142912156388E-1   -1.353191792978004E-2    1.892850822539858E-2   -3.908428457408306E-4    1.893818235488177E-2   -6.433582597625145E-4    9.811937735573519E-1   -1.280269212802773E-2
 7.385552294017412E6     9.811129166593863E-1   -1.365327776603886E-2    1.889896579262155E-2   -3.144125338714664E-4    1.891463004335708E-2   -5.679081040560843E-4    9.812689928254525E-1   -1.296856754439819E-2
 7.441903043590503E6     9.811003071026515E-1   -1.364817173212968E-2    1.890632269546380E-2   -2.925040754555062E-4    1.889749774096948E-2   -3.633614417085234E-4    9.812594339159566E-1   -1.318477833808593E-2
 7.498683741642874E6     9.811310325690100E-1   -1.380602168007418E-2    1.887909447118002E-2   -2.130320482820268E-4    1.887224735056750E-2   -2.857567939160000E-4    9.812480082948175E-1   -1.337238133141642E-2
 7.555897668622349E6     9.811512548204746E-1   -1.412876222935075E-2    1.883099011813880E-2   -9.485393781573414E-5    1.883093073379055E-2   -2.975682987630179E-4    9.812728238493699E-1   -1.354633381266989E-2
 7.613548130006171E6     9.811588819651348E-1   -1.434288348509649E-2    1.880644374195847E-2   -1.370811003147988E-5    1.880784785785091E-2   -2.210748347156821E-4    9.813009021182131E-1   -1.372458067944763E-2
 7.671638456491867E6     9.812719202258043E-1   -1.464357411559789E-2    1.875422324352037E-2    8.660348692723409E-5    1.882038553672618E-2   -2.467183725348784E-4    9.813426157747419E-1   -1.387252629190652E-2
 7.730172004189732E6     9.812769440756309E-1   -1.483001778508844E-2    1.873201603675899E-2    1.642917736244647E-4    1.879735517781553E-2   -1.697788069718898E-4    9.813410705469544E-1   -1.406415338185943E-2
 7.789152154816771E6     9.813530383845729E-1   -1.502072063034433E-2    1.870708530981328E-2    2.431350400834492E-4    1.877365756546231E-2   -9.217664172028858E-5    9.813443143259041E-1   -1.423686860327185E-2
 7.848582315891974E6     9.812351295742442E-1   -1.506858189590448E-2    1.870565600637229E-2    3.001937610703221E-4    1.871203184760469E-2    9.002202941713739E-5    9.814564103833757E-1   -1.444383364698687E-2
 7.908465920933248E6     9.812385327023925E-1   -1.527184424178038E-2    1.868034027575883E-2    3.785501241025285E-4    1.868687420307228E-2    1.677757813385348E-4    9.814383205697974E-1   -1.464027614587735E-2
 7.968806429655775E6     9.813356623390161E-1   -1.546694435858364E-2    1.865898980479081E-2    4.574908605359619E-4    1.866368360151652E-2    2.476200785586918E-4    9.814691337244769E-1   -1.479832034030961E-2
 8.029607328171868E6     9.813638014407164E-1   -1.565019402574228E-2    1.863403873491496E-2    5.392333138795298E-4    1.864125220667908E-2    3.262009319737006E-4    9.815047148453090E-1   -1.500785031717994E-2
 8.090872129192449E6     9.813717204057225E-1   -1.582942812792843E-2    1.861018455239987E-2    6.174289235628065E-4    1.861764934896142E-2    4.067497304682819E-4    9.815150679333604E-1   -1.517987842316398E-2
 8.152604372229892E6     9.813488741633637E-1   -1.604496836858747E-2    1.858557768111081E-2    6.986191067988535E-4    1.859527191462476E-2    4.859863653633462E-4    9.815176327781744E-1   -1.540868340903893E-2
 8.214807623802581E6     9.814323768760760E-1   -1.626206228971203E-2    1.856235064663780E-2    7.761645690698086E-4    1.857345201139699E-2    5.642548465562294E-4    9.815365408602148E-1   -1.556003792874770E-2
 8.277485477640945E6     9.814317118662754E-1   -1.644163553335417E-2    1.853714753430961E-2    8.602607779319583E-4    1.854985621082330E-2    6.460359134799983E-4    9.815080562112930E-1   -1.575350691664368E-2
 8.340641554895067E6     9.814014825102050E-1   -1.662860310529163E-2    1.851629176788009E-2    9.402475095041332E-4    1.852583018069911E-2    7.234232252136399E-4    9.815439410307698E-1   -1.594892588657228E-2
 8.404279504343957E6     9.814426740429449E-1   -1.681606989437938E-2    1.849271572899092E-2    1.023724097366129E-3    1.850417269589679E-2    8.055115234165990E-4    9.815932196327328E-1   -1.614345609549549E-2
 8.468403002606256E6     9.814337302903627E-1   -1.702039027279909E-2    1.846759809070245E-2    1.104656453930269E-3    1.848301393119627E-2    8.870204481681706E-4    9.816098850399608E-1   -1.637535222592514E-2
 8.533015754352720E6     9.814522953630194E-1   -1.716909465488732E-2    1.845899447033211E-2    1.172832083825394E-3    1.845786088200218E-2    1.016184204454242E-3    9.816245539766234E-1   -1.657439555722067E-2
 8.598121492520234E6     9.814569637921590E-1   -1.735312868495429E-2    1.843350251377224E-2    1.256090884011553E-3    1.843531321854258E-2    1.099847943625113E-3    9.816790043761986E-1   -1.675456611717030E-2
 8.663723978527457E6     9.816541019432394E-1   -1.775521957554266E-2    1.837140080741618E-2    1.371403380076515E-3    1.846169130241273E-2    1.028797831048599E-3    9.816868544227170E-1   -1.693495217517444E-2
 8.729827002492212E6     9.816648132162463E-1   -1.794902371204593E-2    1.834822567300901E-2    1.454158920529903E-3    1.844258474019515E-2    1.109532816504156E-3    9.816419746287650E-1   -1.713656923177786E-2
 8.796434383450346E6     9.816709097472697E-1   -1.817556687030795E-2    1.832564155491015E-2    1.535908847673481E-3    1.842092375129843E-2    1.191618398309888E-3    9.817308593053259E-1   -1.735213593912038E-2
 8.863549969576446E6     9.816340882722250E-1   -1.831481866125069E-2    1.832026549561570E-2    1.612891510731428E-3    1.836148327755951E-2    1.339429718414911E-3    9.817060526067379E-1   -1.757053850518669E-2
 8.931177638406139E6     9.816942917695709E-1   -1.853520307346233E-2    1.829528649479389E-2    1.695906399971601E-3    1.834324177542818E-2    1.421337966905641E-3    9.817639301878374E-1   -1.775769096429430E-2
 8.999321297060097E6     9.816660999491506E-1   -1.874811325218076E-2    1.827664727458950E-2    1.782460019690612E-3    1.832296293930078E-2    1.507496592540637E-3    9.817789435586042E-1   -1.800605694885535E-2
 9.067984882469844E6     9.816963021859784E-1   -1.894352290953493E-2    1.825424643140997E-2    1.866971811942745E-3    1.830057380845850E-2    1.590064688943173E-3    9.817566304353488E-1   -1.816691076012937E-2
 9.137172361605095E6     9.816817519684318E-1   -1.916436173388968E-2    1.823300851699563E-2    1.951159516880345E-3    1.827997596351920E-2    1.673786392706599E-3    9.817635603278742E-1   -1.838197878886723E-2
 9.206887731702998E6     9.816920816559848E-1   -1.920370787597454E-2    1.824226389887293E-2    2.007106118317140E-3    1.824421774288922E-2    1.882676553963754E-3    9.818079149794586E-1   -1.862232890150329E-2
 9.277135020499127E6     9.817608049960939E-1   -1.943992912647095E-2    1.822261204848850E-2    2.091719288383659E-3    1.822491246417390E-2    1.967971813286643E-3    9.819147741831717E-1   -1.884875212086454E-2
 9.347918286460072E6     9.818194182191101E-1   -1.964078477458887E-2    1.820109056395169E-2    2.177471259876621E-3    1.820535176851077E-2    2.054082952422438E-3    9.819306442711092E-1   -1.904322698911058E-2
 9.419241619017981E6     9.818011816409172E-1   -1.988880330819261E-2    1.818051383803993E-2    2.265260571622837E-3    1.818385367527339E-2    2.142752750939733E-3    9.819802774381001E-1   -1.926788226040568E-2
 9.491109138806809E6     9.817493329289497E-1   -2.010145408796145E-2    1.815932520777918E-2    2.354346597978658E-3    1.816266991128578E-2    2.229853777984548E-3    9.819484968975302E-1   -1.947134992573404E-2
 9.563524997900363E6     9.817607758247524E-1   -2.033755554137487E-2    1.813887440568306E-2    2.441925161695530E-3    1.814083588899375E-2    2.317180957187626E-3    9.819375290669945E-1   -1.968626603031672E-2
 9.636493380052259E6     9.817642490892754E-1   -2.050342914014349E-2    1.811667786511367E-2    2.528579687024050E-3    1.812340120226632E-2    2.407628328366478E-3    9.819824914564362E-1   -1.992304619370046E-2
 9.710018500937525E6     9.818276058742196E-1   -2.074135524575918E-2    1.809577102002716E-2    2.617386100929116E-3    1.810151271191929E-2    2.494277043512980E-3    9.819715065625636E-1   -2.013656106351243E-2
 9.784104608396223E6     9.818417897447717E-1   -2.110489058574309E-2    1.805131857949157E-2    2.734059925060796E-3    1.808514735651973E-2    2.503978900866796E-3    9.819778411006749E-1   -2.031166431755286E-2
 9.858755982678859E6     9.818368590435231E-1   -2.133184161072459E-2    1.803113354967828E-2    2.819251968800784E-3    1.806605925647975E-2    2.592354866779173E-3    9.819701719875410E-1   -2.057419824497931E-2
 9.933976936693633E6     9.818663018875282E-1   -2.153636341268913E-2    1.800892302227801E-2    2.910515471925251E-3    1.804635546591200E-2    2.681475831548456E-3    9.819917797433170E-1   -2.075662966818232E-2
 1.000977181625571E7     9.819024011066949E-1   -2.180977274752459E-2    1.799212794590732E-2    3.000643966724547E-3    1.802910837552457E-2    2.771456430344900E-3    9.820462117464704E-1   -2.097315357971569E-2
 1.008614500033817E7     9.818926710000665E-1   -2.202617577974262E-2    1.796948302085774E-2    3.092613447273380E-3    1.800957579107433E-2    2.861182377033860E-3    9.820297110131065E-1   -2.121414384422817E-2
 1.016310090132507E7     9.819110593243522E-1   -2.223597356027495E-2    1.795051500031748E-2    3.182353854733558E-3    1.799088848909423E-2    2.952525671483591E-3    9.820357097274734E-1   -2.144804014730821E-2
 1.024064396526634E7     9.818960567241627E-1   -2.237447518392709E-2    1.795655039044220E-2    3.254737258254458E-3    1.796475850441947E-2    3.125055129499531E-3    9.820183165527391E-1   -2.171013641564574E-2
 1.031877867213467E7     9.819793961442699E-1   -2.261777619669289E-2    1.793397128093752E-2    3.347282422696216E-3    1.794690733351503E-2    3.217906808739266E-3    9.820390037665045E-1   -2.195103929531407E-2
 1.039750953608436E7     9.819674931688789E-1   -2.284665641688525E-2    1.791539804088901E-2    3.441887377750045E-3    1.792706509915132E-2    3.311070453920204E-3    9.820937417719151E-1   -2.217461536645846E-2
 1.047684110571204E7     9.819669627051734E-1   -2.306564062063843E-2    1.789704787781323E-2    3.534473535799076E-3    1.790722886776905E-2    3.404973978411249E-3    9.821173656897352E-1   -2.242710786365842E-2
 1.055677796431950E7     9.820322804686810E-1   -2.334346775503729E-2    1.787884029327609E-2    3.628279194981088E-3    1.788929666461232E-2    3.497048936363411E-3    9.821518871207749E-1   -2.265886674375247E-2
 1.063732473017859E7     9.821192955364152E-1   -2.378381811106680E-2    1.780381816745689E-2    3.755932966028086E-3    1.794581221209714E-2    3.401184586877667E-3    9.821179241827088E-1   -2.287925041709576E-2
 1.071848605679777E7     9.821438843943163E-1   -2.404618287803210E-2    1.778456680382368E-2    3.850076723177762E-3    1.793125853737207E-2    3.496313664315925E-3    9.821446751070706E-1   -2.310263039120404E-2
 1.080026663319129E7     9.820963052925747E-1   -2.419993748385794E-2    1.778422607941963E-2    3.942542854442941E-3    1.786694311692117E-2    3.654818099932179E-3    9.821848880035631E-1   -2.334238203201540E-2
 1.088267118414987E7     9.821415124368875E-1   -2.446066510198399E-2    1.776620309764948E-2    4.035071771302189E-3    1.785026296591178E-2    3.749262573638108E-3    9.821972009959871E-1   -2.357682586032628E-2
 1.096570447051370E7     9.822290821845181E-1   -2.478194439175281E-2    1.773064650077266E-2    4.136785908302974E-3    1.788199588075670E-2    3.780399825758176E-3    9.821858342547223E-1   -2.382238382922908E-2
 1.104937128944762E7     9.822164435630691E-1   -2.502861993927154E-2    1.771185892498216E-2    4.234400172102411E-3    1.786671094864021E-2    3.875307535156424E-3    9.822119885782087E-1   -2.407817537118853E-2
 1.113367647471805E7     9.822305998588311E-1   -2.526520107579000E-2    1.769425216758657E-2    4.330111216724625E-3    1.785024011734680E-2    3.972081774664409E-3    9.822098347910471E-1   -2.435255576304063E-2
 1.121862489697252E7     9.821460021647246E-1   -2.525040015693017E-2    1.775076149150202E-2    4.373252488104979E-3    1.776843788805969E-2    4.316776712368701E-3    9.822485074800923E-1   -2.463106879685422E-2
 1.130422146402085E7     9.821755760468822E-1   -2.546718907093023E-2    1.773730530889461E-2    4.475390259651409E-3    1.774876498838720E-2    4.413187055209712E-3    9.822305283012256E-1   -2.492019910117006E-2
 1.139047112111875E7     9.821840081493874E-1   -2.574394005528917E-2    1.771818959399562E-2    4.570456969687787E-3    1.773243613874660E-2    4.514890635202398E-3    9.822685320956248E-1   -2.513241863703232E-2
 1.147737885125368E7     9.822374229496486E-1   -2.598203190549830E-2    1.770374620794424E-2    4.671130307159300E-3    1.771413319938828E-2    4.612206246490573E-3    9.823175108213603E-1   -2.538104578771129E-2
 1.156494967543242E7     9.822646205872835E-1   -2.625857537996055E-2    1.768540657317932E-2    4.771712472445701E-3    1.769840629088320E-2    4.715030882438584E-3    9.822719228551126E-1   -2.566067506710020E-2
 1.165318865297152E7     9.822251701674517E-1   -2.655407330511689E-2    1.766191947630761E-2    4.880104474956675E-3    1.767541271711702E-2    4.803854470161936E-3    9.822845303869533E-1   -2.588765828785632E-2
 1.174210088178934E7     9.823476203832044E-1   -2.707751967731002E-2    1.757444108686683E-2    5.024398727347348E-3    1.774659153102853E-2    4.665590359206520E-3    9.822735911351789E-1   -2.607862071082058E-2
 1.183169149870061E7     9.823924711426767E-1   -2.736035062052785E-2    1.755686532816377E-2    5.124912589489714E-3    1.773479123154895E-2    4.764387977255379E-3    9.822992037024407E-1   -2.635022718031110E-2
 1.192196567971337E7     9.823900707202027E-1   -2.762396569306665E-2    1.753972085164449E-2    5.226753139141650E-3    1.772010028132507E-2    4.864981164565643E-3    9.823155465554508E-1   -2.659393846297623E-2
 1.201292864032780E7     9.823754663829602E-1   -2.788896149947897E-2    1.752320974009649E-2    5.326775887084441E-3    1.770769399497841E-2    4.967793467264761E-3    9.822892724649945E-1   -2.687678599000178E-2
 1.210458563583766E7     9.823862724235890E-1   -2.814296507035234E-2    1.750825839520984E-2    5.430884973527484E-3    1.769275642295453E-2    5.067680401953851E-3    9.823038057359961E-1   -2.716460178341095E-2
 1.219694196163385E7     9.823799046325871E-1   -2.842712649297847E-2    1.749241923736305E-2    5.532499950990195E-3    1.767864302324274E-2    5.169757709353341E-3    9.823031844351779E-1   -2.743254194611174E-2
 1.229000295351040E7     9.822885612129145E-1   -2.855372990437535E-2    1.752253460719003E-2    5.621839816375682E-3    1.756633053494525E-2    5.442348454679642E-3    9.823428239928920E-1   -2.771059050039163E-2
 1.238377398797275E7     9.822997006635102E-1   -2.884871300887858E-2    1.750862440824381E-2    5.728838042368676E-3    1.755073476688675E-2    5.547876513677257E-3    9.823735853104947E-1   -2.799498279718581E-2
 1.247826048254829E7     9.823052112088486E-1   -2.912652091419462E-2    1.749336466639866E-2    5.833245027104450E-3    1.753607849152426E-2    5.654370457007576E-3    9.823564825105808E-1   -2.824334745777700E-2
 1.257346789609938E7     9.823664830182256E-1   -2.921595480220421E-2    1.752030804783706E-2    5.902262236038192E-3    1.753572041741308E-2    5.856216536164604E-3    9.824028186439900E-1   -2.858811170736339E-2
 1.266940172913885E7     9.823541293417162E-1   -2.950367443747842E-2    1.750695852510583E-2    6.011251472666374E-3    1.752143003390323E-2    5.964561597452011E-3    9.823825687071529E-1   -2.887003532709530E-2
 1.276606752414753E7     9.823738495064007E-1   -2.979456012762751E-2    1.749274594947027E-2    6.115992232130986E-3    1.750730263084593E-2    6.070756298062464E-3    9.824175244073587E-1   -2.917255956803338E-2
 1.286347086589479E7     9.823919992747215E-1   -3.011588959688048E-2    1.747814694322884E-2    6.223854526604738E-3    1.749549743392322E-2    6.177469554397480E-3    9.823943191428247E-1   -2.944524988134088E-2
 1.296161738176090E7     9.824130466266279E-1   -3.038637118165649E-2    1.746367224927482E-2    6.334198915202920E-3    1.748151809883364E-2    6.287286611119373E-3    9.823787904622089E-1   -2.974688803543798E-2
 1.306051274206230E7     9.824154750239636E-1   -3.067349856571805E-2    1.745076494921547E-2    6.441989291826468E-3    1.746716650719169E-2    6.394800489246884E-3    9.823808593423689E-1   -3.003478891981178E-2
 1.316016266037924E7     9.824433642790650E-1   -3.095069771637905E-2    1.743760766421151E-2    6.549937651903977E-3    1.745420219362562E-2    6.505999190028146E-3    9.824401471431738E-1   -3.029035782242257E-2
 1.326057289388563E7     9.824052196810794E-1   -3.129270337240991E-2    1.740897632226080E-2    6.675824746446083E-3    1.743331148121870E-2    6.594858494117043E-3    9.824690584235848E-1   -3.057297050899911E-2
 1.336174924368203E7     9.824001004104624E-1   -3.160094361249949E-2    1.739727651330841E-2    6.785119233181615E-3    1.741882547389683E-2    6.707030562783944E-3    9.824288280641199E-1   -3.085089482280150E-2
 1.346369755513046E7     9.823954372804774E-1   -3.185608779499308E-2    1.739706785987069E-2    6.882464647616961E-3    1.741642998587715E-2    6.837472400265080E-3    9.824286328039051E-1   -3.115412322461345E-2
 1.356642371819227E7     9.824222799867901E-1   -3.213615756680989E-2    1.738266989809101E-2    6.996547486249931E-3    1.740336283429977E-2    6.949840279522054E-3    9.824436033159665E-1   -3.144547147046264E-2
 1.366993366776852E7     9.824763132499080E-1   -3.246549270514610E-2    1.737218065699870E-2    7.107243044779389E-3    1.739064170877324E-2    7.060954386061673E-3    9.824307740677457E-1   -3.177563386575637E-2
 1.377423338404255E7     9.824451696932861E-1   -3.273882463113032E-2    1.735849501084661E-2    7.222601902868518E-3    1.737866905614248E-2    7.176438995643653E-3    9.824523261401132E-1   -3.207277273913051E-2
 1.387932889282586E7     9.824397966919470E-1   -3.324032281426362E-2    1.728368570424544E-2    7.375961349020998E-3    1.738585272759108E-2    7.126147671168219E-3    9.824785836042425E-1   -3.232264555833225E-2
 1.398522626590596E7     9.825002533937474E-1   -3.368039381947529E-2    1.723882671258145E-2    7.490962373488099E-3    1.747824977586087E-2    7.128218291405615E-3    9.825150198544395E-1   -3.260197978133595E-2
 1.409193162139728E7     9.825255624097967E-1   -3.401059399125520E-2    1.722938242835937E-2    7.603249376443414E-3    1.746957454659745E-2    7.242748672456030E-3    9.825285067802302E-1   -3.290234432193798E-2
 1.419945112409473E7     9.824846504376558E-1   -3.423102426462901E-2    1.724762503517353E-2    7.719404392145036E-3    1.735666514891813E-2    7.467160921052859E-3    9.825554173815211E-1   -3.321121057358613E-2
 1.430779098582953E7     9.824816041365629E-1   -3.451439832525816E-2    1.723412185323169E-2    7.836885445370671E-3    1.734731506854122E-2    7.584369303793218E-3    9.825800715241152E-1   -3.352697803218727E-2
 1.441695746582855E7     9.824937022547344E-1   -3.486756165309618E-2    1.722409776206944E-2    7.953094906776936E-3    1.733650110588778E-2    7.701637256828617E-3    9.825737097980076E-1   -3.385156858462247E-2
 1.452695687107559E7     9.825071721476750E-1   -3.519085599143689E-2    1.721362061008073E-2    8.070960164361403E-3    1.732756399801228E-2    7.819213459257656E-3    9.825851917437786E-1   -3.414425450558627E-2
 1.463779555667585E7     9.825328122771928E-1   -3.548159493232769E-2    1.720161606694456E-2    8.188425703759362E-3    1.731759599880485E-2    7.935939886738123E-3    9.825766498082267E-1   -3.445699206973819E-2
 1.474947992622320E7     9.825167742519684E-1   -3.576863490014781E-2    1.719088690577995E-2    8.307315436875547E-3    1.730995869339531E-2    8.054636859900530E-3    9.825968264132513E-1   -3.475131331103479E-2
 1.486201643216998E7     9.825184742443075E-1   -3.605080506810536E-2    1.721274620707484E-2    8.418310430726014E-3    1.726154227823359E-2    8.274019004227749E-3    9.826113305645346E-1   -3.509978166252389E-2
 1.497541157619987E7     9.825066352062224E-1   -3.647061709524799E-2    1.717012216435939E-2    8.548779079097416E-3    1.729091750677614E-2    8.292864560188091E-3    9.825672733002174E-1   -3.543368833713822E-2
 1.508967190960350E7     9.824967551641509E-1   -3.681380962693228E-2    1.716022895360347E-2    8.669439094979506E-3    1.728303501163173E-2    8.414740792424781E-3    9.826207032669855E-1   -3.575259924502733E-2
 1.520480403365694E7     9.825191761100249E-1   -3.712498299030000E-2    1.714876344910396E-2    8.791681267826201E-3    1.727532120297874E-2    8.535622173274417E-3    9.826055350821536E-1   -3.604827921411943E-2
 1.532081460000315E7     9.824768636939868E-1   -3.747313741218973E-2    1.713935865382013E-2    8.913874848037706E-3    1.726507870382151E-2    8.659581996215027E-3    9.825840051747157E-1   -3.643037052451706E-2
 1.543771031103615E7     9.825359490069944E-1   -3.781168642143161E-2    1.712874486935338E-2    9.037984042376381E-3    1.725824106674178E-2    8.782170943782865E-3    9.826059187969703E-1   -3.675221341313648E-2
 1.555549792028828E7     9.824953496884840E-1   -3.815429475513100E-2    1.712106965913759E-2    9.163044614660658E-3    1.725050063435525E-2    8.905130040808583E-3    9.826190909365997E-1   -3.708174947145766E-2
 1.567418423282054E7     9.824675199719083E-1   -3.840386856299018E-2    1.714461254209839E-2    9.280868763861255E-3    1.720085871818908E-2    9.130027458420354E-3    9.826014765336367E-1   -3.745297242358027E-2
 1.579377610561541E7     9.825265755746171E-1   -3.874074676362829E-2    1.713447668498726E-2    9.404112784875459E-3    1.719413321271566E-2    9.257369528563925E-3    9.825936100317915E-1   -3.779821504108554E-2
 1.591428044797338E7     9.825154396913897E-1   -3.906839901952690E-2    1.712869351971147E-2    9.533463256772023E-3    1.718557634705946E-2    9.380552913999234E-3    9.825686937073430E-1   -3.815757104848560E-2
 1.603570422191187E7     9.824913482002925E-1   -3.946467503602427E-2    1.711784183019841E-2    9.656698432831989E-3    1.717849859938966E-2    9.507990906136406E-3    9.825617025784643E-1   -3.848857804782969E-2
 1.615805444256752E7     9.825295577964891E-1   -3.980433323278404E-2    1.711117712050030E-2    9.786645938747562E-3    1.717158984094619E-2    9.637338979252905E-3    9.825868308165823E-1   -3.880171024748917E-2
 1.628133817860163E7     9.824921000249339E-1   -4.013399766367547E-2    1.710177748700430E-2    9.916767734934873E-3    1.716436712361080E-2    9.765642594015071E-3    9.826089297736293E-1   -3.914921536999649E-2
 1.640556255260818E7     9.825036642454142E-1   -4.053150141119070E-2    1.708005995800933E-2    1.004930040482223E-2    1.717099662983629E-2    9.851735146275360E-3    9.825895368766080E-1   -3.951882542063082E-2
 1.653073474152580E7     9.824797528127309E-1   -4.091523461603034E-2    1.707312682329597E-2    1.017939926976972E-2    1.716549951768835E-2    9.984420637929946E-3    9.826320573981585E-1   -3.986562115984234E-2
 1.665686197705204E7     9.825272978086506E-1   -4.126630436679655E-2    1.706485822968527E-2    1.031161280982869E-2    1.716011494303463E-2    1.011495272525397E-2    9.826234341446000E-1   -4.021616656852665E-2
 1.678395154606132E7     9.825007204107087E-1   -4.162960957432267E-2    1.705854946627026E-2    1.044069760114268E-2    1.715447117823408E-2    1.024553901566885E-2    9.826021292168915E-1   -4.056236433502989E-2
 1.691201079102603E7     9.825134479136193E-1   -4.207400987626790E-2    1.703420735917072E-2    1.057643743724366E-2    1.718605241570709E-2    1.031461571045358E-2    9.826193389965671E-1   -4.095451521294315E-2
 1.704104711044038E7     9.825050560543123E-1   -4.244143874428050E-2    1.702698008080613E-2    1.070973359283179E-2    1.718212525763942E-2    1.044821405712751E-2    9.826229066298185E-1   -4.129258284037451E-2
 1.717106795924834E7     9.825014585009673E-1   -4.281401089562655E-2    1.702035475492651E-2    1.084642890493541E-2    1.717855893547331E-2    1.058189512609438E-2    9.826473454310209E-1   -4.165120632686007E-2
 1.730208084927390E7     9.825640794377285E-1   -4.325336255073400E-2    1.698482247526178E-2    1.097119734535437E-2    1.731724117957763E-2    1.060534003343362E-2    9.826142412421028E-1   -4.200809019749754E-2
 1.743409334965526E7     9.824777038973357E-1   -4.356109188758667E-2    1.701014324298409E-2    1.111499292897788E-2    1.717167096237199E-2    1.084849274904049E-2    9.825932519626787E-1   -4.239780266758808E-2
 1.756711308728221E7     9.824840339449220E-1   -4.397456471293222E-2    1.700504366415308E-2    1.125123129940038E-2    1.716793156707952E-2    1.098543181705365E-2    9.825677216763991E-1   -4.279734328261852E-2
 1.770114774723655E7     9.824804478893453E-1   -4.433846669717172E-2    1.700140743247388E-2    1.138948229527478E-2    1.716636392854617E-2    1.112367274271796E-2    9.826356756260400E-1   -4.313056740843291E-2
 1.783620507323623E7     9.824788723033610E-1   -4.455554485483566E-2    1.707103782148179E-2    1.150727256677463E-2    1.709911584061602E-2    1.145452318600708E-2    9.825995314855919E-1   -4.357826375904476E-2
 1.797229286808272E7     9.824483652302648E-1   -4.500407457142020E-2    1.704983654728379E-2    1.165653186159561E-2    1.709180239419988E-2    1.156615251416395E-2    9.826029406075170E-1   -4.391801493588500E-2
 1.810941899411174E7     9.824409645048039E-1   -4.533789572390129E-2    1.706394376836740E-2    1.178683520933908E-2    1.709190429292815E-2    1.173600138646676E-2    9.825989825982797E-1   -4.436207411098021E-2
 1.824759137364766E7     9.824780614746419E-1   -4.574934610938847E-2    1.706204753193272E-2    1.192779734379232E-2    1.708853849491732E-2    1.187571189299000E-2    9.825886318640781E-1   -4.476071692952659E-2
 1.838681798946100E7     9.824949346330734E-1   -4.613641544294925E-2    1.705693090660051E-2    1.206919399421771E-2    1.708383873504810E-2    1.201954681687460E-2    9.825494915388494E-1   -4.512582939040696E-2
 1.852710688522972E7     9.824590145189964E-1   -4.674824710457991E-2    1.695965929114189E-2    1.223032256894431E-2    1.720806433190746E-2    1.191293918474243E-2    9.825914754509965E-1   -4.547734016375886E-2
 1.866846616600409E7     9.824038634567556E-1   -4.710971723093806E-2    1.697126789231343E-2    1.237556200172288E-2    1.715422446882972E-2    1.210887606137817E-2    9.825752073048021E-1   -4.584535337624265E-2
 1.881090399867451E7     9.824529955407739E-1   -4.735969169729521E-2    1.703930867442411E-2    1.250778603100462E-2    1.707534464253508E-2    1.243955356419627E-2    9.825703366342687E-1   -4.630704850886019E-2
 1.895442861244394E7     9.823914675480110E-1   -4.777686700891229E-2    1.703708196390320E-2    1.265353309161164E-2    1.707424333046187E-2    1.258565440322209E-2    9.825496939928240E-1   -4.671743685413567E-2
 1.909904829930285E7     9.824011781521813E-1   -4.817615411299832E-2    1.703578385646270E-2    1.280125317207481E-2    1.707229224411207E-2    1.273180926638359E-2    9.825464138589810E-1   -4.711710366748272E-2
 1.924477141450845E7     9.823993467102173E-1   -4.861506504082567E-2    1.703495143599600E-2    1.294768817230958E-2    1.706959249843033E-2    1.287980877477435E-2    9.825370921897735E-1   -4.755342637507442E-2
 1.939160637706759E7     9.823916360500060E-1   -4.902228732755171E-2    1.703201480483803E-2    1.309618791351789E-2    1.706931244612517E-2    1.302698960428811E-2    9.824863111867871E-1   -4.797164212876295E-2
 1.953956167022271E7     9.823958863633774E-1   -4.946096251645010E-2    1.703195286072400E-2    1.324650952288402E-2    1.707048142225950E-2    1.317874192852562E-2    9.824942613832086E-1   -4.836849709315063E-2
 1.968864584194249E7     9.823625738126246E-1   -4.990488918608418E-2    1.701860822218691E-2    1.340234469612541E-2    1.707004918503398E-2    1.330877214750663E-2    9.824535342165532E-1   -4.879266450710778E-2
 1.983886750541528E7     9.823523846979758E-1   -5.050242647112947E-2    1.694240217292022E-2    1.355430922894224E-2    1.721557371946704E-2    1.323495388100467E-2    9.824572732825450E-1   -4.916680670515602E-2
 1.999023533954688E7     9.823468845893124E-1   -5.096013876494591E-2    1.694475384019515E-2    1.370503573224295E-2    1.722015346809343E-2    1.338557158202744E-2    9.824694824270229E-1   -4.959128671072718E-2
 2.014275808946211E7     9.823517492103512E-1   -5.137952861982410E-2    1.694266607166489E-2    1.385904981233411E-2    1.722395096989651E-2    1.353818492995849E-2    9.824604551415600E-1   -5.001248649379253E-2
 2.029644456700960E7     9.823577768586101E-1   -5.181931579737413E-2    1.694426866964132E-2    1.401226295227057E-2    1.722740847658185E-2    1.369094560679229E-2    9.824692027749876E-1   -5.043581284765226E-2
 2.045130365127147E7     9.823625994669399E-1   -5.223249779220602E-2    1.694367534158032E-2    1.416833198872039E-2    1.723101098501738E-2    1.384555685262400E-2    9.824570891850559E-1   -5.085902806987427E-2
 2.060734428907584E7     9.823411123475841E-1   -5.269440018563620E-2    1.694580783785082E-2    1.432284922440472E-2    1.723556206990034E-2    1.400068978804093E-2    9.824093634543121E-1   -5.128783560384716E-2
 2.076457549551392E7     9.822976091248623E-1   -5.315462172005070E-2    1.694609086524393E-2    1.447898800996598E-2    1.724063371949332E-2    1.415818943617269E-2    9.823909604956834E-1   -5.172824030558126E-2
 2.092300635446098E7     9.822845967950924E-1   -5.360424038852953E-2    1.694796120482440E-2    1.463667049914685E-2    1.724632668100459E-2    1.431413242522606E-2    9.824006677609481E-1   -5.216872119077771E-2
 2.108264601910070E7     9.822410204945169E-1   -5.408654951821972E-2    1.695006370303278E-2    1.479640529947689E-2    1.725138876204376E-2    1.447221400137439E-2    9.823785265791206E-1   -5.259254908149420E-2
 2.124350371245464E7     9.822578343043474E-1   -5.433546993471632E-2    1.705070477907174E-2    1.495410519021066E-2    1.708474420629136E-2    1.490152573595684E-2    9.823437344646337E-1   -5.313476804804273E-2
 2.140558872791451E7     9.822391973796807E-1   -5.476053016904826E-2    1.705354879764639E-2    1.511569236353462E-2    1.708874909797697E-2    1.506274792584980E-2    9.823384043385592E-1   -5.358106100835522E-2
 2.156891042977939E7     9.821765340387907E-1   -5.534421417078752E-2    1.699226218128427E-2    1.528930781077001E-2    1.713968407642794E-2    1.507869012428981E-2    9.823247334599963E-1   -5.398535304623828E-2
 2.173347825379676E7     9.821550245264844E-1   -5.584450608100836E-2    1.699585612144755E-2    1.545272863826136E-2    1.714635977102767E-2    1.524265211135839E-2    9.823458180639378E-1   -5.443394601198889E-2
 2.189930170770744E7     9.821022376067149E-1   -5.630731034951058E-2    1.699796323146373E-2    1.561722272447342E-2    1.715295280357769E-2    1.540501715427631E-2    9.823338654032386E-1   -5.491894079062164E-2
 2.206639037179505E7     9.820849598622344E-1   -5.678325095770344E-2    1.700321612758001E-2    1.578371865375647E-2    1.715646659203631E-2    1.556887824839821E-2    9.822555293636951E-1   -5.537641122372109E-2
 2.223475389943947E7     9.821373138946157E-1   -5.713655936014630E-2    1.707376298038175E-2    1.594206817959607E-2    1.711283139084484E-2    1.588717862161125E-2    9.822613951758582E-1   -5.588083762709581E-2
 2.240440201767448E7     9.821110969587450E-1   -5.761056188864450E-2    1.707874069159740E-2    1.610822885513391E-2    1.711648953699645E-2    1.605362036099270E-2    9.822190369270209E-1   -5.634153472844564E-2
 2.257534452774993E7     9.820813742029575E-1   -5.810647597284656E-2    1.708321269213709E-2    1.627794909244478E-2    1.712250328828353E-2    1.622374349104916E-2    9.821942880553155E-1   -5.682344359617030E-2
 2.274759130569773E7     9.820334360976397E-1   -5.862478459043114E-2    1.709130570087824E-2    1.644802673942794E-2    1.712916260417392E-2    1.639159813938392E-2    9.821631720456909E-1   -5.731329032865990E-2
 2.292115230290256E7     9.820317238778427E-1   -5.910957024798716E-2    1.709776762526284E-2    1.662009220090603E-2    1.713531468194948E-2    1.656552557676758E-2    9.821712130381446E-1   -5.779684769147882E-2
 2.309603754667697E7     9.819918844323864E-1   -5.961505006443851E-2    1.710573698809600E-2    1.679172659762306E-2    1.714246363512400E-2    1.673722869854649E-2    9.821652178799540E-1   -5.827907750578925E-2
 2.327225714084021E7     9.819576217357572E-1   -6.012151239048372E-2    1.711234771412455E-2    1.696570684087827E-2    1.714914254777029E-2    1.691049523298186E-2    9.821217680688574E-1   -5.876937507861953E-2
 2.344982126630262E7     9.819291861351253E-1   -6.073054462712454E-2    1.706590267656942E-2    1.714854316681418E-2    1.718607152507811E-2    1.697944633777558E-2    9.821468696855830E-1   -5.918704725392913E-2
 2.362874018165328E7     9.818580699953746E-1   -6.124845976804084E-2    1.707353209970717E-2    1.732466038072215E-2    1.719489986931845E-2    1.715493682599682E-2    9.820985520294467E-1   -5.970427893228810E-2
 2.380902422375290E7     9.818686521936171E-1   -6.182886067324763E-2    1.704476497745451E-2    1.749301837934867E-2    1.730673210425870E-2    1.720509568200049E-2    9.820917823334273E-1   -6.019720652316504E-2
 2.399068380833123E7     9.818329023274112E-1   -6.236333979425249E-2    1.705384620772630E-2    1.766837803737983E-2    1.731868494392395E-2    1.738123362491933E-2    9.820579635498207E-1   -6.070306657916369E-2
 2.417372943058824E7     9.818098338167005E-1   -6.278450737047453E-2    1.709610448021028E-2    1.785766831283925E-2    1.722312296513008E-2    1.768479136149553E-2    9.820513554010311E-1   -6.120887560680605E-2
 2.435817166580120E7     9.817733894899597E-1   -6.328224096040697E-2    1.710581101855928E-2    1.803693711176064E-2    1.723254978071802E-2    1.786515038831579E-2    9.820296869801068E-1   -6.171875466785347E-2
 2.454402116993507E7     9.817325143498954E-1   -6.390037896103154E-2    1.708025173605077E-2    1.820711780981609E-2    1.735242422919249E-2    1.791844358556796E-2    9.819908267584261E-1   -6.223262778962522E-2
 2.473128868025839E7     9.817121443713979E-1   -6.443707160362891E-2    1.708732883386913E-2    1.839055883843606E-2    1.736450567523118E-2    1.810010539323812E-2    9.819491265083566E-1   -6.275014798596654E-2
 2.491998501596375E7     9.816934038622187E-1   -6.494686956190843E-2    1.709620914802071E-2    1.857477010633585E-2    1.737576092344750E-2    1.828199348906174E-2    9.819268552001444E-1   -6.328023118639635E-2
 2.511012107879237E7     9.816782121068862E-1   -6.536109663729224E-2    1.719511203917775E-2    1.876672243619349E-2    1.723664315857171E-2    1.870526521446592E-2    9.818550762853686E-1   -6.384129262852792E-2
 2.530170785366461E7     9.816340700393816E-1   -6.588541047840507E-2    1.720346287523966E-2    1.895221258403168E-2    1.724548603605757E-2    1.889510027053611E-2    9.818435192701550E-1   -6.437968890436127E-2
 2.549475640931404E7     9.816204442332493E-1   -6.641546617705960E-2    1.721112931887243E-2    1.914381984999256E-2    1.725207282280276E-2    1.908439086769650E-2    9.817834748496248E-1   -6.493090303889150E-2
 2.568927789892715E7     9.815800390036793E-1   -6.698082901190050E-2    1.722074631171568E-2    1.933651345545280E-2    1.726254943750431E-2    1.927646577071353E-2    9.817676126757046E-1   -6.545836391517390E-2
 2.588528356078789E7     9.815257634815238E-1   -6.753906619464081E-2    1.720384190885778E-2    1.953905269754585E-2    1.727977241496237E-2    1.943200397291836E-2    9.817340958418066E-1   -6.599303297717279E-2
 2.608278471892660E7     9.815286384871553E-1   -6.807650399946504E-2    1.724488182539962E-2    1.973608427071352E-2    1.728787085229215E-2    1.967618215463057E-2    9.816916858513933E-1   -6.653394460889624E-2
 2.628179278377446E7     9.815074655491753E-1   -6.861856093199981E-2    1.726413576627192E-2    1.993578287919674E-2    1.730754166230531E-2    1.987706020610419E-2    9.816726076783618E-1   -6.708096513933152E-2
 2.648231925282269E7     9.814563502435074E-1   -6.926318236885884E-2    1.722827861019022E-2    2.013705853602714E-2    1.737162359522919E-2    1.995493942122838E-2    9.816618112934696E-1   -6.758612966660833E-2
 2.668437571128672E7     9.813888731950957E-1   -6.988313287459168E-2    1.724843065668565E-2    2.033117862351104E-2    1.739054260229661E-2    2.014930742010896E-2    9.816309390159934E-1   -6.814439989686805E-2
 2.688797383277575E7     9.813281594688027E-1   -7.043416693618917E-2    1.726582144190384E-2    2.052734892595924E-2    1.741123020783873E-2    2.034464856635316E-2    9.815797131679900E-1   -6.871712611535793E-2
 2.709312537996687E7     9.813042898948559E-1   -7.098647390104687E-2    1.731467519076700E-2    2.072633518955825E-2    1.739211591780539E-2    2.061919760171672E-2    9.815470515500568E-1   -6.930035953990120E-2
 2.729984220528475E7     9.812641369837973E-1   -7.154739272565751E-2    1.733252743861747E-2    2.092854653205508E-2    1.741290836659604E-2    2.081860886631598E-2    9.814894854216679E-1   -6.987333146109376E-2
 2.750813625158667E7     9.812706987218941E-1   -7.212693622767810E-2    1.735267805056817E-2    2.112943547551764E-2    1.743297300921643E-2    2.102016039768678E-2    9.814741144032105E-1   -7.044082460838019E-2
 2.771801955285188E7     9.811773518549611E-1   -7.289782586704829E-2    1.729971679020267E-2    2.130367072709543E-2    1.772296360971731E-2    2.095716046153934E-2    9.814376329197869E-1   -7.098776807775782E-2
 2.792950423487763E7     9.811182782163461E-1   -7.338535237577702E-2    1.734666381398138E-2    2.152603357685138E-2    1.755942310391314E-2    2.129044794358888E-2    9.814092444944502E-1   -7.155420526395426E-2
 2.814260251597910E7     9.811145463610993E-1   -7.402224605642915E-2    1.736641314419730E-2    2.173074987449046E-2    1.758067437366188E-2    2.149472732379172E-2    9.813678147375355E-1   -7.216049881415934E-2
 2.835732670769557E7     9.810824272479099E-1   -7.461836477443498E-2    1.738780793523381E-2    2.193639925400368E-2    1.760333611106048E-2    2.169965867901596E-2    9.813344205519769E-1   -7.272782242074967E-2
 2.857368921550186E7     9.810730871117133E-1   -7.511240397682287E-2    1.748303944635032E-2    2.215047543276218E-2    1.753018372247648E-2    2.208729669126782E-2    9.812586214615449E-1   -7.339319209343059E-2
 2.879170253952448E7     9.810291291589782E-1   -7.574144012727582E-2    1.750424625159396E-2    2.235991649485111E-2    1.755185955640926E-2    2.229430439850139E-2    9.812013431922085E-1   -7.398794791760230E-2
 2.901137927526460E7     9.809952070460360E-1   -7.634686192812973E-2    1.752759925538760E-2    2.257037955158473E-2    1.757528688848633E-2    2.250576819470370E-2    9.811684744452955E-1   -7.458811812036253E-2
 2.923273211432508E7     9.809339740406424E-1   -7.697283955410604E-2    1.754786217918828E-2    2.278212239316140E-2    1.759711613615123E-2    2.271773942453855E-2    9.811207527627047E-1   -7.521810857977301E-2
 2.945577384514398E7     9.808734434316922E-1   -7.761824643152007E-2    1.757232445127483E-2    2.299455693236994E-2    1.761935923667666E-2    2.293024228349536E-2    9.810845468102621E-1   -7.580910637891000E-2
 2.968051735373363E7     9.808544035568134E-1   -7.824901806207256E-2    1.759589022064474E-2    2.321002214553248E-2    1.764415570018476E-2    2.314521194354179E-2    9.810177566058653E-1   -7.645140747040485E-2
 2.990697562442441E7     9.807470934949541E-1   -7.896790025228516E-2    1.757427445899009E-2    2.342830231305036E-2    1.769500119176752E-2    2.327744505798996E-2    9.809950828467974E-1   -7.702596414031306E-2
 3.013516174061584E7     9.807031175028441E-1   -7.955480060941177E-2    1.761533268790567E-2    2.364752717807324E-2    1.770318748663892E-2    2.353171651318138E-2    9.809574791545237E-1   -7.766450733874809E-2
 3.036508888553168E7     9.806256954383095E-1   -8.025000730653774E-2    1.762438203810606E-2    2.386559555830409E-2    1.774765676215533E-2    2.371337580097096E-2    9.809003558297370E-1   -7.829744077548990E-2
 3.059677034298190E7     9.805988041406255E-1   -8.088562476955329E-2    1.765312333584341E-2    2.408558441428692E-2    1.777425834980680E-2    2.393335364973324E-2    9.808502405899446E-1   -7.895017380882764E-2
 3.083021949813037E7     9.805224380659073E-1   -8.179420733555791E-2    1.762318906732410E-2    2.425886552280205E-2    1.828965695316149E-2    2.387183035697397E-2    9.807862831824971E-1   -7.955906071865845E-2
 3.106544983826748E7     9.804721564618630E-1   -8.244059925725912E-2    1.765146511232252E-2    2.448339061881998E-2    1.832439019524860E-2    2.409198994193639E-2    9.807482323013467E-1   -8.017374598990663E-2
 3.130247495359022E7     9.804749208457443E-1   -8.283686429020118E-2    1.777758606293968E-2    2.475696713991121E-2    1.782660577046115E-2    2.468936911967008E-2    9.806617385457066E-1   -8.089759287358422E-2
 3.154130853798668E7     9.804008796389492E-1   -8.351766599012700E-2    1.780474168408059E-2    2.498393829122228E-2    1.785688914609098E-2    2.491686290307065E-2    9.806209801471765E-1   -8.155391589551683E-2
 3.178196438982744E7     9.803354286894268E-1   -8.421408280719937E-2    1.783481275326679E-2    2.521205117225101E-2    1.788708919539420E-2    2.514531782204959E-2    9.805530070655772E-1   -8.221901453065923E-2
 3.202445641276293E7     9.802636706756416E-1   -8.489483475942203E-2    1.783514533356354E-2    2.544468178004311E-2    1.793112077278489E-2    2.532300554042070E-2    9.805066001606270E-1   -8.286674204131532E-2
 3.226879861652631E7     9.802338516029954E-1   -8.554912121007292E-2    1.789408032440869E-2    2.567649732107057E-2    1.794779725842521E-2    2.560475255328165E-2    9.804266122691773E-1   -8.357105686413299E-2
 3.251500511774320E7     9.800484324757630E-1   -8.645415349861103E-2    1.782972788236894E-2    2.586896616365068E-2    1.833313020270240E-2    2.549831788147346E-2    9.804091971906428E-1   -8.417097822023284E-2
 3.276309014074709E7     9.799887653930912E-1   -8.718837628606534E-2    1.786036258070017E-2    2.610305266259826E-2    1.836695564421542E-2    2.572985187287923E-2    9.803462688034887E-1   -8.482340077913192E-2
 3.301306801840112E7     9.799104247839729E-1   -8.790807267160293E-2    1.789326022826908E-2    2.633868632677827E-2    1.840502792690608E-2    2.596437826899457E-2    9.802911100807761E-1   -8.549698302704546E-2
 3.326495319292643E7     9.798762386385069E-1   -8.861311826876943E-2    1.792516208492010E-2    2.657424519097646E-2    1.844152776351046E-2    2.619728043022001E-2    9.802335281060157E-1   -8.620276125357750E-2
 3.351876021673609E7     9.799087279992695E-1   -8.915469269075955E-2    1.805323428530892E-2    2.685308996664513E-2    1.810693908106789E-2    2.678050750751886E-2    9.801254577249237E-1   -8.698312412330403E-2
 3.377450375327612E7     9.798341303508354E-1   -8.983227127955244E-2    1.808426763424869E-2    2.709468816372279E-2    1.813858099359218E-2    2.701824570015007E-2    9.800651762244632E-1   -8.769236240572345E-2
 3.403219857787284E7     9.797331301112644E-1   -9.060954796789990E-2    1.806948431059487E-2    2.733121677602332E-2    1.820711260351562E-2    2.716649737459020E-2    9.800085322084822E-1   -8.835241631246055E-2
 3.429185957858586E7     9.796407922767589E-1   -9.135123597848283E-2    1.809959916428715E-2    2.757020027741852E-2    1.823686363965979E-2    2.740801060155170E-2    9.799333947545925E-1   -8.909290556911842E-2
 3.455350175706909E7     9.795841301791017E-1   -9.209837668682597E-2    1.813030413951610E-2    2.781437140310737E-2    1.826851349205219E-2    2.765084347481116E-2    9.798643157232061E-1   -8.977692251333429E-2
 3.481714022943672E7     9.794136145374354E-1   -9.299481350129575E-2    1.811197702469023E-2    2.802553866596425E-2    1.864843322351892E-2    2.764306871736119E-2    9.798000543837607E-1   -9.049692250270833E-2
 3.508279022713681E7     9.793097453660967E-1   -9.378940654466207E-2    1.813781730152077E-2    2.827489897523050E-2    1.867648211620610E-2    2.789220329128618E-2    9.797151114462609E-1   -9.119887467290019E-2
 3.535046709783159E7     9.792276573095604E-1   -9.451635527830266E-2    1.816107414049601E-2    2.853390383494044E-2    1.870260610264620E-2    2.815212352181332E-2    9.796374996721160E-1   -9.192470048810776E-2
 3.562018630628331E7     9.791248005579032E-1   -9.526190379650172E-2    1.818088378676246E-2    2.880470285466324E-2    1.872992168723734E-2    2.842524782490751E-2    9.795380479237480E-1   -9.267618198949769E-2
 3.589196343524875E7     9.790192301603472E-1   -9.598225652430771E-2    1.821365876197221E-2    2.909628181289359E-2    1.877251415805799E-2    2.871336092682872E-2    9.794583394476676E-1   -9.336118376195528E-2
 3.616581418637872E7     9.789693667891851E-1   -9.672443594960592E-2    1.827205870007254E-2    2.938643174532404E-2    1.883948215071838E-2    2.899832318760502E-2    9.793970946621090E-1   -9.409287340007265E-2
 3.644175438112541E7     9.789189723571271E-1   -9.750337703329255E-2    1.834091248822672E-2    2.965925694182138E-2    1.891386108219658E-2    2.926538999311123E-2    9.793433890119051E-1   -9.485336779474479E-2
 3.671979996165685E7     9.789097490302960E-1   -9.814714899478426E-2    1.841849235338006E-2    2.994659206680582E-2    1.871014030644882E-2    2.966659437474000E-2    9.792893133660767E-1   -9.563538161338285E-2
 3.699996699177712E7     9.788256797736091E-1   -9.893851017330511E-2    1.847491576800123E-2    3.020668931071100E-2    1.876605778969027E-2    2.992485651247761E-2    9.791982144412915E-1   -9.639885924692829E-2
 3.728227165785540E7     9.787666004447998E-1   -9.974916771918234E-2    1.853043094150534E-2    3.046588732003328E-2    1.882440592649509E-2    3.018323582566307E-2    9.791270282351096E-1   -9.715736606708211E-2
 3.756673026976037E7     9.786768479587739E-1   -1.005316618862863E-1    1.858129483272785E-2    3.072744366221754E-2    1.887626641291355E-2    3.044393912171267E-2    9.790464623810817E-1   -9.794228485915787E-2
 3.785335926180276E7     9.787023110141837E-1   -1.012104203044274E-1    1.870778405570396E-2    3.101906803487001E-2    1.876891206164163E-2    3.093696040081362E-2    9.789185705592106E-1   -9.879127682186742E-2
 3.814217519368506E7     9.786380028327043E-1   -1.020475694979961E-1    1.876000414883358E-2    3.128812032328675E-2    1.882287972630003E-2    3.120491338381345E-2    9.788424511780023E-1   -9.959098210091068E-2
 3.843319475145779E7     9.785350760902504E-1   -1.028415138148272E-1    1.881240599027729E-2    3.156105154780399E-2    1.887232692985493E-2    3.147767457290494E-2    9.787506272729506E-1   -1.003800608456560E-1
 3.872643474848381E7     9.784517370742304E-1   -1.036767295627195E-1    1.886478700748901E-2    3.183397492171857E-2    1.892672885286182E-2    3.175045780869139E-2    9.786637313331552E-1   -1.011880108585630E-1
 3.902191212640966E7     9.783643616321113E-1   -1.045052001999070E-1    1.891857029386228E-2    3.210813928494492E-2    1.898072772263245E-2    3.202447422925549E-2    9.785843534173323E-1   -1.019961299186216E-1
 3.931964395614420E7     9.782949052812809E-1   -1.053467850336922E-1    1.897056468423722E-2    3.238827381012072E-2    1.903472995501943E-2    3.230400490408292E-2    9.785061076369205E-1   -1.027789671176775E-1
 3.961964743884522E7     9.781511837027189E-1   -1.062147768900356E-1    1.899193058644367E-2    3.266309690642924E-2    1.911212123801105E-2    3.251851917117457E-2    9.784338046837306E-1   -1.035961805519187E-1
 3.992193990691278E7     9.780551411624774E-1   -1.070721480981826E-1    1.904509844343128E-2    3.294321022723514E-2    1.916829418704804E-2    3.280128810919816E-2    9.783268912958568E-1   -1.044040402172366E-1
 4.022653882499073E7     9.778710147532871E-1   -1.080121588750311E-1    1.905939806326450E-2    3.320475929044816E-2    1.937756674617581E-2    3.290928423883819E-2    9.782628610999821E-1   -1.051978261497120E-1
 4.053346179097611E7     9.777760422515887E-1   -1.089045656755426E-1    1.911928474542532E-2    3.349041491051062E-2    1.944041693104044E-2    3.319369932415372E-2    9.781665989004328E-1   -1.060578855359728E-1
 4.084272653703488E7     9.776840817796780E-1   -1.097665615092692E-1    1.917509662679035E-2    3.377680061052124E-2    1.950036248044444E-2    3.347878627664803E-2    9.780686593150152E-1   -1.068870124794581E-1
 4.115435093062763E7     9.775299055591106E-1   -1.107133774528621E-1    1.922623280116352E-2    3.404952329868786E-2    1.971822049783083E-2    3.367127503772171E-2    9.779675616753721E-1   -1.077350296193647E-1
 4.146835297554084E7     9.774321237285665E-1   -1.116101234804196E-1    1.928550558439503E-2    3.434262963308546E-2    1.978428639918019E-2    3.396055453579418E-2    9.778658013998737E-1   -1.085963381642578E-1
 4.178475081292742E7     9.772939001120546E-1   -1.126949105343062E-1    1.935963959019854E-2    3.462335503712518E-2    2.027601169865666E-2    3.417149492865486E-2    9.777610655212448E-1   -1.094435724251182E-1
 4.210356272235513E7     9.771817253393704E-1   -1.135718262176851E-1    1.942223512711247E-2    3.491658944333716E-2    2.034529742149130E-2    3.446544390940190E-2    9.776588354505334E-1   -1.102956475366792E-1
 4.242480712286174E7     9.770730270216754E-1   -1.144974869186938E-1    1.948532971477367E-2    3.521714348208354E-2    2.041794703383107E-2    3.476284515791719E-2    9.775471239858328E-1   -1.111721393187137E-1
 4.274850257402029E7     9.769761864353862E-1   -1.154025652178041E-1    1.954978612105823E-2    3.551971742230755E-2    2.048927071476914E-2    3.506186856209055E-2    9.774407659901013E-1   -1.120628953401414E-1
 4.307466777701053E7     9.770595260597464E-1   -1.158752440120207E-1    1.968370396370361E-2    3.588804963419587E-2    1.976230713760344E-2    3.579349264591710E-2    9.772764918485528E-1   -1.130277708281576E-1
 4.340332157569963E7     9.767480836195409E-1   -1.172365764597195E-1    1.968282749551604E-2    3.612740139052218E-2    2.063623524833277E-2    3.566666201840928E-2    9.772241521335985E-1   -1.138348932477116E-1
 4.373448295773120E7     9.766134499399042E-1   -1.181562585963805E-1    1.974948150116818E-2    3.643633745837845E-2    2.071247686822048E-2    3.597420978853287E-2    9.771072569289050E-1   -1.147323144953317E-1
 4.406817105562137E7     9.765289770482956E-1   -1.188836654951397E-1    1.980164901435667E-2    3.676083063479604E-2    2.033661657236304E-2    3.635939399301683E-2    9.769767359240965E-1   -1.156605671586875E-1
 4.440440514786536E7     9.764012581100522E-1   -1.198394505512087E-1    1.987110771927384E-2    3.707176200715741E-2    2.041025739300038E-2    3.666776844558103E-2    9.768570336723880E-1   -1.165690881050206E-1
 4.474320466005030E7     9.762837872344345E-1   -1.208018561990628E-1    1.994210102623192E-2    3.738718628046214E-2    2.048523406485789E-2    3.698146042981239E-2    9.767355137680193E-1   -1.174986615332205E-1
 4.508458916597787E7     9.762370820024608E-1   -1.216250386472177E-1    2.003411696982668E-2    3.773013870113393E-2    2.030030851468793E-2    3.747295446013439E-2    9.766107307024218E-1   -1.184560384152480E-1
 4.542857838879555E7     9.761161980423907E-1   -1.225765237203093E-1    2.010773248213187E-2    3.805139507751498E-2    2.037557126029165E-2    3.779061465285044E-2    9.764781817998331E-1   -1.193833391530133E-1
 4.577519220213508E7     9.759770886623739E-1   -1.235402254709294E-1    2.018063388962593E-2    3.837345069585511E-2    2.045238592024032E-2    3.811207209444917E-2    9.763597006582014E-1   -1.203063637192568E-1
 4.612445063126191E7     9.758568483003950E-1   -1.245142740342685E-1    2.025680715630185E-2    3.869602922524649E-2    2.053276539796296E-2    3.843598317276688E-2    9.762222447478057E-1   -1.212901447383455E-1
 4.647637385423118E7     9.757164879260098E-1   -1.254844058335352E-1    2.033152985680952E-2    3.902422747523607E-2    2.060787397516758E-2    3.876234392951967E-2    9.760814471759216E-1   -1.222111931046979E-1
 4.683098220305377E7     9.755677474067703E-1   -1.264953387095502E-1    2.040950852373700E-2    3.935462292593486E-2    2.068961569961558E-2    3.908897162858911E-2    9.759452302602650E-1   -1.231935041419836E-1
 4.718829616487134E7     9.754255314648500E-1   -1.274785798523149E-1    2.048765033524915E-2    3.968841944421262E-2    2.076931696040429E-2    3.942085034312071E-2    9.758125073445315E-1   -1.241767731144953E-1
 4.754833638313931E7     9.751960399594310E-1   -1.286676594357409E-1    2.055029408054470E-2    3.999774985833633E-2    2.113026511283222E-2    3.957187535787154E-2    9.756941436191916E-1   -1.251153150218160E-1
 4.791112365881994E7     9.750490638723105E-1   -1.296659220549997E-1    2.063133851337274E-2    4.033431638111586E-2    2.121921551995228E-2    3.990943768930486E-2    9.755367741765999E-1   -1.261070598401456E-1
 4.827667895158397E7     9.748785642803753E-1   -1.306837780997713E-1    2.071476563989065E-2    4.067991969516983E-2    2.130882518111102E-2    4.025009325328394E-2    9.753820669956986E-1   -1.270888020726401E-1
 4.864502338102144E7     9.747499271694737E-1   -1.316998566394848E-1    2.080141913619584E-2    4.102545385070999E-2    2.140223376277687E-2    4.059107503163660E-2    9.752419376981781E-1   -1.280875919859864E-1
 4.901617822786229E7     9.745759711992825E-1   -1.327365558131848E-1    2.089076906641643E-2    4.136996098325176E-2    2.149730907655095E-2    4.093486895735447E-2    9.750947094245340E-1   -1.290721783817106E-1
 4.939016493520518E7     9.744273083661128E-1   -1.337770154620129E-1    2.098070869760940E-2    4.171942947810417E-2    2.159256427727531E-2    4.128092372563748E-2    9.749454500912089E-1   -1.301002382727290E-1
 4.976700510975666E7     9.742820866259776E-1   -1.348455034047853E-1    2.107185997874805E-2    4.207125054628611E-2    2.169132029764260E-2    4.162726621640283E-2    9.747818726930794E-1   -1.311210877063785E-1
 5.014672052307993E7     9.741326462449099E-1   -1.358948466622949E-1    2.116476483603740E-2    4.242379245768818E-2    2.179152892816292E-2    4.198088542068176E-2    9.746227056970729E-1   -1.321290491729215E-1
 5.052933311285146E7     9.739742898306950E-1   -1.369612331581772E-1    2.126288085411997E-2    4.277891169711465E-2    2.189253110158088E-2    4.233323084848798E-2    9.744747871003665E-1   -1.331926080140195E-1
 5.091486498412994E7     9.738032884324178E-1   -1.380234591745627E-1    2.136061488635617E-2    4.314031196569825E-2    2.199802677874237E-2    4.268590271250913E-2    9.742972279016673E-1   -1.342239064449572E-1
 5.130333841063219E7     9.736289970600766E-1   -1.391063142983827E-1    2.145844783985002E-2    4.350011727797694E-2    2.210659711815575E-2    4.304861085980322E-2    9.741442386128905E-1   -1.352943490949103E-1
 5.169477583602042E7     9.734609572056345E-1   -1.401916151454498E-1    2.156083498260782E-2    4.386052779454752E-2    2.221341987262842E-2    4.340875680472118E-2    9.739816233476225E-1   -1.363397428503514E-1
 5.208919987519933E7     9.733058243277742E-1   -1.412943869420579E-1    2.166486497564942E-2    4.422549765271407E-2    2.232473279896957E-2    4.377118417440162E-2    9.738037870055051E-1   -1.374143766345559E-1
 5.248663331562151E7     9.731198501972836E-1   -1.424099078498123E-1    2.176784527921128E-2    4.459736162908776E-2    2.243624440424911E-2    4.413531551148280E-2    9.736421667825687E-1   -1.384790561524726E-1
 5.288709911860541E7     9.729473754826500E-1   -1.435336750492018E-1    2.187277988014832E-2    4.496560457520034E-2    2.254981694974932E-2    4.450016133919927E-2    9.734564144085922E-1   -1.395497922222782E-1
 5.329062042066076E7     9.727683949029035E-1   -1.446482020317409E-1    2.197974951100095E-2    4.533807716046746E-2    2.266439732558728E-2    4.487357468714794E-2    9.732889446165326E-1   -1.406495335733910E-1
 5.369722053482568E7     9.725812665941383E-1   -1.458015436448182E-1    2.208938613782119E-2    4.571098357614307E-2    2.277911622148116E-2    4.524691946457527E-2    9.731010876707020E-1   -1.417741527207740E-1
 5.410692295201402E7     9.723957425082652E-1   -1.469182889838421E-1    2.219836124984461E-2    4.609054176048334E-2    2.289647539410239E-2    4.561848019625177E-2    9.729180951694469E-1   -1.428934894609357E-1
 5.451975134237129E7     9.721862137994036E-1   -1.480640028318600E-1    2.230912887690619E-2    4.647230822160591E-2    2.301622883031260E-2    4.599807149312046E-2    9.727296532577190E-1   -1.440115002069020E-1
 5.493572955664375E7     9.719910707343095E-1   -1.492313357148001E-1    2.242490987956828E-2    4.685399908665468E-2    2.313636133756617E-2    4.637813561131693E-2    9.725401561899806E-1   -1.451240207732806E-1
 5.535488162755510E7     9.718009600000695E-1   -1.503821743453799E-1    2.253890173262517E-2    4.724184710008104E-2    2.326120671778943E-2    4.676200379625200E-2    9.723563069970460E-1   -1.462659859407357E-1
 5.577723177119546E7     9.716083184617754E-1   -1.515821793103973E-1    2.265749667873422E-2    4.763268756294634E-2    2.338937784796938E-2    4.714982693099935E-2    9.721468014880593E-1   -1.474166186210667E-1
 5.620280438842070E7     9.713764107707699E-1   -1.527597461711448E-1    2.277430198375951E-2    4.802571421665061E-2    2.351425690029213E-2    4.753954249914079E-2    9.719379753597256E-1   -1.485547032748604E-1
 5.663162406626155E7     9.711645249390883E-1   -1.539609913771603E-1    2.289591719479787E-2    4.842227400138686E-2    2.364562946019546E-2    4.793213789695969E-2    9.717336870875172E-1   -1.497397185024420E-1
 5.706371557934452E7     9.709507972548144E-1   -1.551657434129810E-1    2.302080396486295E-2    4.882034751925550E-2    2.377823226977823E-2    4.832754845888681E-2    9.715367972426341E-1   -1.509023061815289E-1
 5.749910389132310E7     9.707358689375518E-1   -1.563762298425274E-1    2.314750545905726E-2    4.922390086951511E-2    2.391105101161256E-2    4.872702853910721E-2    9.713244212998225E-1   -1.520717384900987E-1
 5.793781415631992E7     9.705424600015554E-1   -1.576016443564678E-1    2.327212277364660E-2    4.963021558943990E-2    2.404537219510394E-2    4.912931181854572E-2    9.711042560364646E-1   -1.532551322878265E-1
 5.837987172038046E7     9.705265680555963E-1   -1.584180222207424E-1    2.352792968925885E-2    5.008008868002831E-2    2.366457214024791E-2    4.997922160916683E-2    9.708309362396798E-1   -1.545389469126132E-1
 5.882530212293670E7     9.702602878911482E-1   -1.596559791535814E-1    2.366215775927694E-2    5.048617947970502E-2    2.379929312388830E-2    5.039036012375963E-2    9.706019540938149E-1   -1.557520157659826E-1
 5.927413109828297E7     9.700316886444617E-1   -1.608730416411129E-1    2.379670250134216E-2    5.090238657312093E-2    2.393825826118050E-2    5.080394754170492E-2    9.703613444428446E-1   -1.569659873036921E-1
 5.972638457706322E7     9.697923700881681E-1   -1.620999253378300E-1    2.393488246868446E-2    5.131991083000634E-2    2.407812323612388E-2    5.122235307272875E-2    9.701455208523557E-1   -1.581646185979501E-1
 6.018208868776779E7     9.695572665655042E-1   -1.633876297892695E-1    2.407780615743756E-2    5.173794175331214E-2    2.422196736456225E-2    5.164433431521982E-2    9.699089702110361E-1   -1.593771376372258E-1
 6.064126975824468E7     9.693193207152274E-1   -1.646270250665813E-1    2.422030981786624E-2    5.216150241231512E-2    2.436875550356235E-2    5.206633427010427E-2    9.696710025237969E-1   -1.606384289041995E-1
 6.110395431721926E7     9.690623129917438E-1   -1.659142176082526E-1    2.436692485821287E-2    5.258858922978633E-2    2.451727827037167E-2    5.249417498005635E-2    9.694142445159858E-1   -1.618890647478969E-1
 6.157016909582742E7     9.688084668404591E-1   -1.672042860008673E-1    2.451532265130322E-2    5.301791330895636E-2    2.466739565169761E-2    5.292235434028066E-2    9.691577845738646E-1   -1.631568417303713E-1
 6.203994102916045E7     9.685341747175937E-1   -1.684837317732104E-1    2.466553344954357E-2    5.344748210961880E-2    2.482171073170045E-2    5.335510002339544E-2    9.689211092205685E-1   -1.644069679848734E-1
 6.251329725781982E7     9.682571569316463E-1   -1.697815667176369E-1    2.481844841854598E-2    5.388068635350571E-2    2.497554714773547E-2    5.379128472617276E-2    9.686429020471972E-1   -1.657007095878666E-1
 6.299026512948693E7     9.679925638878463E-1   -1.711328466426381E-1    2.497302302781480E-2    5.431849150110575E-2    2.513430800925632E-2    5.422836148595783E-2    9.684020198272271E-1   -1.669867805016320E-1
 6.347087220050172E7     9.677143917681326E-1   -1.724374559064226E-1    2.513278233302683E-2    5.475763770215261E-2    2.529659944201030E-2    5.466886423277944E-2    9.681401054175027E-1   -1.682909282348816E-1
 6.395514623745525E7     9.674474202501291E-1   -1.738026432733815E-1    2.529200768886100E-2    5.520270847706622E-2    2.545909201602312E-2    5.511311329694128E-2    9.678656668703699E-1   -1.695978119321617E-1
 6.444311521879433E7     9.671704485704410E-1   -1.751344575192284E-1    2.545141654186395E-2    5.565341165164454E-2    2.562035260972758E-2    5.556227674663094E-2    9.676045978310366E-1   -1.709334412079474E-1
 6.493480733643661E7     9.668835072521507E-1   -1.764958409738788E-1    2.561693906278887E-2    5.610262988852898E-2    2.578629642706023E-2    5.601198474979742E-2    9.673033812079270E-1   -1.722345603101975E-1
 6.543025099740107E7     9.665739328290516E-1   -1.778626663668952E-1    2.578338745152093E-2    5.655551972060824E-2    2.595607848474596E-2    5.646557552674191E-2    9.670273077931615E-1   -1.735916421463208E-1
 6.592947482544785E7     9.662060732719414E-1   -1.800326611307353E-1    2.569694985463485E-2    5.699100217381246E-2    2.734413220556874E-2    5.635778771723821E-2    9.668074043002799E-1   -1.748169387046672E-1
 6.643250766273243E7     9.659373000825550E-1   -1.814408941255327E-1    2.586592612642837E-2    5.746012908632132E-2    2.754927991480211E-2    5.681636945038086E-2    9.665137562632429E-1   -1.761800623405993E-1
 6.693937857147253E7     9.656284184849451E-1   -1.828241211089332E-1    2.603017183728363E-2    5.792848521543083E-2    2.774082574766873E-2    5.727677637446724E-2    9.662145632355805E-1   -1.775479301782955E-1
 6.745011683562562E7     9.653200881778463E-1   -1.842821107955398E-1    2.619398713893208E-2    5.840373457017531E-2    2.793163502946928E-2    5.774718341112579E-2    9.658882131983431E-1   -1.789175190475510E-1
 6.796475196258274E7     9.650033743131571E-1   -1.857071255193468E-1    2.636169053363388E-2    5.888926747490697E-2    2.812750076118548E-2    5.822641674984870E-2    9.655753823830051E-1   -1.803521268492748E-1
 6.848331368487169E7     9.646727849616547E-1   -1.871141115192650E-1    2.653212850173935E-2    5.938435225955848E-2    2.832726353855450E-2    5.871599363748758E-2    9.652446017191850E-1   -1.817332718588899E-1
 6.900583196187538E7     9.642234532613381E-1   -1.881672538211010E-1    2.678779425480526E-2    5.988215652045409E-2    2.782549869700238E-2    5.927494005148266E-2    9.649507691574563E-1   -1.831495370748819E-1
 6.953233698156311E7     9.638746225149245E-1   -1.896495654548433E-1    2.697310103334837E-2    6.037356243216765E-2    2.802357376197103E-2    5.976800784842710E-2    9.646405234047930E-1   -1.845395505249189E-1
 7.006285916223384E7     9.635617915801864E-1   -1.910393371314496E-1    2.717096571893812E-2    6.086147286914221E-2    2.823355073545169E-2    6.025198333147898E-2    9.642975389432663E-1   -1.859816216504432E-1
 7.059742915427396E7     9.632195272987629E-1   -1.925147173871095E-1    2.737085677058134E-2    6.135539726203604E-2    2.844677788579068E-2    6.074297695725263E-2    9.639593952758331E-1   -1.874293020731998E-1
 7.113607784192866E7     9.628700469654337E-1   -1.939920097578088E-1    2.757190247412728E-2    6.185695031436528E-2    2.867016647153015E-2    6.123505057259755E-2    9.636250607964998E-1   -1.889439418563170E-1
 7.167883634508467E7     9.625203695724595E-1   -1.955038327716632E-1    2.777437631889935E-2    6.235821973915247E-2    2.888933599637798E-2    6.173046657788826E-2    9.632637411678588E-1   -1.904028745748315E-1
 7.222573602107021E7     9.621580862554034E-1   -1.970464561359698E-1    2.797731204581762E-2    6.286129695015516E-2    2.910822373647082E-2    6.223021306653667E-2    9.629153530994916E-1   -1.918964080879617E-1
 7.277680846646504E7     9.617498436608288E-1   -1.985343636287261E-1    2.817078749348185E-2    6.337390135369833E-2    2.932405328288495E-2    6.273741387218452E-2    9.625544991648143E-1   -1.933936634381495E-1
 7.333208551892644E7     9.613726177800883E-1   -2.000519051025582E-1    2.836981718174995E-2    6.389969471491430E-2    2.954357152254430E-2    6.325341540116262E-2    9.621796131607229E-1   -1.949005948572686E-1
 7.389159925902925E7     9.610099824930020E-1   -2.016035960109352E-1    2.858588681755931E-2    6.442815346612424E-2    2.976975648553857E-2    6.378241766427015E-2    9.618349942808644E-1   -1.963990450001094E-1
 7.445538201211768E7     9.606488265043323E-1   -2.031592474619056E-1    2.881616577122011E-2    6.495720453580463E-2    3.001091014543882E-2    6.430551480274938E-2    9.614408561624328E-1   -1.979178974249811E-1
 7.502346635017487E7     9.602953856173770E-1   -2.047162280471175E-1    2.905245049104993E-2    6.548754519637329E-2    3.025703164053292E-2    6.482873049328458E-2    9.610545938358463E-1   -1.994601727113952E-1
 7.559588509370317E7     9.598625981643291E-1   -2.063047946171032E-1    2.927990720971758E-2    6.601672604120012E-2    3.050595296631086E-2    6.535588596064187E-2    9.606448608916387E-1   -2.010162103575008E-1
 7.617267131362079E7     9.594680228622240E-1   -2.078899713159080E-1    2.951008656448633E-2    6.655361434457603E-2    3.074771279601460E-2    6.588549161775610E-2    9.602601386262266E-1   -2.025868188890856E-1
 7.675385833317320E7     9.590383367362065E-1   -2.095048700071619E-1    2.973184783190314E-2    6.709873261020938E-2    3.099396608036764E-2    6.642211890969998E-2    9.598502092505081E-1   -2.041502517543806E-1
 7.733947972985649E7     9.586398941501405E-1   -2.111282273900960E-1    2.996161890502269E-2    6.765308982711382E-2    3.124671179199096E-2    6.696997338060347E-2    9.594447953160413E-1   -2.057029923554821E-1
 7.792956933735959E7     9.582078564843730E-1   -2.127125981556726E-1    3.020843441339172E-2    6.821155720181393E-2    3.150800807974629E-2    6.752320913610665E-2    9.590447310596839E-1   -2.073062410563305E-1
 7.852416124751715E7     9.577863427300852E-1   -2.143623399632860E-1    3.046074465397525E-2    6.877121185725719E-2    3.177442350595604E-2    6.807841932661443E-2    9.586039625017443E-1   -2.089165272386652E-1
 7.912328981227988E7     9.573558875953369E-1   -2.159493744107085E-1    3.071596394005550E-2    6.933588655256633E-2    3.204526419851918E-2    6.863665520363224E-2    9.581700774282387E-1   -2.105401444435488E-1
 7.972698964569975E7     9.569047388023794E-1   -2.176191799538675E-1    3.097727566839095E-2    6.990601747025772E-2    3.231462845247247E-2    6.919990236781844E-2    9.577294327536449E-1   -2.121685359990904E-1
 8.033529562592810E7     9.564684297020360E-1   -2.192979753656902E-1    3.124597649127374E-2    7.048210736000078E-2    3.260089410051383E-2    6.977384994694091E-2    9.572855823676506E-1   -2.137814523232578E-1
 8.094824289723292E7     9.560113389708209E-1   -2.209957308901019E-1    3.152613951844661E-2    7.105719066369727E-2    3.289336817886152E-2    7.034847526990735E-2    9.568348728311836E-1   -2.154275811834266E-1
 8.156586687202743E7     9.555547855171985E-1   -2.226686024340158E-1    3.180595513103392E-2    7.163633187111736E-2    3.318652260224243E-2    7.092290099887112E-2    9.563858794688801E-1   -2.170970538024253E-1
 8.218820323291673E7     9.550520997355310E-1   -2.243977295406212E-1    3.208981085638685E-2    7.221624912843790E-2    3.348375341545676E-2    7.150096892050231E-2    9.559460748297803E-1   -2.188054827194174E-1
 8.281528793475981E7     9.545593887611135E-1   -2.260974981983803E-1    3.237493696554965E-2    7.280157323009426E-2    3.378253023836850E-2    7.207966317422296E-2    9.554904341486151E-1   -2.205049985335349E-1
 8.344715720674579E7     9.540899538191874E-1   -2.278517218954422E-1    3.266229133081013E-2    7.339364286721296E-2    3.408862997520765E-2    7.267132741353863E-2    9.549957291556813E-1   -2.222221274256578E-1
 8.408384755448765E7     9.535966771906706E-1   -2.295925797648140E-1    3.295436024888323E-2    7.399733841994713E-2    3.439126765240621E-2    7.326779520186270E-2    9.545221181786014E-1   -2.239642458278719E-1
 8.472539576213124E7     9.530954264914099E-1   -2.313377742834253E-1    3.324619198955078E-2    7.461167698768671E-2    3.470005648937510E-2    7.387700247399556E-2    9.540210579067799E-1   -2.256922563499180E-1
 8.537183889448020E7     9.525764546895942E-1   -2.330871349277335E-1    3.355778175509477E-2    7.523761434899866E-2    3.502409780608664E-2    7.449916944859390E-2    9.535234106128057E-1   -2.274182659376969E-1
 8.602321429913802E7     9.520530121779914E-1   -2.348661372907187E-1    3.388699274578349E-2    7.586029638199929E-2    3.537354293254787E-2    7.512132990326142E-2    9.530441810299184E-1   -2.291798554097117E-1
 8.667955960866481E7     9.515339045615206E-1   -2.366579831706370E-1    3.421475387924305E-2    7.647777759334849E-2    3.571729204971807E-2    7.573376875541003E-2    9.525622727738621E-1   -2.309690228630272E-1
 8.734091274275188E7     9.510066751504523E-1   -2.384658089280229E-1    3.453960589826238E-2    7.710556465071619E-2    3.605713670915942E-2    7.635692495309276E-2    9.520214515918777E-1   -2.327422594286246E-1
 8.800731191041334E7     9.504750900361449E-1   -2.402814622486820E-1    3.488076262008446E-2    7.774836668326279E-2    3.641264646720709E-2    7.699472674007991E-2    9.515095288120343E-1   -2.345423890871919E-1
 8.867879561219153E7     9.499335864591750E-1   -2.420967309463840E-1    3.523593576209785E-2    7.838587253102507E-2    3.678369466075865E-2    7.763203581133644E-2    9.510034778351807E-1   -2.363682102003648E-1
 8.935540264238395E7     9.493756443523136E-1   -2.439505063824989E-1    3.560511423945390E-2    7.902657263045128E-2    3.716367300572845E-2    7.826302525825929E-2    9.504773131050204E-1   -2.381887951516722E-1
 9.003717209128250E7     9.487951429012279E-1   -2.457938230554228E-1    3.595576792267561E-2    7.964399916262831E-2    3.751961400349851E-2    7.888018998922382E-2    9.499478836176432E-1   -2.400301911488694E-1
 9.072414334743266E7     9.482433778350344E-1   -2.476866022303341E-1    3.632795599112295E-2    8.028464872710314E-2    3.790780392107759E-2    7.951302637660056E-2    9.493938159570315E-1   -2.419162395818660E-1
 9.141635609990983E7     9.476517113769541E-1   -2.496071263644566E-1    3.670109234867684E-2    8.092807963523688E-2    3.829547121675517E-2    8.015812582720162E-2    9.488453325803835E-1   -2.438073677670762E-1
 9.211385034061028E7     9.470424227110450E-1   -2.515061663726452E-1    3.708252570189849E-2    8.158684593330998E-2    3.869192327817941E-2    8.081011557276337E-2    9.482671934117374E-1   -2.456999585336904E-1
 9.281666636656430E7     9.464733126834797E-1   -2.534255887928474E-1    3.748000328062833E-2    8.224756328146483E-2    3.910342051810297E-2    8.146295839240868E-2    9.476867017374387E-1   -2.476320382415729E-1
 9.352484478226222E7     9.458361752228924E-1   -2.553842813267247E-1    3.788391862400776E-2    8.289976856528525E-2    3.951259793576700E-2    8.210945044362004E-2    9.470748513714742E-1   -2.495493943359915E-1
 9.423842650200106E7     9.452322371010902E-1   -2.573557888603645E-1    3.828623788277991E-2    8.355663098346838E-2    3.992973171232202E-2    8.275953226958621E-2    9.464603805348523E-1   -2.514833674096752E-1
 9.495745275224906E7     9.445780887125790E-1   -2.593165759933606E-1    3.869395288881657E-2    8.421265966808188E-2    4.035296524187406E-2    8.341644979690847E-2    9.458404197145949E-1   -2.534526175558953E-1
 9.568196507402541E7     9.438949176968535E-1   -2.613164682474187E-1    3.910877198028560E-2    8.488457755676757E-2    4.077970483421518E-2    8.407709779547169E-2    9.451822782274775E-1   -2.553979562151113E-1
 9.641200532530291E7     9.432042295032965E-1   -2.633331056780012E-1    3.952759827767303E-2    8.556010688849423E-2    4.120533770148586E-2    8.474367739009653E-2    9.445316316218214E-1   -2.573892615863675E-1
 9.714761568342420E7     9.425198769887638E-1   -2.653525426174806E-1    3.995225151954163E-2    8.624417270713469E-2    4.163997727148330E-2    8.542058273917010E-2    9.438585324691228E-1   -2.593657900434900E-1
 9.788883864753923E7     9.417760244879444E-1   -2.674006594099476E-1    4.038942647444812E-2    8.693106305527143E-2    4.208590046004903E-2    8.610439574775923E-2    9.431820959958254E-1   -2.613753007542366E-1
 9.863571704106140E7     9.410449537856845E-1   -2.694562967129405E-1    4.082956276916981E-2    8.762693151208424E-2    4.253626841773042E-2    8.678891071648878E-2    9.424913920580906E-1   -2.633928336531147E-1
 9.938829401413949E7     9.403133531043227E-1   -2.715174015189390E-1    4.127586609534076E-2    8.832836888406158E-2    4.299098044841054E-2    8.748405755083676E-2    9.417750102026666E-1   -2.654257870030610E-1
 1.001466130461536E8     9.395344704895532E-1   -2.736204536105388E-1    4.173424706239615E-2    8.904845294516416E-2    4.345218863847035E-2    8.819690986220199E-2    9.410242186027541E-1   -2.674609867031449E-1
 1.009107179482240E8     9.387421238634928E-1   -2.757072962268082E-1    4.220943959776430E-2    8.977223915425933E-2    4.394011047527416E-2    8.891922437585555E-2    9.403099654905513E-1   -2.695325029137542E-1
 1.016806528657447E8     9.379082810270379E-1   -2.778085276336936E-1    4.270355854178194E-2    9.049901429559448E-2    4.444309799045773E-2    8.963564899347257E-2    9.395873469023263E-1   -2.716076154422612E-1
 1.024564622809335E8     9.370792532043194E-1   -2.799369668854056E-1    4.320488867913916E-2    9.122888746250958E-2    4.495290909599878E-2    9.035538267443451E-2    9.388387276501502E-1   -2.737017469843745E-1
 1.032381910153997E8     9.362570737813364E-1   -2.820591531860386E-1    4.372343424191286E-2    9.196251971576894E-2    4.547663437847666E-2    9.107620392759359E-2    9.380751298660908E-1   -2.758091200685024E-1
 1.040258842327368E8     9.354013188341767E-1   -2.842174476876650E-1    4.425488943245278E-2    9.268813692593700E-2    4.601336003728843E-2    9.178972012410051E-2    9.372771436810623E-1   -2.779080287174783E-1
 1.048195874411304E8     9.345329916546103E-1   -2.863778780286004E-1    4.478850242291055E-2    9.340585645234202E-2    4.655105318558153E-2    9.249885523759353E-2    9.364560103878613E-1   -2.800331510680935E-1
 1.056193464959857E8     9.336091155193834E-1   -2.885287356022698E-1    4.531907539721206E-2    9.413072289820359E-2    4.708510910218479E-2    9.321537534520723E-2    9.356615017539115E-1   -2.822065935906454E-1
 1.064252076025801E8     9.327200640486373E-1   -2.907219815491878E-1    4.585192685298673E-2    9.487210329076881E-2    4.762251083958902E-2    9.394373658226077E-2    9.348685993718275E-1   -2.843851466273226E-1
 1.072372173187304E8     9.317915232798680E-1   -2.928899967884915E-1    4.640375357368732E-2    9.563003461495825E-2    4.817275145727165E-2    9.469703459120959E-2    9.340154317859677E-1   -2.865977494455648E-1
 1.080554225574824E8     9.308073576194456E-1   -2.951221957709469E-1    4.697691665371953E-2    9.638682336901574E-2    4.874669057872022E-2    9.544481379767526E-2    9.331619151000716E-1   -2.888009006511113E-1
 1.088798705898232E8     9.298386849040701E-1   -2.973231303504887E-1    4.756254736030362E-2    9.714672805303953E-2    4.933491222564580E-2    9.619233037656155E-2    9.322891542265743E-1   -2.910455142315246E-1
 1.097106090474096E8     9.288733825908676E-1   -2.994995190188068E-1    4.816928299415943E-2    9.790366234371586E-2    4.993276909758012E-2    9.694383216560748E-2    9.313763254519365E-1   -2.933068982883163E-1
 1.105476859253232E8     9.278943121313735E-1   -3.017009194665124E-1    4.878478264193691E-2    9.865392721294114E-2    5.054853333779528E-2    9.768784526035162E-2    9.304706582198081E-1   -2.955694770632430E-1
 1.113911495848395E8     9.269712228436198E-1   -3.039542922786181E-1    4.939667595238622E-2    9.940638279158875E-2    5.115975034110320E-2    9.842791509999840E-2    9.295286443915116E-1   -2.978501570700878E-1
 1.122410487562254E8     9.260182527464529E-1   -3.062697390008861E-1    5.000590253546758E-2    1.001725217646113E-1    5.177146972771702E-2    9.918069987023295E-2    9.285833463731710E-1   -3.001554565791400E-1
 1.130974325415529E8     9.250627793520646E-1   -3.086195932135226E-1    5.063206079697713E-2    1.009547924295129E-1    5.239263130063836E-2    9.995566240956119E-2    9.275950544997595E-1   -3.024856018298303E-1
 1.139603504175348E8     9.240826686782894E-1   -3.110129380730776E-1    5.129231628553367E-2    1.017456223664259E-1    5.305258737701672E-2    1.007350651501911E-1    9.265884513098829E-1   -3.048033381306648E-1
 1.148298522383858E8     9.230206266303408E-1   -3.134107618059433E-1    5.196192852014126E-2    1.025239963147553E-1    5.371904880204056E-2    1.015024391813440E-1    9.255652280031066E-1   -3.071383143061800E-1
 1.157059882387014E8     9.219768635968196E-1   -3.158181010930279E-1    5.263873556330369E-2    1.033020108279859E-1    5.439236527337101E-2    1.022664701190719E-1    9.245181001980924E-1   -3.094842840945964E-1
 1.165888090363587E8     9.208640046415336E-1   -3.182407613900471E-1    5.332925917556423E-2    1.040735629058168E-1    5.507543343631175E-2    1.030296021710889E-1    9.234713753359575E-1   -3.118537031598880E-1
 1.174783656354443E8     9.197249119746721E-1   -3.206590716268501E-1    5.402167621652179E-2    1.048267002962281E-1    5.576010251860606E-2    1.037680123859422E-1    9.223874883786137E-1   -3.142299871910035E-1
 1.183747094291968E8     9.186094097160901E-1   -3.230504377707036E-1    5.469465176722686E-2    1.055779455489779E-1    5.641575980808206E-2    1.045185709029413E-1    9.213631923423364E-1   -3.166072761614607E-1
 1.192778922029803E8     9.175544757436424E-1   -3.255191623511295E-1    5.534599361747104E-2    1.063713558781023E-1    5.706304965055543E-2    1.053105992342456E-1    9.202969484880357E-1   -3.190368019380725E-1
 1.201879661372721E8     9.164633927670941E-1   -3.280585925525303E-1    5.604439305847599E-2    1.071979425797824E-1    5.775130454089498E-2    1.061346026389994E-1    9.192042424779504E-1   -3.214968456284857E-1
 1.211049838106809E8     9.153233801177636E-1   -3.306189950385460E-1    5.676059147994628E-2    1.080087106123968E-1    5.847250315917069E-2    1.069366700643469E-1    9.180770904286437E-1   -3.239417917397455E-1
 1.220289982029829E8     9.142041580151187E-1   -3.331926164384246E-1    5.746385357080416E-2    1.088245971895386E-1    5.917373074872539E-2    1.077466562086916E-1    9.169849542394681E-1   -3.264095274429955E-1
 1.229600626981811E8     9.130368573761070E-1   -3.358240584002292E-1    5.817476390811690E-2    1.096680068311358E-1    5.988335516911701E-2    1.085866077081628E-1    9.158435404137116E-1   -3.289453317666184E-1
 1.238982310875929E8     9.118360331863719E-1   -3.385052619391599E-1    5.890685798664189E-2    1.105451740436600E-1    6.062001875005169E-2    1.094600687405883E-1    9.146924088643488E-1   -3.315127013505376E-1
 1.248435575729559E8     9.105779482501674E-1   -3.412281962794692E-1    5.969989534019455E-2    1.114389549950524E-1    6.140610324418055E-2    1.103443630151003E-1    9.134506258645955E-1   -3.340968815360430E-1
 1.257960967695579E8     9.092508606844786E-1   -3.439217196758168E-1    6.051400685219427E-2    1.122829070659002E-1    6.221195928682106E-2    1.111828664735125E-1    9.121782829502720E-1   -3.366273349986088E-1
 1.267559037093956E8     9.079264918570534E-1   -3.466144893234281E-1    6.133411038063665E-2    1.130972456627913E-1    6.303174305753342E-2    1.119839992761561E-1    9.109359406847677E-1   -3.391463859090886E-1
 1.277230338443520E8     9.066231457785255E-1   -3.493361024660698E-1    6.210815802682610E-2    1.139436119357397E-1    6.380699516497575E-2    1.128209616550002E-1    9.097404919510357E-1   -3.417214473351644E-1
 1.286975430493991E8     9.052960084897802E-1   -3.521049865816110E-1    6.291013562832062E-2    1.148394129866963E-1    6.461431569536488E-2    1.137065920509400E-1    9.085019269489641E-1   -3.443740188999144E-1
 1.296794876258291E8     9.039099962354242E-1   -3.548732417992452E-1    6.375636499260082E-2    1.157301990248629E-1    6.546208119509771E-2    1.145887124828181E-1    9.072088287614265E-1   -3.470349417960892E-1
 1.306689243045034E8     9.025322178080063E-1   -3.576350879228521E-1    6.460496771794996E-2    1.166098380389354E-1    6.631476018591773E-2    1.154576803708175E-1    9.058985416006796E-1   -3.496931143839693E-1
 1.316659102491341E8     9.011551326108972E-1   -3.604457965233412E-1    6.546282961087324E-2    1.175108093124863E-1    6.717672758347390E-2    1.163425850865405E-1    9.045780931815426E-1   -3.524011447682899E-1
 1.326705030595824E8     8.997656025966752E-1   -3.632869468910188E-1    6.633817963176658E-2    1.184280570658067E-1    6.805430089558948E-2    1.172449176323449E-1    9.032138449740872E-1   -3.551104689257745E-1
 1.336827607751903E8     8.983452636284671E-1   -3.661773041577074E-1    6.724366529497873E-2    1.193513283456778E-1    6.896800369546072E-2    1.181559816339433E-1    9.018301897833636E-1   -3.578318245631586E-1
 1.347027418781318E8     8.968752947175306E-1   -3.690883159503755E-1    6.816952945389135E-2    1.202604709085103E-1    6.989838098596160E-2    1.190526064285709E-1    9.004348963165432E-1   -3.605809103977692E-1
 1.357305052967905E8     8.953981229692539E-1   -3.720135716407850E-1    6.910313538140297E-2    1.211650762397383E-1    7.083229715092090E-2    1.199358835697408E-1    8.989857563796653E-1   -3.633223222861779E-1
 1.367661104091667E8     8.939009361410735E-1   -3.749481595116280E-1    7.002556034851540E-2    1.220755548267923E-1    7.175801460795100E-2    1.208366008522091E-1    8.975317114021563E-1   -3.660569033043420E-1
 1.378096170463071E8     8.923540609768839E-1   -3.779328467469355E-1    7.096262700760646E-2    1.229947522945334E-1    7.270053481824633E-2    1.217436940567410E-1    8.960825621248715E-1   -3.688001712089369E-1
 1.388610854957592E8     8.908097582262114E-1   -3.809308945847247E-1    7.189342194272595E-2    1.239345248088592E-1    7.363917238090854E-2    1.226770860915015E-1    8.946824877984277E-1   -3.715915677882433E-1
 1.399205765050585E8     8.892198395174009E-1   -3.839385409353687E-1    7.283285321254958E-2    1.249021948374710E-1    7.458994457805437E-2    1.236282886824323E-1    8.932599092900354E-1   -3.744286073463067E-1
 1.409881512852336E8     8.876109310903254E-1   -3.869831730286795E-1    7.379419638224333E-2    1.259017056628313E-1    7.556860030773807E-2    1.246139762517341E-1    8.917755791263495E-1   -3.773601281657233E-1
 1.420638715143470E8     8.859820260941540E-1   -3.900623676359948E-1    7.479047320590720E-2    1.269287053193567E-1    7.657816096681420E-2    1.256265521058936E-1    8.902583357278990E-1   -3.803002611590424E-1
 1.431477993410541E8     8.843116643357070E-1   -3.931677958504659E-1    7.582129872911378E-2    1.279667825471998E-1    7.761820603508870E-2    1.266490734182548E-1    8.887147027820412E-1   -3.832625894978546E-1
 1.442399973881980E8     8.826020579204275E-1   -3.962986042121935E-1    7.687769462582413E-2    1.290234499191929E-1    7.869248375963790E-2    1.276914090739180E-1    8.871008030696418E-1   -3.863012964244539E-1
 1.453405287564251E8     8.808336896731843E-1   -3.994858387158585E-1    7.798759437479899E-2    1.301030694685609E-1    7.981367189823788E-2    1.287519804767047E-1    8.854083671073465E-1   -3.893361756116341E-1
 1.464494570278296E8     8.790338250367004E-1   -4.026564965253479E-1    7.914403063662803E-2    1.311653216342057E-1    8.098131006015881E-2    1.297912618276019E-1    8.836786205889730E-1   -3.923494615574498E-1
 1.475668462696298E8     8.771943717216371E-1   -4.058500735370770E-1    8.032418428928821E-2    1.322163826594447E-1    8.217103968976849E-2    1.308242048865829E-1    8.819096890521629E-1   -3.954133140266979E-1
 1.486927610378684E8     8.752935140642670E-1   -4.090563434321856E-1    8.153024683480574E-2    1.332598622797250E-1    8.339244238044409E-2    1.318444145430256E-1    8.801001745746612E-1   -3.984639429288110E-1
 1.498272663811400E8     8.733688352924897E-1   -4.122604886128010E-1    8.275356724429161E-2    1.342890784018962E-1    8.462650264819441E-2    1.328597183842346E-1    8.782409314390069E-1   -4.015414399160125E-1
 1.509704278443526E8     8.714073584933826E-1   -4.154943088469930E-1    8.397450667440667E-2    1.353117568886001E-1    8.585836962289028E-2    1.338719695269988E-1    8.763468917703958E-1   -4.046019201754847E-1
 1.521223114725131E8     8.694202471202707E-1   -4.187328064219125E-1    8.518977439290257E-2    1.363581554794641E-1    8.709100950005287E-2    1.349080096293658E-1    8.744353617702242E-1   -4.076478808750165E-1
 1.532829838145407E8     8.674087614362139E-1   -4.220281027908218E-1    8.643763830209668E-2    1.374376977058176E-1    8.835983148898960E-2    1.359757345976104E-1    8.725438821230811E-1   -4.107480707278447E-1
 1.544525119271165E8     8.653191436903461E-1   -4.253197327027781E-1    8.771823828726413E-2    1.385462760701239E-1    8.967222220035702E-2    1.370553220539462E-1    8.706495474831760E-1   -4.138775069143642E-1
 1.556309633785520E8     8.631924485494443E-1   -4.286441073410452E-1    8.903199876419970E-2    1.396448764587305E-1    9.102471755152758E-2    1.381301426318313E-1    8.686836738511950E-1   -4.170486907616217E-1
 1.568184062526983E8     8.610606765055759E-1   -4.319927744399549E-1    9.035558785928353E-2    1.407654425615978E-1    9.240251286237632E-2    1.392149697073759E-1    8.666911010496465E-1   -4.202451910324702E-1
 1.580149091528745E8     8.588656662837942E-1   -4.353865245340313E-1    9.172362873370196E-2    1.419220041612264E-1    9.382010923329956E-2    1.403294074555555E-1    8.646283262918671E-1   -4.234864954593959E-1
 1.592205412058353E8     8.566156825380794E-1   -4.387675707642165E-1    9.314620367153234E-2    1.430750310913823E-1    9.530644127508973E-2    1.414426388115032E-1    8.625512387696275E-1   -4.267401484040256E-1
 1.604353720657634E8     8.543192309830725E-1   -4.421140438320640E-1    9.459933515636500E-2    1.442190932127646E-1    9.683573553866667E-2    1.425423585793234E-1    8.604046652872234E-1   -4.300449695749664E-1
 1.616594719182909E8     8.519776799083482E-1   -4.455218400008247E-1    9.609325262406840E-2    1.453536841340494E-1    9.838780926242460E-2    1.436256432103691E-1    8.581824962088185E-1   -4.333557587801287E-1
 1.628929114845590E8     8.496013825815115E-1   -4.489000415898720E-1    9.761442919602704E-2    1.464757178433180E-1    9.998336977912461E-2    1.447058267553472E-1    8.558984463088597E-1   -4.367468463233626E-1
 1.641357620253014E8     8.472304326510912E-1   -4.521785891374057E-1    9.915383241548097E-2    1.475752300256339E-1    1.015652682939386E-1    1.457808761029305E-1    8.535626285215560E-1   -4.400910420835830E-1
 1.653880953449593E8     8.447749551669758E-1   -4.556449133390591E-1    1.007269570622557E-1    1.486720997919710E-1    1.031694345202976E-1    1.468497829325073E-1    8.511802855198995E-1   -4.434380851418347E-1
 1.666499837958347E8     8.422604413873299E-1   -4.591537988560206E-1    1.023210832674777E-1    1.497742686226766E-1    1.047928018443402E-1    1.479279631954462E-1    8.487463470101096E-1   -4.468387063931370E-1
 1.679215002822650E8     8.396818713447862E-1   -4.626835147335074E-1    1.039560646544176E-1    1.509006046986674E-1    1.064361699799488E-1    1.490315699904015E-1    8.462506069949899E-1   -4.502438626235991E-1
 1.692027182648404E8     8.370391606699394E-1   -4.662331880661832E-1    1.056299676307971E-1    1.520327690905562E-1    1.081341043837263E-1    1.501501354510257E-1    8.437108704200001E-1   -4.536879467188629E-1
 1.704937117646426E8     8.342949826599144E-1   -4.698252104079357E-1    1.073396169589625E-1    1.531710400420098E-1    1.098773643187422E-1    1.512636343563648E-1    8.411456784639407E-1   -4.571617019911721E-1
 1.717945553675260E8     8.315165780009708E-1   -4.734058616884806E-1    1.090806367575412E-1    1.542919796211858E-1    1.116602261268554E-1    1.523608771217044E-1    8.385027202473149E-1   -4.606357977406911E-1
 1.731053242284249E8     8.286893559965726E-1   -4.769784625068261E-1    1.108112300325030E-1    1.554274850188402E-1    1.134435295596681E-1    1.534620197267530E-1    8.357927423442515E-1   -4.641380173978011E-1
 1.744260940756933E8     8.258033769192963E-1   -4.806244566650592E-1    1.126015076392958E-1    1.565841192381517E-1    1.152679627249400E-1    1.545843224494657E-1    8.330126666423801E-1   -4.676742151672907E-1
 1.757569412154842E8     8.228020111008657E-1   -4.843251570287722E-1    1.143846872661185E-1    1.577336844788381E-1    1.170764802385696E-1    1.557060420664999E-1    8.301488331308017E-1   -4.711533219483867E-1
 1.770979425361561E8     8.196852884600812E-1   -4.880295219863391E-1    1.162006429151209E-1    1.589460309800858E-1    1.189221728302070E-1    1.568854878122214E-1    8.272986917706582E-1   -4.746478198453306E-1
 1.784491755127131E8     8.164576122010845E-1   -4.917031779064236E-1    1.180868181329356E-1    1.602054510222159E-1    1.208379160756981E-1    1.581064102911314E-1    8.243888778188576E-1   -4.782446244173394E-1
 1.798107182112848E8     8.131184992418341E-1   -4.953113602718673E-1    1.200481847102948E-1    1.614687454002116E-1    1.228264941106763E-1    1.593356920861283E-1    8.213573598090765E-1   -4.818435929275343E-1
 1.811826492936349E8     8.096940045137937E-1   -4.988997785644221E-1    1.220602002925020E-1    1.627295428126830E-1    1.248456771594525E-1    1.605650192716655E-1    8.182184341561702E-1   -4.854126553056110E-1
 1.825650480217040E8     8.061908466514887E-1   -5.024463695693487E-1    1.241487135103200E-1    1.639839565619483E-1    1.269680986460552E-1    1.617816073414923E-1    8.150319744228843E-1   -4.890379052912981E-1
 1.839579942621904E8     8.025912549615004E-1   -5.059769589921183E-1    1.263026912990921E-1    1.652458568347722E-1    1.291364068758507E-1    1.629975510428951E-1    8.117383583939766E-1   -4.926152305215781E-1
 1.853615684911660E8     7.989663038722972E-1   -5.094289786246041E-1    1.285106571707604E-1    1.664996524159205E-1    1.313542022229262E-1    1.642093543252722E-1    8.084409492000810E-1   -4.961808843003085E-1
 1.867758517987237E8     7.952875483577919E-1   -5.128537891165049E-1    1.307461188874378E-1    1.677464008235847E-1    1.335849674583275E-1    1.654187409586117E-1    8.050481657882286E-1   -4.998329189499425E-1
 1.882009258936609E8     7.916526252605299E-1   -5.162500591677345E-1    1.330611015161503E-1    1.690408605812251E-1    1.359044483864934E-1    1.666751899757740E-1    8.015811366387090E-1   -5.034326764461153E-1
 1.896368731082037E8     7.879316707370825E-1   -5.197154449482884E-1    1.354464613075794E-1    1.702921921573576E-1    1.382904292135481E-1    1.679137708393126E-1    7.980132863062156E-1   -5.070729150631632E-1
 1.910837764027621E8     7.841443278665567E-1   -5.233034621417428E-1    1.378858357441277E-1    1.715422624587926E-1    1.407344309192292E-1    1.691344018769807E-1    7.944622394184144E-1   -5.106931979600224E-1
 1.925417193707203E8     7.801727259112309E-1   -5.269313476547373E-1    1.403517839451634E-1    1.727835035979359E-1    1.432073638448242E-1    1.703459691540715E-1    7.908008445824465E-1   -5.143929051731096E-1
 1.940107862432706E8     7.760159073865972E-1   -5.304735270173603E-1    1.428392653859158E-1    1.740570363250382E-1    1.456983466418284E-1    1.715933029655116E-1    7.870157301971851E-1   -5.181293169878400E-1
 1.954910618942780E8     7.717413028703226E-1   -5.339404610637759E-1    1.454070496353921E-1    1.754310017918694E-1    1.482620529202015E-1    1.729403205226719E-1    7.831220981148491E-1   -5.218324456255341E-1
 1.969826318451810E8     7.674669870035212E-1   -5.373825183041653E-1    1.481810324692823E-1    1.768017793411180E-1    1.510228444438756E-1    1.742709746240654E-1    7.792151072961275E-1   -5.255672746763270E-1
 1.984855822699381E8     7.630633675487976E-1   -5.407718597813626E-1    1.509714605753911E-1    1.780908753688208E-1    1.537975259050409E-1    1.755444794634677E-1    7.751488126390522E-1   -5.293718728616118E-1
 2.000000000000000E8     7.586326644524668E-1   -5.441448109893825E-1    1.538194189093481E-1    1.794306169567721E-1    1.566327635519062E-1    1.768657386141199E-1    7.709463983770182E-1   -5.331782140756893E-1
