#  HZ   S   RI   R     50.00 
! Rohde & Schwarz Vector Network Analyzer 
! Rohde-Schwarz,ZNLE6-2Port,1323001256200024,1.71.1.10-23.02.1.238
! Created: UTC 4/11/2025, 5:57:11 AM
! freq[Hz]                re:S11                  im:S11                  re:S21                  im:S21                  re:S12                  im:S12                  re:S22                  im:S22
 1.000000000000000E5     9.435661061341287E-1    4.537997113393459E-2    5.719378542242712E-2   -4.570717632984662E-2    5.727955705755508E-2   -4.574505691185066E-2    9.433820940663552E-1    4.522958332768871E-2
 1.007629862646662E5     9.436684627729200E-1    4.518255944631160E-2    5.707758392935317E-2   -4.552568548175798E-2    5.716332988092473E-2   -4.556478246322617E-2    9.435070755805971E-1    4.505408224546935E-2
 1.015317940097331E5     9.438037955183666E-1    4.500958922969051E-2    5.696597093168410E-2   -4.534602930346155E-2    5.705283051736235E-2   -4.538102702939716E-2    9.435864632650528E-1    4.488059472552733E-2
 1.023064676522963E5     9.438712657338633E-1    4.480995539957056E-2    5.685378682443511E-2   -4.516370950779364E-2    5.693447171591102E-2   -4.520000085474336E-2    9.436878374495600E-1    4.469245283625146E-2
 1.030870519483485E5     9.439497601388502E-1    4.462088206586455E-2    5.673759475491550E-2   -4.498728209579970E-2    5.682358203104922E-2   -4.502251484843800E-2    9.437918999175298E-1    4.452826075455364E-2
 1.038735919953636E5     9.440713098924197E-1    4.444090103933602E-2    5.662417482652404E-2   -4.480957997465665E-2    5.671246814630423E-2   -4.484839849650699E-2    9.439190254068915E-1    4.433895580660099E-2
 1.046661332349037E5     9.441487314819279E-1    4.426415345023767E-2    5.650909128745132E-2   -4.463178020348765E-2    5.659565544324158E-2   -4.467236493460067E-2    9.440326235617639E-1    4.417457943629627E-2
 1.054647214552430E5     9.442921463162458E-1    4.408287425157714E-2    5.639881388309664E-2   -4.445925607131116E-2    5.648132291762063E-2   -4.450017579105958E-2    9.441297439869772E-1    4.399154759925263E-2
 1.062694027940149E5     9.444016124967922E-1    4.391288269612238E-2    5.628561628636763E-2   -4.429058515626260E-2    5.637082105664313E-2   -4.432276232139519E-2    9.442332038172757E-1    4.381963422402717E-2
 1.070802237408760E5     9.444941895068824E-1    4.372753447113006E-2    5.617479436654310E-2   -4.411856225099302E-2    5.625638921221085E-2   -4.415605805641418E-2    9.443555255253403E-1    4.365847696520456E-2
 1.078972311401927E5     9.445867615942254E-1    4.356474635151130E-2    5.605780050556792E-2   -4.394641101495145E-2    5.614086044274746E-2   -4.398638525415045E-2    9.444536722973897E-1    4.349592266187866E-2
 1.087204721937475E5     9.447332466091040E-1    4.338531316307444E-2    5.594676000099182E-2   -4.378163552312939E-2    5.603046929732133E-2   -4.382057370759044E-2    9.445858529282838E-1    4.329831224592972E-2
 1.095499944634658E5     9.448524245671648E-1    4.321785586298774E-2    5.583226335298844E-2   -4.361354570026662E-2    5.591750199948936E-2   -4.365351534550588E-2    9.447040247402285E-1    4.314934974273924E-2
 1.103858458741646E5     9.449427832432090E-1    4.305294726923236E-2    5.571671014594346E-2   -4.344775683018888E-2    5.579957778383896E-2   -4.348389809351507E-2    9.448149811515613E-1    4.296603402450150E-2
 1.112280747163201E5     9.450283485106572E-1    4.288561777692522E-2    5.560304455283047E-2   -4.328180015245356E-2    5.568618579205507E-2   -4.331866456686032E-2    9.449165230276020E-1    4.281511260701566E-2
 1.120767296488583E5     9.451313281335239E-1    4.269975191393352E-2    5.548631168450965E-2   -4.311399050739556E-2    5.557233186525670E-2   -4.315605231962474E-2    9.450350875138954E-1    4.263952429630963E-2
 1.129318597019661E5     9.452458203581899E-1    4.254068955704030E-2    5.537271964166722E-2   -4.295222364850906E-2    5.545200123783541E-2   -4.299267774744601E-2    9.451262490985411E-1    4.247400156872516E-2
 1.137935142799240E5     9.453929383752576E-1    4.240318046596299E-2    5.525867449174494E-2   -4.279278974168087E-2    5.533694560562963E-2   -4.283206841783731E-2    9.452662815946533E-1    4.231210859708018E-2
 1.146617431639607E5     9.455166321785218E-1    4.222960756737124E-2    5.514570222974730E-2   -4.263210752255395E-2    5.522433217392440E-2   -4.266641187048901E-2    9.453677968555942E-1    4.215314980526267E-2
 1.155365965151286E5     9.456431937864159E-1    4.206603315920573E-2    5.503197639048524E-2   -4.247122543394431E-2    5.511106869722983E-2   -4.250932196587197E-2    9.454720064912205E-1    4.199687277904213E-2
 1.164181248772018E5     9.457361557393864E-1    4.190918276226311E-2    5.491651448166791E-2   -4.231825617909016E-2    5.499422540243110E-2   -4.235295253490912E-2    9.455662950693206E-1    4.185095934410842E-2
 1.173063791795965E5     9.458418677126278E-1    4.175489799228720E-2    5.480274139135306E-2   -4.215690585969889E-2    5.487351720480717E-2   -4.219576782371036E-2    9.456973164459819E-1    4.167748354220676E-2
 1.182014107403141E5     9.459795482686608E-1    4.159124075093312E-2    5.468602157102322E-2   -4.200155693902936E-2    5.476574733409350E-2   -4.203731324852353E-2    9.457975718769110E-1    4.153884382507266E-2
 1.191032712689044E5     9.460837237463293E-1    4.143750040851646E-2    5.456907440478863E-2   -4.184544631231043E-2    5.464175759569205E-2   -4.188160845200509E-2    9.458877945609354E-1    4.136183086813493E-2
 1.200120128694542E5     9.461966947621705E-1    4.126812154532369E-2    5.445292534573515E-2   -4.168836251692796E-2    5.452994500659668E-2   -4.172658662241128E-2    9.460485665210461E-1    4.122468085869498E-2
 1.209276880435975E5     9.462720210269613E-1    4.113408950337977E-2    5.433481902480559E-2   -4.153396014630716E-2    5.441363154808651E-2   -4.157488126773915E-2    9.461864314288232E-1    4.106518482602248E-2
 1.218503496935483E5     9.463909439354236E-1    4.095857625876210E-2    5.421904111559611E-2   -4.138157274004112E-2    5.429586811746569E-2   -4.142387182672622E-2    9.462861648261267E-1    4.092889124537028E-2
 1.227800511251578E5     9.465042288191717E-1    4.081019392735290E-2    5.410177129998348E-2   -4.123532122738011E-2    5.417989634112463E-2   -4.127187094485078E-2    9.463951398693922E-1    4.076238295763925E-2
 1.237168460509929E5     9.466058461198652E-1    4.064877093563057E-2    5.398371070844354E-2   -4.108234780025601E-2    5.406593429370463E-2   -4.112157090031599E-2    9.465030311871251E-1    4.062126379863740E-2
 1.246607885934402E5     9.467139969687749E-1    4.051771804951355E-2    5.387054768395375E-2   -4.093302102922822E-2    5.394425175432144E-2   -4.097188054426431E-2    9.466366023844028E-1    4.045445223318907E-2
 1.256119332878327E5     9.468487936307056E-1    4.036020545002778E-2    5.375374401614663E-2   -4.078743475010987E-2    5.382754196561997E-2   -4.082217331778234E-2    9.467367697450747E-1    4.031401264512607E-2
 1.265703350856002E5     9.469298013621675E-1    4.020803870718649E-2    5.363471673916148E-2   -4.063893039581986E-2    5.371280022380389E-2   -4.067952416164595E-2    9.468575670797226E-1    4.016648989353157E-2
 1.275360493574453E5     9.470667218901255E-1    4.005646568783848E-2    5.351881091292261E-2   -4.048887005876264E-2    5.359633464509601E-2   -4.053236611267620E-2    9.469888180146707E-1    4.000296048931860E-2
 1.285091318965405E5     9.471663308119472E-1    3.991019130969556E-2    5.340495663451136E-2   -4.034721041567294E-2    5.347934140621019E-2   -4.038573416863377E-2    9.471130002864920E-1    3.986604287866084E-2
 1.294896389217529E5     9.472909413197379E-1    3.976777173150398E-2    5.328613958965051E-2   -4.020393982068135E-2    5.336221947802883E-2   -4.023759994005068E-2    9.471910375409789E-1    3.973205384726469E-2
 1.304776270808914E5     9.474239679323981E-1    3.963634157065123E-2    5.317298296238789E-2   -4.005971628169181E-2    5.324111239869175E-2   -4.009543419320347E-2    9.473607428955998E-1    3.957812349795271E-2
 1.314731534539810E5     9.475533501734953E-1    3.948665416762120E-2    5.305847162346962E-2   -3.991824286876360E-2    5.312513981506237E-2   -3.995589526795016E-2    9.474509304278927E-1    3.944795561038970E-2
 1.324762755565583E5     9.476470550167708E-1    3.935757167872204E-2    5.293687187702066E-2   -3.977696395421523E-2    5.300882486105343E-2   -3.981272278272636E-2    9.475549165084430E-1    3.929056993373654E-2
 1.334870513429962E5     9.477572035283004E-1    3.917942542136538E-2    5.282049121575258E-2   -3.963179930033438E-2    5.289579274349160E-2   -3.967139821741242E-2    9.476929092707710E-1    3.915679781656087E-2
 1.345055392098512E5     9.478846397536267E-1    3.905677200128822E-2    5.270189432726972E-2   -3.949487438984681E-2    5.277278636372182E-2   -3.952823882924029E-2    9.477651888703870E-1    3.902553665487881E-2
 1.355317979992373E5     9.480376706890923E-1    3.892027700724013E-2    5.258591400709815E-2   -3.935680345497387E-2    5.265289140449977E-2   -3.939023834399921E-2    9.479109220218430E-1    3.889433768948074E-2
 1.365658870022265E5     9.481330049231071E-1    3.878285820338725E-2    5.246501811273954E-2   -3.921488729244969E-2    5.253426607118857E-2   -3.924915193157706E-2    9.480179566882232E-1    3.874122737222481E-2
 1.376078659622731E5     9.482603275450669E-1    3.864179062070241E-2    5.234955815124452E-2   -3.907728587842377E-2    5.241514462538539E-2   -3.911287990943405E-2    9.481318092455692E-1    3.859267674639794E-2
 1.386577950786655E5     9.483992894820449E-1    3.848903379407029E-2    5.223237442841226E-2   -3.894153768020970E-2    5.229741419661063E-2   -3.897973321473400E-2    9.482569393744718E-1    3.844832715482248E-2
 1.397157350100044E5     9.484718007055044E-1    3.834265866158169E-2    5.210863597555739E-2   -3.880440004209483E-2    5.218028017721225E-2   -3.884161631821641E-2    9.483619298973923E-1    3.831670243725318E-2
 1.407817468777081E5     9.485808345779456E-1    3.820110966160281E-2    5.199242858405564E-2   -3.866905404453046E-2    5.206087538770749E-2   -3.870604734194585E-2    9.484737113477980E-1    3.817287312487187E-2
 1.418558922695422E5     9.486895005922802E-1    3.807245565371890E-2    5.186964974295129E-2   -3.853326180144541E-2    5.193749169265689E-2   -3.857198502883563E-2    9.486073925185884E-1    3.805058544382060E-2
 1.429382332431784E5     9.488020092504484E-1    3.793504719245352E-2    5.175284208868990E-2   -3.839617686278297E-2    5.182429475253155E-2   -3.843622492148989E-2    9.487430677839730E-1    3.792895056958169E-2
 1.440288323297804E5     9.489478519945611E-1    3.779990662039123E-2    5.163391588489316E-2   -3.826926009213855E-2    5.170364743611482E-2   -3.830116665436790E-2    9.488769381339696E-1    3.778894814124998E-2
 1.451277525376154E5     9.490458929317417E-1    3.766649564276578E-2    5.151690461014374E-2   -3.813221128023465E-2    5.158159478783766E-2   -3.817332331759423E-2    9.489699420586782E-1    3.765819742915585E-2
 1.462350573556962E5     9.491275113751438E-1    3.753322019775088E-2    5.139617688099482E-2   -3.799990659654953E-2    5.146832167652556E-2   -3.803869826661581E-2    9.490926870243733E-1    3.753045557195468E-2
 1.473508107574468E5     9.492474239404879E-1    3.741260982227849E-2    5.127461882940224E-2   -3.786852473957286E-2    5.134501479640232E-2   -3.790539766791986E-2    9.492040278217646E-1    3.738292983039114E-2
 1.484750772044004E5     9.493682029404336E-1    3.727279324742885E-2    5.116060833154112E-2   -3.773820118093918E-2    5.122792423738979E-2   -3.777718789910331E-2    9.493185711117190E-1    3.726446618478346E-2
 1.496079216499225E5     9.495071245232350E-1    3.715250637551125E-2    5.103925848204750E-2   -3.760836434302752E-2    5.110459992437118E-2   -3.764732893231972E-2    9.494253492426032E-1    3.713628050812373E-2
 1.507494095429637E5     9.496298795330002E-1    3.702219923974696E-2    5.092259579668031E-2   -3.747790668437191E-2    5.098696463125838E-2   -3.752029995690624E-2    9.495620540343759E-1    3.700926060048526E-2
 1.518996068318418E5     9.497103230963768E-1    3.687885281990178E-2    5.080186831696586E-2   -3.735287846610029E-2    5.086888812163762E-2   -3.738855272398670E-2    9.496850264849308E-1    3.685788087021103E-2
 1.530585799680507E5     9.498275803010462E-1    3.676549875347632E-2    5.068141729776929E-2   -3.722213485232857E-2    5.074905858930649E-2   -3.726454152259009E-2    9.497799098121449E-1    3.673358532566920E-2
 1.542263959101001E5     9.499845639268486E-1    3.662826781120516E-2    5.056356950515800E-2   -3.709752068467087E-2    5.062665973307088E-2   -3.713474445885177E-2    9.499086211528484E-1    3.660764092011716E-2
 1.554031221273835E5     9.500830673516858E-1    3.650489240821141E-2    5.044067353225968E-2   -3.697030587021665E-2    5.050555799698217E-2   -3.700781672168114E-2    9.500047551821057E-1    3.646426396023916E-2
 1.565888266040779E5     9.502519962314373E-1    3.637770293904111E-2    5.032439126435637E-2   -3.684326184034358E-2    5.038968314227778E-2   -3.688063053409382E-2    9.501201738280872E-1    3.634913362956394E-2
 1.577835778430689E5     9.503641343515158E-1    3.623611721790584E-2    5.020767385530904E-2   -3.671981857258508E-2    5.026918129422295E-2   -3.675313788294204E-2    9.502093473588842E-1    3.621833108892615E-2
 1.589874448699104E5     9.504454053792758E-1    3.611194530615271E-2    5.008620850431166E-2   -3.659494166923069E-2    5.014805322695655E-2   -3.663008497550578E-2    9.503957952182132E-1    3.610533520840360E-2
 1.602004972368116E5     9.505608962349393E-1    3.600221240923324E-2    4.996584669921023E-2   -3.647486227775402E-2    5.002904142943206E-2   -3.650741755735151E-2    9.505062030742880E-1    3.596557091830511E-2
 1.614228050266550E5     9.506836480330451E-1    3.588713901493600E-2    4.984384660372540E-2   -3.634610348210879E-2    4.990827046492684E-2   -3.638424429873875E-2    9.505989036946592E-1    3.585716435159109E-2
 1.626544388570473E5     9.508125849609563E-1    3.574599157201895E-2    4.972307140201653E-2   -3.622392113029254E-2    4.978499986589049E-2   -3.625962832971480E-2    9.507180305516492E-1    3.570133013287586E-2
 1.638954698843964E5     9.509378506609689E-1    3.561923960843873E-2    4.959937671569450E-2   -3.609782819376267E-2    4.966954855649411E-2   -3.613815755047670E-2    9.508392764182534E-1    3.559974844367813E-2
 1.651459698080244E5     9.510605453217074E-1    3.547946002515562E-2    4.948139576279748E-2   -3.597732414878398E-2    4.954836609580870E-2   -3.601589267505919E-2    9.509847804575594E-1    3.545972690539103E-2
 1.664060108743095E5     9.511729707107633E-1    3.536051998695815E-2    4.935866544394145E-2   -3.585652024122631E-2    4.942264811974759E-2   -3.589287185712269E-2    9.510917767624051E-1    3.534785514536436E-2
 1.676756658808590E5     9.512507056602376E-1    3.523953867739931E-2    4.924038645668594E-2   -3.573394226467372E-2    4.930494901937137E-2   -3.577190822233650E-2    9.512127689652764E-1    3.523222585348117E-2
 1.689550081807175E5     9.513718751253610E-1    3.512355846919887E-2    4.911747934640906E-2   -3.561516169931549E-2    4.918114165344654E-2   -3.565410178129988E-2    9.513294508805079E-1    3.511262559269503E-2
 1.702441116866020E5     9.515279907330589E-1    3.498872069387949E-2    4.900200738478234E-2   -3.549472147399601E-2    4.906198581636322E-2   -3.553160988255181E-2    9.514439138255596E-1    3.498843087786908E-2
 1.715430508751738E5     9.516516666555501E-1    3.488662435253057E-2    4.888168242142817E-2   -3.537491408104240E-2    4.894462168050858E-2   -3.541465601666057E-2    9.515764959472955E-1    3.487403164908386E-2
 1.728519007913403E5     9.517631141026118E-1    3.475812840481400E-2    4.875698195939398E-2   -3.525645300200736E-2    4.882563346784415E-2   -3.529154729053431E-2    9.516778801318169E-1    3.475440021111478E-2
 1.741707370525927E5     9.519110640862339E-1    3.462984399393035E-2    4.864139905418340E-2   -3.513994542604709E-2    4.870236521811019E-2   -3.517486230614222E-2    9.517873104005778E-1    3.462715727972366E-2
 1.754996358533718E5     9.520425247633857E-1    3.453169314730568E-2    4.852085755388652E-2   -3.501607871146499E-2    4.857926260491980E-2   -3.505689768375154E-2    9.519137735856772E-1    3.450143838999734E-2
 1.768386739694722E5     9.521517334007501E-1    3.440869602991012E-2    4.840021421916543E-2   -3.490082602000648E-2    4.846076755344990E-2   -3.493725645686348E-2    9.520274240246874E-1    3.439306646644606E-2
 1.781879287624771E5     9.522766104825039E-1    3.427604742661256E-2    4.827874813634548E-2   -3.478919184163463E-2    4.834029577837354E-2   -3.482040937981590E-2    9.521583930372625E-1    3.426707219758316E-2
 1.795474781842276E5     9.523832887347993E-1    3.416435072086552E-2    4.815981806606048E-2   -3.466752616593202E-2    4.821616735954828E-2   -3.470205276185263E-2    9.522511258932939E-1    3.415429685569074E-2
 1.809174007813277E5     9.524790086569256E-1    3.404564623611285E-2    4.804017391739472E-2   -3.455317122720771E-2    4.809684029666763E-2   -3.458972461360092E-2    9.523415949007472E-1    3.403999413675824E-2
 1.822977756996804E5     9.526051737980937E-1    3.390928873285920E-2    4.792109809685110E-2   -3.443730705211956E-2    4.797496878859411E-2   -3.447014075190005E-2    9.524407225060054E-1    3.390629628007550E-2
 1.836886826890609E5     9.527417933776259E-1    3.380947125003324E-2    4.780096814053216E-2   -3.432264467338200E-2    4.785572910971183E-2   -3.435518780643895E-2    9.525719761239622E-1    3.379037730520087E-2
 1.850902021077247E5     9.528558176477305E-1    3.368161969359233E-2    4.767680957581383E-2   -3.420641721734937E-2    4.773407900712119E-2   -3.424233055903683E-2    9.526988473159498E-1    3.368196700205305E-2
 1.865024149270491E5     9.529651764313214E-1    3.355255815781128E-2    4.756074568928841E-2   -3.409603375272934E-2    4.761445244016631E-2   -3.412526373444082E-2    9.528252749336787E-1    3.357078378007008E-2
 1.879254027362132E5     9.530968448019331E-1    3.345748201490496E-2    4.743580263797562E-2   -3.398144206521932E-2    4.749318429218560E-2   -3.401264470923643E-2    9.529883226371674E-1    3.345498260782494E-2
 1.893592477469092E5     9.532296229589891E-1    3.329723963643417E-2    4.731023481523877E-2   -3.387686992292261E-2    4.737003364391362E-2   -3.390622695909082E-2    9.530777704794031E-1    3.332823762580549E-2
 1.908040327980933E5     9.533254978726599E-1    3.321803033761022E-2    4.719717667055284E-2   -3.374876296050008E-2    4.725203855931486E-2   -3.378319291952029E-2    9.532210808078075E-1    3.322369654711524E-2
 1.922598413607715E5     9.534168833238790E-1    3.310166807707276E-2    4.707425411251146E-2   -3.363661350139233E-2    4.713186583644709E-2   -3.367304990415826E-2    9.533528424835273E-1    3.310249749819964E-2
 1.937267575428232E5     9.535298889762260E-1    3.297592085184670E-2    4.695322855227381E-2   -3.352125497022321E-2    4.701227033841953E-2   -3.355639724887825E-2    9.534526337995638E-1    3.299437505227030E-2
 1.952048660938581E5     9.536444521866548E-1    3.287851622260934E-2    4.683695268519773E-2   -3.340899949297373E-2    4.689054718746082E-2   -3.344414849257785E-2    9.535675098094749E-1    3.288350441140324E-2
 1.966942524101142E5     9.537891256204090E-1    3.274978916858989E-2    4.671429281778481E-2   -3.329999337627545E-2    4.677111348546886E-2   -3.333355813819788E-2    9.537017356604376E-1    3.276934589494320E-2
 1.981950025393913E5     9.539099671590452E-1    3.263868257155550E-2    4.659516915227103E-2   -3.318872055765871E-2    4.665268266177239E-2   -3.322133037746722E-2    9.538113038732499E-1    3.263177392050378E-2
 1.997072031860212E5     9.540400604636694E-1    3.254538980312720E-2    4.647452681416207E-2   -3.307771791926321E-2    4.653122635656840E-2   -3.310839003559508E-2    9.539352867417190E-1    3.252887503488692E-2
 2.012309417158795E5     9.541524530453814E-1    3.240867141310055E-2    4.635062182793350E-2   -3.296427925940811E-2    4.641255409274794E-2   -3.299600472047846E-2    9.540472988504228E-1    3.241739606853796E-2
 2.027663061614301E5     9.542870287717732E-1    3.230427750900162E-2    4.623570600152312E-2   -3.285622170854190E-2    4.629093705158634E-2   -3.288898462191282E-2    9.541715445378853E-1    3.231576560078481E-2
 2.043133852268128E5     9.543836646679672E-1    3.220841154927197E-2    4.611617351899067E-2   -3.274429454376641E-2    4.617049739051918E-2   -3.277808952470527E-2    9.542620548716531E-1    3.218426510611775E-2
 2.058722682929675E5     9.545051968517967E-1    3.211142562531577E-2    4.599827601778461E-2   -3.263395756292532E-2    4.605019606268736E-2   -3.266919505243614E-2    9.543997314706473E-1    3.208837738568366E-2
 2.074430454227995E5     9.546435379663433E-1    3.198986947248697E-2    4.587946682751898E-2   -3.252464303197267E-2    4.592635981919771E-2   -3.255792627771090E-2    9.545186207458946E-1    3.196753853085538E-2
 2.090258073663807E5     9.547546677648669E-1    3.186311019674113E-2    4.575886573817489E-2   -3.241234266878863E-2    4.580773056202257E-2   -3.244846747587448E-2    9.546443737724380E-1    3.185221754378723E-2
 2.106206455661938E5     9.548941105568803E-1    3.175240554631112E-2    4.564086125203629E-2   -3.230881918167648E-2    4.568834631960587E-2   -3.233583230060524E-2    9.547751698428233E-1    3.175872892520739E-2
 2.122276521624151E5     9.549711081926191E-1    3.164903762266114E-2    4.551971137337985E-2   -3.219872213547721E-2    4.556670706348809E-2   -3.222414252378127E-2    9.548510701292970E-1    3.164382327675743E-2
 2.138469199982374E5     9.550911903854205E-1    3.152973608902546E-2    4.539939315010662E-2   -3.208742238472100E-2    4.544700853289611E-2   -3.211935735560453E-2    9.549993496785639E-1    3.152252356244828E-2
 2.154785426252357E5     9.552399047578020E-1    3.142233627015666E-2    4.528079861402286E-2   -3.198027096497064E-2    4.533288224096162E-2   -3.201173711024385E-2    9.551270078027052E-1    3.141683954954330E-2
 2.171226143087691E5     9.553354280758175E-1    3.130209879151212E-2    4.515866183683428E-2   -3.187237331403620E-2    4.521125563636275E-2   -3.190362303507916E-2    9.552347348012303E-1    3.129985126400524E-2
 2.187792300334291E5     9.554616606435281E-1    3.119567894446829E-2    4.504180701984413E-2   -3.176279420349543E-2    4.509167497741515E-2   -3.179528650649191E-2    9.553426930793208E-1    3.118410897608027E-2
 2.204484855085266E5     9.555385713341996E-1    3.108361200880847E-2    4.492297058917798E-2   -3.165673631038755E-2    4.497415322779309E-2   -3.168920437393617E-2    9.554693879911174E-1    3.105464948785655E-2
 2.221304771736209E5     9.557031678820012E-1    3.098020630306406E-2    4.480117378319246E-2   -3.155029350555778E-2    4.485549597526348E-2   -3.157688716368671E-2    9.555662760310787E-1    3.096365544806351E-2
 2.238253022040931E5     9.558256185368629E-1    3.087315341138796E-2    4.468240163647090E-2   -3.144053228694893E-2    4.473980458183067E-2   -3.147309331455072E-2    9.557281955474835E-1    3.086302926663265E-2
 2.255330585167579E5     9.559190887494086E-1    3.075388505702855E-2    4.456519996100242E-2   -3.133445042182242E-2    4.462134066744489E-2   -3.136629304232375E-2    9.558184735197166E-1    3.073302862738302E-2
 2.272538447755223E5     9.560482837369395E-1    3.065976256327121E-2    4.444273930469621E-2   -3.122236705381824E-2    4.449654071653098E-2   -3.125612331039707E-2    9.559639071032302E-1    3.063060920091791E-2
 2.289877603970853E5     9.561543876328104E-1    3.054558871619604E-2    4.432405251408736E-2   -3.111887952707159E-2    4.437745837612329E-2   -3.115091729997913E-2    9.560407765890484E-1    3.052979029222214E-2
 2.307349055566813E5     9.562682048364332E-1    3.044491414958720E-2    4.420758392361300E-2   -3.101449475333230E-2    4.426409318675519E-2   -3.104318358407781E-2    9.561701932047483E-1    3.041800293102468E-2
 2.324953811938693E5     9.563911114110856E-1    3.032550686359882E-2    4.409182319960683E-2   -3.090483368195467E-2    4.414319045009295E-2   -3.093992950907710E-2    9.562986090088751E-1    3.030582581274089E-2
 2.342692890183618E5     9.565124268511555E-1    3.021181955381610E-2    4.397281530473361E-2   -3.079792128456638E-2    4.402627494817292E-2   -3.082993336903998E-2    9.564079125533218E-1    3.020584564188702E-2
 2.360567315159030E5     9.566472798173358E-1    3.011149232850952E-2    4.385560682985631E-2   -3.069295713221533E-2    4.390826114291484E-2   -3.072382785381584E-2    9.565040261580736E-1    3.009539463099782E-2
 2.378578119541888E5     9.567779894653078E-1    2.999327331153273E-2    4.373653251902496E-2   -3.058698052250531E-2    4.378854919000638E-2   -3.061883100041771E-2    9.566132875111244E-1    2.998433863895370E-2
 2.396726343888348E5     9.568638757279853E-1    2.988432702694586E-2    4.361604892325611E-2   -3.048262287825933E-2    4.367444926458166E-2   -3.051534860417468E-2    9.567037780327713E-1    2.988188537761847E-2
 2.415013036693852E5     9.569884445344025E-1    2.978321424967099E-2    4.350034975693768E-2   -3.037470683318146E-2    4.356035098189441E-2   -3.040809465753137E-2    9.568507340970104E-1    2.979051280090663E-2
 2.433439254453724E5     9.570879244623638E-1    2.967736988442148E-2    4.338412912244691E-2   -3.027107413797247E-2    4.343857632612619E-2   -3.030089966618612E-2    9.569562945905151E-1    2.965946062482533E-2
 2.452006061724201E5     9.572061232312157E-1    2.955573427344362E-2    4.326924337545544E-2   -3.016777402454795E-2    4.332667884509149E-2   -3.019799331071856E-2    9.571257231089704E-1    2.956129471204872E-2
 2.470714531183934E5     9.573043397171818E-1    2.945254212146947E-2    4.315613461126966E-2   -3.006050020503073E-2    4.320684562511323E-2   -3.009577779563232E-2    9.572049020486009E-1    2.945217689204543E-2
 2.489565743695979E5     9.574538580638802E-1    2.934772597268942E-2    4.303736715748670E-2   -2.995715996511248E-2    4.308801678479323E-2   -2.999003566479073E-2    9.573417596568784E-1    2.934164557768236E-2
 2.508560788370214E5     9.575757058669986E-1    2.923121368704826E-2    4.292168726373212E-2   -2.985133294130366E-2    4.297212914570862E-2   -2.988497870591559E-2    9.574378140068346E-1    2.925668877943888E-2
 2.527700762626280E5     9.576464824575072E-1    2.912271304769166E-2    4.280615092873394E-2   -2.974839324340740E-2    4.285657956048381E-2   -2.978076541682079E-2    9.575532966854997E-1    2.915367359951970E-2
 2.546986772256976E5     9.577556239429312E-1    2.900177819790170E-2    4.269243456611284E-2   -2.963993018857751E-2    4.274051217303798E-2   -2.967646155940301E-2    9.576728092918803E-1    2.902565191795577E-2
 2.566419931492161E5     9.578889736557552E-1    2.890440720384159E-2    4.257714503645389E-2   -2.953732284578926E-2    4.262927674855353E-2   -2.957037365921548E-2    9.577800614322349E-1    2.891893678925916E-2
 2.586001363063102E5     9.580018418154402E-1    2.879337723275132E-2    4.245922261645251E-2   -2.943319301917549E-2    4.251054059764574E-2   -2.946851004361829E-2    9.578639619816169E-1    2.881126186272490E-2
 2.605732198267354E5     9.580774667505774E-1    2.869509637804926E-2    4.234577240453347E-2   -2.933338789986200E-2    4.239773788766857E-2   -2.936342579936755E-2    9.580122714191894E-1    2.870102335781930E-2
 2.625613577034118E5     9.582192808921822E-1    2.859031250118520E-2    4.223298468963881E-2   -2.922431115538060E-2    4.228617061839352E-2   -2.926518422011313E-2    9.581072772436192E-1    2.859857942804152E-2
 2.645646647990093E5     9.583004306751121E-1    2.847686023876507E-2    4.211556008623152E-2   -2.912045560570532E-2    4.216868902142544E-2   -2.915433857400925E-2    9.581957198916237E-1    2.849763742667433E-2
 2.665832568525859E5     9.583807598121132E-1    2.837908702508665E-2    4.200624019878230E-2   -2.901745276602325E-2    4.205870797138546E-2   -2.905363156644784E-2    9.583219179076509E-1    2.838711240413361E-2
 2.686172504862709E5     9.584931217899526E-1    2.827423203376727E-2    4.189157501984622E-2   -2.891605482820255E-2    4.194098451484213E-2   -2.894718849568960E-2    9.584218327582646E-1    2.829146953515592E-2
 2.706667632120051E5     9.586123843755479E-1    2.816404364756828E-2    4.178014041429338E-2   -2.881553912037835E-2    4.182656739169643E-2   -2.884731369509998E-2    9.585348792513478E-1    2.818168499760568E-2
 2.727319134383292E5     9.586996655916411E-1    2.805801214760874E-2    4.166588179317630E-2   -2.870648628778099E-2    4.171830750750356E-2   -2.874241735502359E-2    9.587002622301920E-1    2.807420512904375E-2
 2.748128204772244E5     9.588234159821617E-1    2.795444284259135E-2    4.155363022852519E-2   -2.860457962286841E-2    4.160332583053179E-2   -2.863868073323069E-2    9.587634455512983E-1    2.796890285894317E-2
 2.769096045510074E5     9.589853150519041E-1    2.786123926351087E-2    4.144776935751096E-2   -2.850304495079094E-2    4.148941107240565E-2   -2.853934975593280E-2    9.588685278536232E-1    2.786358145981567E-2
 2.790223867992730E5     9.590875342185253E-1    2.776513512323399E-2    4.133408311966444E-2   -2.840151531594381E-2    4.138168898057226E-2   -2.843780736976676E-2    9.590117212341258E-1    2.776391296497513E-2
 2.811512892858952E5     9.591768191887444E-1    2.764529819611213E-2    4.122294359028873E-2   -2.829763227822919E-2    4.126950685936925E-2   -2.833760076605605E-2    9.591200004271319E-1    2.764871361537588E-2
 2.832964350060779E5     9.592871187580295E-1    2.754675260985726E-2    4.111368895027187E-2   -2.819642018194199E-2    4.115755537533420E-2   -2.823067255797137E-2    9.591702123850129E-1    2.755273582932433E-2
 2.854579478934632E5     9.593963222664608E-1    2.744793584669655E-2    4.100156013385067E-2   -2.809632528983283E-2    4.104844110883876E-2   -2.812903332870344E-2    9.592978875335532E-1    2.744123130490433E-2
 2.876359528272883E5     9.595047980972429E-1    2.731998582138023E-2    4.089537092625432E-2   -2.799630527372110E-2    4.093641140259485E-2   -2.802674435041794E-2    9.594163418136715E-1    2.733729404027239E-2
 2.898305756396023E5     9.595975875125350E-1    2.722727179233337E-2    4.078407741293232E-2   -2.789317733776079E-2    4.082839330513218E-2   -2.792706483871547E-2    9.595559701184946E-1    2.723613279740823E-2
 2.920419431225354E5     9.596873536087602E-1    2.712696637747390E-2    4.067787355882663E-2   -2.779288244955272E-2    4.072036772754686E-2   -2.782961629052455E-2    9.596662893163196E-1    2.713511169261727E-2
 2.942701830356239E5     9.597749140721848E-1    2.701372330402569E-2    4.057156617367670E-2   -2.769133549555896E-2    4.061627959175743E-2   -2.772556061561538E-2    9.597653612567063E-1    2.703088542418437E-2
 2.965154241131938E5     9.599248010609548E-1    2.691048825942806E-2    4.046240167890956E-2   -2.758947608684215E-2    4.050462617140993E-2   -2.762686003520635E-2    9.598864658426672E-1    2.693188196478367E-2
 2.987777960717941E5     9.600142400405240E-1    2.681392442709513E-2    4.035443873299707E-2   -2.749117412555669E-2    4.039722698049172E-2   -2.752261613928193E-2    9.599980692773424E-1    2.681812575462353E-2
 3.010574296176943E5     9.601688393247176E-1    2.672007708793938E-2    4.024969334769924E-2   -2.738928472351542E-2    4.028987522562873E-2   -2.742175906445042E-2    9.600834053304166E-1    2.672271245576911E-2
 3.033544564544337E5     9.602304633213863E-1    2.660482574002236E-2    4.014228029565431E-2   -2.729174390307229E-2    4.018539172827564E-2   -2.732687531096903E-2    9.601934072389799E-1    2.661517938335632E-2
 3.056690092904338E5     9.603528063914653E-1    2.650947517348199E-2    4.003530094960105E-2   -2.719220791541577E-2    4.007895059032087E-2   -2.722647783342062E-2    9.603127957816567E-1    2.651716891853976E-2
 3.080012218466610E5     9.604878592740446E-1    2.641074209295253E-2    3.993353648883806E-2   -2.709431487472848E-2    3.997301110999086E-2   -2.712715299440126E-2    9.603760259805173E-1    2.641100783034850E-2
 3.103512288643551E5     9.605847971852390E-1    2.630615782117592E-2    3.983120426164181E-2   -2.699416557882883E-2    3.986793166666428E-2   -2.702815489522650E-2    9.605018655287836E-1    2.629200974681962E-2
 3.127191661128128E5     9.606695512599643E-1    2.620857444410990E-2    3.972299939991867E-2   -2.689532093631486E-2    3.976460590289319E-2   -2.692687817815475E-2    9.606493164896824E-1    2.620275260460507E-2
 3.151051703972316E5     9.607791050539085E-1    2.610984437759256E-2    3.962005178550525E-2   -2.679750538144592E-2    3.965533244020518E-2   -2.683073827975300E-2    9.607068677473787E-1    2.610996558416710E-2
 3.175093795666154E5     9.608648338324536E-1    2.600016023872608E-2    3.951485352743254E-2   -2.670105451823915E-2    3.955250230318244E-2   -2.673107542221988E-2    9.608002530700513E-1    2.600779435741564E-2
 3.199319325217355E5     9.609542945123062E-1    2.589055314342843E-2    3.941344178299931E-2   -2.660469811879434E-2    3.944905761934297E-2   -2.663366242056476E-2    9.609009035049778E-1    2.591270819628015E-2
 3.223729692231574E5     9.610374105292206E-1    2.580020621221512E-2    3.930812567734181E-2   -2.650429837417328E-2    3.934402541809338E-2   -2.653347143195888E-2    9.610087082443123E-1    2.578987871102613E-2
 3.248326306993267E5     9.611496927133860E-1    2.568530806544105E-2    3.920768141852542E-2   -2.640632390484405E-2    3.924316725974312E-2   -2.643487975598194E-2    9.611472778168644E-1    2.571910509811626E-2
 3.273110590547157E5     9.612236278874702E-1    2.558784814914843E-2    3.910805427118120E-2   -2.631287497883420E-2    3.913845317722566E-2   -2.634338570551186E-2    9.612295123293266E-1    2.559927706215789E-2
 3.298083974780366E5     9.613788165016536E-1    2.549719338267153E-2    3.900212640775922E-2   -2.621294731780134E-2    3.903800679494274E-2   -2.624391609231571E-2    9.612977442916295E-1    2.549718032306990E-2
 3.323247902505097E5     9.614674781810640E-1    2.539390071852032E-2    3.890308415059292E-2   -2.611896236563298E-2    3.893898918836045E-2   -2.614620833800615E-2    9.614078704512953E-1    2.540694251747158E-2
 3.348603827542018E5     9.615589062850368E-1    2.530388703814400E-2    3.880392473922380E-2   -2.602553001320196E-2    3.883869589388914E-2   -2.605328665296171E-2    9.615244244856090E-1    2.529394406721198E-2
 3.374153214804250E5     9.616342053094709E-1    2.518923478797090E-2    3.870258277675000E-2   -2.592760534552374E-2    3.873503762996038E-2   -2.595519040343570E-2    9.616296361198146E-1    2.517834052606810E-2
 3.399897540381991E5     9.617410208797632E-1    2.509168329715749E-2    3.860085000759070E-2   -2.583543754345319E-2    3.863491933511266E-2   -2.586388347285424E-2    9.617150441083067E-1    2.508875614802433E-2
 3.425838291627830E5     9.618190287874584E-1    2.498928491432295E-2    3.850356416925015E-2   -2.573747061517451E-2    3.853362665614153E-2   -2.576714810984838E-2    9.618244214803370E-1    2.499253302396710E-2
 3.451976967242625E5     9.619210141037887E-1    2.489454777039860E-2    3.840227397284138E-2   -2.564473629573563E-2    3.843608460368689E-2   -2.567288095194909E-2    9.619156837852720E-1    2.490236746163106E-2
 3.478315077362126E5     9.620697555817244E-1    2.479625549656921E-2    3.830648676176617E-2   -2.554912883891970E-2    3.833797800780001E-2   -2.557904082336580E-2    9.620454068019352E-1    2.480172035503651E-2
 3.504854143644205E5     9.621345872523169E-1    2.468990986794373E-2    3.820395173039828E-2   -2.545618269391736E-2    3.823889104234974E-2   -2.548286020118034E-2    9.621652083435296E-1    2.470260900808353E-2
 3.531595699356794E5     9.622598814755939E-1    2.459458203803578E-2    3.810938230130132E-2   -2.536094482826775E-2    3.813566460896163E-2   -2.538954821425826E-2    9.622605033755230E-1    2.461564045581006E-2
 3.558541289466428E5     9.623526428189056E-1    2.449677376923470E-2    3.801257064248280E-2   -2.527188214581911E-2    3.804104369940480E-2   -2.529570928632299E-2    9.623369654826447E-1    2.449759176760417E-2
 3.585692470727532E5     9.624510826168937E-1    2.441032078298269E-2    3.791283070408583E-2   -2.517891571778950E-2    3.794145508656698E-2   -2.520294477641103E-2    9.624367169213097E-1    2.441342482015022E-2
 3.613050811772345E5     9.625559631775831E-1    2.430457088557055E-2    3.781558362445435E-2   -2.508713191618393E-2    3.784340196674636E-2   -2.510934026827652E-2    9.625386965593746E-1    2.430331350321347E-2
 3.640617893201578E5     9.626486265277611E-1    2.421115128911741E-2    3.771917711178732E-2   -2.499161694222939E-2    3.774362415118865E-2   -2.501692405543554E-2    9.626123400722705E-1    2.421544576097110E-2
 3.668395307675686E5     9.627764371531473E-1    2.411294153732477E-2    3.761879507660121E-2   -2.490446647191640E-2    3.764823914177528E-2   -2.492585938411602E-2    9.626678988381334E-1    2.411907627237975E-2
 3.696384660006910E5     9.628686075539745E-1    2.401139890396408E-2    3.752488563440807E-2   -2.481163702845911E-2    3.755428192268414E-2   -2.483263548903776E-2    9.628197610202610E-1    2.401531657807372E-2
 3.724587567251991E5     9.629782468361565E-1    2.392361376427179E-2    3.742853071871265E-2   -2.472234616187005E-2    3.745854965602794E-2   -2.474201528193863E-2    9.628505915853727E-1    2.392036959774528E-2
 3.753005658805580E5     9.630727872227429E-1    2.382685684753908E-2    3.733340293376568E-2   -2.463222992405511E-2    3.736373057632684E-2   -2.465348853360708E-2    9.629461237177849E-1    2.383095429564657E-2
 3.781640576494411E5     9.631492565783227E-1    2.373766990782429E-2    3.723998361963717E-2   -2.454434773089329E-2    3.726502872489362E-2   -2.456140944012363E-2    9.630773501434867E-1    2.373081061046931E-2
 3.810493974672107E5     9.632397215375843E-1    2.364245393849072E-2    3.714281448607546E-2   -2.445485997413920E-2    3.716998397024338E-2   -2.446824008985625E-2    9.631525587293789E-1    2.365326105588194E-2
 3.839567520314787E5     9.633323728057904E-1    2.353949056708659E-2    3.705037874659621E-2   -2.436268632496903E-2    3.707809247785664E-2   -2.438084183523188E-2    9.632460881843776E-1    2.354465177423378E-2
 3.868862893117373E5     9.633946395370965E-1    2.343680166085837E-2    3.695379835997255E-2   -2.427322237473181E-2    3.698019691914285E-2   -2.429443185819483E-2    9.633911680606952E-1    2.344544903967785E-2
 3.898381785590618E5     9.634978523551940E-1    2.335526874090671E-2    3.686220384693342E-2   -2.418915476866867E-2    3.688785889384333E-2   -2.420064803743905E-2    9.634332787139802E-1    2.336299592056000E-2
 3.928125903158922E5     9.636441997980091E-1    2.326013781600566E-2    3.676840196206417E-2   -2.409980561171277E-2    3.679340042320069E-2   -2.411322590511842E-2    9.635083984289888E-1    2.325364647122312E-2
 3.958096964258819E5     9.637434877403769E-1    2.316227681174595E-2    3.667281805480515E-2   -2.400973426553055E-2    3.670145380254445E-2   -2.402739248942376E-2    9.635925124974694E-1    2.315975037867517E-2
 3.988296700438284E5     9.638159954469907E-1    2.307031862680288E-2    3.657921729511818E-2   -2.392201098788166E-2    3.660870580761900E-2   -2.394237604209748E-2    9.637093476393670E-1    2.306427000042601E-2
 4.018726856456762E5     9.639056367126033E-1    2.296993354087074E-2    3.648693215563518E-2   -2.383679948020560E-2    3.651832150316332E-2   -2.385083155151781E-2    9.638052897710963E-1    2.297292640133812E-2
 4.049389190385970E5     9.640032573453334E-1    2.289942832143910E-2    3.639318182526200E-2   -2.375192198665526E-2    3.642073705887641E-2   -2.376513905245918E-2    9.639058303732408E-1    2.287700777646626E-2
 4.080285473711492E5     9.640634043345914E-1    2.279801675602557E-2    3.629642493244742E-2   -2.366201199796544E-2    3.632848733247059E-2   -2.367555584624352E-2    9.640209255429543E-1    2.279209720006543E-2
 4.111417491435081E5     9.641440739442989E-1    2.270611084580995E-2    3.620350302988987E-2   -2.357312985709976E-2    3.623470196365374E-2   -2.358934707317266E-2    9.641060927825722E-1    2.270316487467767E-2
 4.142787042177814E5     9.642155098940479E-1    2.260552959439484E-2    3.611460640423867E-2   -2.348788663964990E-2    3.614500814514058E-2   -2.350362964745698E-2    9.641951757007997E-1    2.259951995812724E-2
 4.174395938283992E5     9.643317131888095E-1    2.251915151342872E-2    3.601779679696217E-2   -2.340251286182498E-2    3.605221848444288E-2   -2.341875702530283E-2    9.643216277941555E-1    2.251114141043362E-2
 4.206246005925882E5     9.644287046532452E-1    2.240996866109370E-2    3.592837541255914E-2   -2.331983643516775E-2    3.596138475030502E-2   -2.333303772864024E-2    9.644150901576986E-1    2.242259459008227E-2
 4.238339085209167E5     9.645653917313184E-1    2.233002766832649E-2    3.583693396236504E-2   -2.323894193630117E-2    3.586825257479126E-2   -2.324821910595536E-2    9.645057397799703E-1    2.234517941145119E-2
 4.270677030279291E5     9.646111069971963E-1    2.223761250840635E-2    3.574012421003307E-2   -2.314996679963786E-2    3.577986055471209E-2   -2.316393089909805E-2    9.645948336038288E-1    2.224904131846967E-2
 4.303261709428567E5     9.647286076304304E-1    2.214403360090233E-2    3.565348261732254E-2   -2.306496295882533E-2    3.568786335961742E-2   -2.307768253611626E-2    9.646413278880293E-1    2.215756407962274E-2
 4.336095005204146E5     9.648494457883833E-1    2.204422626010262E-2    3.556085497094664E-2   -2.297956194280728E-2    3.559624887152722E-2   -2.299581620395066E-2    9.647642985234056E-1    2.206582233270918E-2
 4.369178814516730E5     9.649347606780332E-1    2.196348776528213E-2    3.546918449404575E-2   -2.289492261615535E-2    3.550670373279809E-2   -2.291402852032125E-2    9.648693438417394E-1    2.196129692351321E-2
 4.402515048750198E5     9.650122184682695E-1    2.187434159230180E-2    3.537995619330676E-2   -2.281237315936084E-2    3.541558885865303E-2   -2.282569303043929E-2    9.649682260171361E-1    2.187858919835248E-2
 4.436105633872023E5     9.651123526896727E-1    2.178095816798289E-2    3.528750592543435E-2   -2.272991721765858E-2    3.532782701602337E-2   -2.274481926846154E-2    9.650642859666544E-1    2.179304051418288E-2
 4.469952510544541E5     9.651991644225070E-1    2.170336263364385E-2    3.519662331010524E-2   -2.264324068867682E-2    3.523641374585722E-2   -2.265918580027364E-2    9.651347658663599E-1    2.170803740724312E-2
 4.504057634237097E5     9.652919179317853E-1    2.159818139358696E-2    3.510663755498387E-2   -2.255960616759105E-2    3.514466674658379E-2   -2.257511008148589E-2    9.652151209361485E-1    2.161861136193212E-2
 4.538422975338975E5     9.653670237197861E-1    2.151220210444499E-2    3.501371661674990E-2   -2.247544867010521E-2    3.505701601374581E-2   -2.249444745748237E-2    9.653208837934008E-1    2.151721868915880E-2
 4.573050519273265E5     9.654482575201506E-1    2.142569617187472E-2    3.492943552000117E-2   -2.239330103390921E-2    3.496977914186965E-2   -2.241134989317105E-2    9.653869874939871E-1    2.144054734706628E-2
 4.607942266611566E5     9.655743213250060E-1    2.133204766216685E-2    3.483784252915660E-2   -2.230921789435529E-2    3.487808210951064E-2   -2.232569337842303E-2    9.654398292327523E-1    2.134201737516889E-2
 4.643100233189550E5     9.656687295092449E-1    2.124664277985078E-2    3.475036387766102E-2   -2.222520846166245E-2    3.478835855397871E-2   -2.224340400176039E-2    9.655416881679569E-1    2.125337163420820E-2
 4.678526450223470E5     9.657328098816474E-1    2.116696215489827E-2    3.465835454018332E-2   -2.214154837180039E-2    3.469935540688478E-2   -2.216171966231369E-2    9.656336165929689E-1    2.115703341429643E-2
 4.714222964427450E5     9.658219505684745E-1    2.106238601160377E-2    3.457053698379400E-2   -2.205907016645133E-2    3.461338283935896E-2   -2.208113561838920E-2    9.657315104332868E-1    2.107007754052577E-2
 4.750191838131770E5     9.658853921105833E-1    2.096454599899789E-2    3.447928384356068E-2   -2.197697324626348E-2    3.452416924607671E-2   -2.199618917729509E-2    9.658040683848869E-1    2.099098703116520E-2
 4.786435149402010E5     9.659915021017436E-1    2.088540121816115E-2    3.439372026033368E-2   -2.189334725245036E-2    3.443091452628756E-2   -2.191512116467486E-2    9.659107919188472E-1    2.088756616887321E-2
 4.822954992159092E5     9.660638535483158E-1    2.079242659722649E-2    3.430786899537753E-2   -2.181493194448913E-2    3.434267469815035E-2   -2.183101907827413E-2    9.659797433969528E-1    2.080420241187861E-2
 4.859753476300298E5     9.661481915850371E-1    2.069443090689983E-2    3.421722006661454E-2   -2.172867077116561E-2    3.426034486743983E-2   -2.175241971233864E-2    9.660713028243310E-1    2.070254093230490E-2
 4.896832727821107E5     9.662193944180213E-1    2.061884717191167E-2    3.412986933730590E-2   -2.164618220078109E-2    3.417169465210252E-2   -2.166742126751707E-2    9.661144662224478E-1    2.061532546149029E-2
 4.934194888938060E5     9.663106739552493E-1    2.052255827828802E-2    3.404266177968793E-2   -2.156659965563735E-2    3.408547258380710E-2   -2.158850770362046E-2    9.662369079541846E-1    2.052409780946169E-2
 4.971842118212518E5     9.663940085677727E-1    2.044173448232232E-2    3.395629770489463E-2   -2.148241508619615E-2    3.399872986039258E-2   -2.150778724489679E-2    9.663262264105007E-1    2.045930579527471E-2
 5.009776590675358E5     9.664437132629105E-1    2.034924774414590E-2    3.386922784264342E-2   -2.140148377437699E-2    3.390944591662090E-2   -2.142399182707445E-2    9.663751062998358E-1    2.036164452293661E-2
 5.048000497952673E5     9.665531677107817E-1    2.024441039100768E-2    3.378454372293260E-2   -2.131952348190278E-2    3.382385683961088E-2   -2.134243124064272E-2    9.665019662770149E-1    2.027361584742315E-2
 5.086516048392332E5     9.666740541535640E-1    2.016538900022740E-2    3.369945643302174E-2   -2.123913645870895E-2    3.374224129621851E-2   -2.126277763549067E-2    9.666045458214344E-1    2.017700844594581E-2
 5.125325467191607E5     9.667409165555896E-1    2.008361592930968E-2    3.361570281059796E-2   -2.115839571287078E-2    3.365446855274892E-2   -2.118164645858059E-2    9.666389586818281E-1    2.009851614591496E-2
 5.164430996525706E5     9.668012946047680E-1    1.998242168214163E-2    3.352991528041704E-2   -2.108111340780613E-2    3.357260876532316E-2   -2.110104056572343E-2    9.667211222081574E-1    2.001089049979598E-2
 5.203834895677360E5     9.669246636193937E-1    1.988519061425651E-2    3.344396514950285E-2   -2.100067710424954E-2    3.348710984629980E-2   -2.101935495162089E-2    9.667911126061590E-1    1.993169653837416E-2
 5.243539441167285E5     9.670126837604547E-1    1.979850466037018E-2    3.336481659376198E-2   -2.091851130950258E-2    3.340290328978818E-2   -2.093951492600530E-2    9.668974981342214E-1    1.983101719863535E-2
 5.283546926885745E5     9.670677172660038E-1    1.971033892101139E-2    3.327680469136731E-2   -2.083124072023972E-2    3.331605375215144E-2   -2.086013444778275E-2    9.669603210598313E-1    1.975268431221687E-2
 5.323859664225065E5     9.671336482404069E-1    1.962264975723596E-2    3.319813851501048E-2   -2.075385545910848E-2    3.322888910123885E-2   -2.077845489033845E-2    9.670295665037200E-1    1.965833412049505E-2
 5.364479982213206E5     9.672015823763889E-1    1.953656985702482E-2    3.310932588325015E-2   -2.067243686450911E-2    3.314788260597547E-2   -2.069692146416047E-2    9.670970169237333E-1    1.956525365125951E-2
 5.405410227648258E5     9.673177605203628E-1    1.945471010252344E-2    3.302929138422841E-2   -2.059349889307272E-2    3.306913797988868E-2   -2.062207247639885E-2    9.672308842583258E-1    1.948417338391246E-2
 5.446652765234077E5     9.674035166952543E-1    1.936052872638326E-2    3.294721406733843E-2   -2.051507144949773E-2    3.298580057290818E-2   -2.053875821394258E-2    9.673237295540342E-1    1.939064651100159E-2
 5.488209977716873E5     9.674956641350153E-1    1.926513350614534E-2    3.286689908902331E-2   -2.043682145793344E-2    3.290243782281811E-2   -2.045891188341914E-2    9.673885329500587E-1    1.931114795236421E-2
 5.530084266022880E5     9.675317887148087E-1    1.918932014704680E-2    3.278573295264733E-2   -2.035797406350774E-2    3.282674244127072E-2   -2.038273794594603E-2    9.674641647450193E-1    1.923862759922676E-2
 5.572278049397101E5     9.676385891779529E-1    1.909374152566019E-2    3.270694539344146E-2   -2.027752249503413E-2    3.274289032255094E-2   -2.029988997443016E-2    9.675483009138388E-1    1.914489075160714E-2
 5.614793765543010E5     9.676989231833454E-1    1.901139519075616E-2    3.262662707726621E-2   -2.019640178108234E-2    3.266285760803361E-2   -2.022260479541213E-2    9.676217964133507E-1    1.904654095893285E-2
 5.657633870763436E5     9.677879782736990E-1    1.890382469133265E-2    3.254507132256330E-2   -2.012022229006274E-2    3.258639702216828E-2   -2.014683955939123E-2    9.677285039428023E-1    1.894108229973642E-2
 5.700800840102463E5     9.678932478377293E-1    1.884966143476859E-2    3.246541183579601E-2   -2.004124859338461E-2    3.249972078629054E-2   -2.006553530599015E-2    9.678084220706547E-1    1.886713127824092E-2
 5.744297167488408E5     9.679638513791460E-1    1.875314957119512E-2    3.238959356935321E-2   -1.996108711040686E-2    3.242046252793046E-2   -1.998808715516446E-2    9.678654195307773E-1    1.877735309381405E-2
 5.788125365877954E5     9.680279797570358E-1    1.866932714195593E-2    3.230726305036689E-2   -1.988832168375988E-2    3.234808196762666E-2   -1.991056333712510E-2    9.679772602596075E-1    1.869855023701241E-2
 5.832287967401261E5     9.680876603972564E-1    1.859041404413789E-2    3.222965605431776E-2   -1.980668338706322E-2    3.226323615481554E-2   -1.983407859031651E-2    9.680095940272626E-1    1.862231493828342E-2
 5.876787523508312E5     9.681433150230619E-1    1.849472551691458E-2    3.214623671020900E-2   -1.972751475950974E-2    3.218704629676161E-2   -1.975454679991333E-2    9.680867309209217E-1    1.854914861149938E-2
 5.921626605116295E5     9.682587424777361E-1    1.839711820209029E-2    3.207186683290820E-2   -1.965119392156076E-2    3.211069926763555E-2   -1.967932735425862E-2    9.681444331927570E-1    1.844754270259719E-2
 5.966807802758140E5     9.683389192612140E-1    1.832802400750388E-2    3.199784122500070E-2   -1.957908366110529E-2    3.203158227879793E-2   -1.960071774580183E-2    9.682406027462388E-1    1.836561549908036E-2
 6.012333726732214E5     9.684184503918291E-1    1.823976719038032E-2    3.192259814553310E-2   -1.950179951346317E-2    3.195301148717073E-2   -1.952575923263645E-2    9.682530064177892E-1    1.828794026606883E-2
 6.058207007253073E5     9.684777859749997E-1    1.815770761322818E-2    3.184193398191183E-2   -1.941984974595098E-2    3.187877205381844E-2   -1.944929967994865E-2    9.683463628869287E-1    1.820874679357812E-2
 6.104430294603459E5     9.685543239098235E-1    1.806741015624936E-2    3.176563052158040E-2   -1.934942057727937E-2    3.180209347058689E-2   -1.937202943928906E-2    9.684051541916006E-1    1.812419313117696E-2
 6.151006259287392E5     9.686381120481797E-1    1.800982716036575E-2    3.169261671273342E-2   -1.927167631669906E-2    3.172666273438446E-2   -1.930248485854442E-2    9.685364493422246E-1    1.803422985548595E-2
 6.197937592184512E5     9.686942787317484E-1    1.791555688040960E-2    3.161448521579296E-2   -1.919980290812398E-2    3.165128823652925E-2   -1.922832917197178E-2    9.685759377370958E-1    1.793484490092957E-2
 6.245227004705463E5     9.687562418880690E-1    1.782547474875566E-2    3.154404143564399E-2   -1.912582503371088E-2    3.157559685314051E-2   -1.915150381797632E-2    9.686278835657232E-1    1.786604516547364E-2
 6.292877228948588E5     9.688224097333814E-1    1.775195596202829E-2    3.146595363812908E-2   -1.905286875725241E-2    3.149995993442044E-2   -1.907700714689044E-2    9.686960534816295E-1    1.778557406232767E-2
 6.340891017857760E5     9.689191358998049E-1    1.765737790256602E-2    3.139486594749488E-2   -1.897721253416281E-2    3.142268809025413E-2   -1.900274748270067E-2    9.687846027379324E-1    1.770161488883587E-2
 6.389271145381465E5     9.689621535499485E-1    1.759139929991984E-2    3.132020694642329E-2   -1.890709084006514E-2    3.134694156302925E-2   -1.892972420887123E-2    9.688929640080075E-1    1.759898303845970E-2
 6.438020406633007E5     9.690184274379915E-1    1.749634510293886E-2    3.124420833162107E-2   -1.883133317047359E-2    3.127659694842044E-2   -1.885784359744527E-2    9.689834107369267E-1    1.753151540231739E-2
 6.487141618052023E5     9.691303263264970E-1    1.742543791001144E-2    3.117283492125935E-2   -1.876202801860335E-2    3.120000911350161E-2   -1.878460677654290E-2    9.690271009161403E-1    1.744690217713234E-2
 6.536637617567203E5     9.692174900495214E-1    1.732856349571434E-2    3.109824010798097E-2   -1.868775140498719E-2    3.112816216413338E-2   -1.871269833071658E-2    9.691315359882039E-1    1.735774491244030E-2
 6.586511264760230E5     9.692646696477440E-1    1.727697990874934E-2    3.102568662470820E-2   -1.861651852578637E-2    3.105108429856700E-2   -1.864330061706265E-2    9.691837990726681E-1    1.727689464503937E-2
 6.636765441031042E5     9.693358511074536E-1    1.719316632197210E-2    3.095218791094427E-2   -1.854597363900662E-2    3.097906958158817E-2   -1.856881606045748E-2    9.692826904739552E-1    1.720765679783527E-2
 6.687403049764220E5     9.693921060148087E-1    1.710588005214639E-2    3.087772916556546E-2   -1.847323703169496E-2    3.090609065416854E-2   -1.849810604746754E-2    9.693462525025718E-1    1.713247488057528E-2
 6.738427016496789E5     9.694810176905708E-1    1.703163194510896E-2    3.080364115273878E-2   -1.840116591876015E-2    3.083284614232383E-2   -1.842858361393628E-2    9.693942381786465E-1    1.706017281874196E-2
 6.789840289087215E5     9.695571786011715E-1    1.693161768098627E-2    3.072709245727889E-2   -1.833190646957914E-2    3.076072945339331E-2   -1.835771738585994E-2    9.694704209551342E-1    1.698193139609338E-2
 6.841645837885707E5     9.696433355265311E-1    1.684524899878844E-2    3.065550535332231E-2   -1.826474748388495E-2    3.068672621772663E-2   -1.828908519470457E-2    9.695953953655888E-1    1.688997643087491E-2
 6.893846655905881E5     9.697092837986452E-1    1.678107931214994E-2    3.058525909041531E-2   -1.819402981548399E-2    3.061601168477350E-2   -1.822029118047756E-2    9.696349855412765E-1    1.680324745520687E-2
 6.946445758997592E5     9.697216560884845E-1    1.670646972947227E-2    3.051288546991034E-2   -1.812350761826942E-2    3.054000291258548E-2   -1.815089188369326E-2    9.697366409562483E-1    1.671362099746311E-2
 6.999446186021230E5     9.697967955599303E-1    1.664988890736824E-2    3.043767709082760E-2   -1.805181686898530E-2    3.046872356628758E-2   -1.808204060189039E-2    9.698097086772139E-1    1.663456389623294E-2
 7.052850999023273E5     9.698801842083605E-1    1.655541612477933E-2    3.036984490899675E-2   -1.798310219453799E-2    3.039775814363588E-2   -1.801017974981007E-2    9.698888895180581E-1    1.655274035881810E-2
 7.106663283413178E5     9.699689619916119E-1    1.647840170774806E-2    3.029577338399740E-2   -1.791620233761580E-2    3.032699887220283E-2   -1.794224772255993E-2    9.699544042228146E-1    1.650203814706664E-2
 7.160886148141696E5     9.700742183394452E-1    1.636987216695749E-2    3.022243759151783E-2   -1.785023812547735E-2    3.025124583316279E-2   -1.787600187654780E-2    9.699907969576554E-1    1.641633507662184E-2
 7.215522725880400E5     9.700992157573524E-1    1.630278482639274E-2    3.015196496974764E-2   -1.778062129446952E-2    3.017893797989295E-2   -1.780771949890073E-2    9.700432977511402E-1    1.633677420656584E-2
 7.270576173202734E5     9.701772261640276E-1    1.623274418524288E-2    3.007995992404873E-2   -1.771140663718980E-2    3.011009680356417E-2   -1.773864555271885E-2    9.701363527154508E-1    1.626226290996288E-2
 7.326049670766364E5     9.702377958725401E-1    1.613812584560078E-2    3.000360690537725E-2   -1.764101097248656E-2    3.003586215570819E-2   -1.766983692616906E-2    9.702584698972152E-1    1.616700016946569E-2
 7.381946423496918E5     9.702558795290404E-1    1.609178585185900E-2    2.993372236004856E-2   -1.757618985848811E-2    2.996336380587123E-2   -1.760421305006038E-2    9.702925426247534E-1    1.608254409211348E-2
 7.438269660773217E5     9.703741050470538E-1    1.599416340218836E-2    2.986347677195286E-2   -1.750901671867153E-2    2.989083272850367E-2   -1.753210779888721E-2    9.703839392198800E-1    1.600400990370170E-2
 7.495022636613748E5     9.704733305757890E-1    1.591257135732547E-2    2.979206622665346E-2   -1.744528079478316E-2    2.982015850319539E-2   -1.746834808161380E-2    9.704127761650705E-1    1.592072478823278E-2
 7.552208629864733E5     9.705248610919116E-1    1.582569556139134E-2    2.972115327100594E-2   -1.737648153459400E-2    2.974686016993571E-2   -1.740039884659607E-2    9.704880325512537E-1    1.585162543188273E-2
 7.609830944389519E5     9.706308331314724E-1    1.573146421873594E-2    2.965292730171714E-2   -1.730660743975996E-2    2.967704457400155E-2   -1.733496193746856E-2    9.705968681515299E-1    1.576262447930969E-2
 7.667892909259528E5     9.707211364634400E-1    1.564592677554479E-2    2.957714841176210E-2   -1.724032348769175E-2    2.960386454664958E-2   -1.726718882062247E-2    9.706756183673292E-1    1.569777445306144E-2
 7.726397878946491E5     9.707627432797571E-1    1.558970520455424E-2    2.950803781028048E-2   -1.716885625978310E-2    2.953299091466569E-2   -1.720079477706847E-2    9.707156432276844E-1    1.562209673587475E-2
 7.785349233516312E5     9.708417000836583E-1    1.550982832290362E-2    2.943560909696033E-2   -1.710581453126010E-2    2.946261858730648E-2   -1.713111024533050E-2    9.707487308798000E-1    1.555635308183079E-2
 7.844750378824320E5     9.708946148658946E-1    1.545131095831301E-2    2.936328937810074E-2   -1.703450922585966E-2    2.938823553878241E-2   -1.706407744686785E-2    9.708352951834607E-1    1.547272844043792E-2
 7.904604746712097E5     9.709662286819292E-1    1.538234595402607E-2    2.929277646301159E-2   -1.697012368369649E-2    2.931842130539232E-2   -1.699869976641052E-2    9.708881451409221E-1    1.539879967734281E-2
 7.964915795205662E5     9.710659523509616E-1    1.526580660875964E-2    2.922279148883561E-2   -1.690449040093666E-2    2.924965611341018E-2   -1.693168902497650E-2    9.709933770492937E-1    1.529753712297589E-2
 8.025687008715309E5     9.711185824191654E-1    1.518633838258924E-2    2.915587075278628E-2   -1.683765739570702E-2    2.918038691482511E-2   -1.686117420184606E-2    9.710802721484149E-1    1.521311139386278E-2
 8.086921898236905E5     9.712186631839259E-1    1.510793985146369E-2    2.908573005883084E-2   -1.677158282235657E-2    2.910994515798253E-2   -1.679767857100074E-2    9.711419976259781E-1    1.515201072772021E-2
 8.148624001554718E5     9.712742759201792E-1    1.502360012885449E-2    2.901441352188295E-2   -1.670332775344357E-2    2.903822205671614E-2   -1.673152593585681E-2    9.712114679102130E-1    1.505896075843353E-2
 8.210796883445872E5     9.713183951371207E-1    1.494986107960016E-2    2.894395737952033E-2   -1.663608975542183E-2    2.896732879412958E-2   -1.666313144769798E-2    9.712671568498514E-1    1.499033783211363E-2
 8.273444135886204E5     9.713399864841170E-1    1.486830119801092E-2    2.887329563572540E-2   -1.656914833708178E-2    2.889939256927697E-2   -1.659457863785689E-2    9.713361943090615E-1    1.489183097754077E-2
 8.336569378257846E5     9.714451934487527E-1    1.482601270687740E-2    2.880406405547140E-2   -1.650290556013464E-2    2.882949230608605E-2   -1.653071866924498E-2    9.714497200385468E-1    1.480774863753414E-2
 8.400176257558319E5     9.714783134368701E-1    1.471791876993137E-2    2.873529755184714E-2   -1.643316619457926E-2    2.875874988436894E-2   -1.646449214394935E-2    9.715257139523936E-1    1.472168332455929E-2
 8.464268448611222E5     9.715413666829852E-1    1.466353544928165E-2    2.866684980999274E-2   -1.636675298376708E-2    2.869078159982452E-2   -1.639727595730901E-2    9.715462246931310E-1    1.463670066627764E-2
 8.528849654278599E5     9.716186448147924E-1    1.459115089890523E-2    2.860155902493779E-2   -1.630191189681556E-2    2.862295049446995E-2   -1.632940228339681E-2    9.716052891288377E-1    1.458155515034957E-2
 8.593923605674774E5     9.717016910626887E-1    1.450643678131470E-2    2.853222866575505E-2   -1.623372877486053E-2    2.855425493242726E-2   -1.626210509344228E-2    9.716502223605639E-1    1.453184261468809E-2
 8.659494062381978E5     9.718037284154201E-1    1.439396053203165E-2    2.846623577875241E-2   -1.616528598438165E-2    2.848802300343902E-2   -1.619943423229058E-2    9.717298436494428E-1    1.445877618212758E-2
 8.725564812667536E5     9.718488538396247E-1    1.428809059504547E-2    2.839873533490529E-2   -1.610302015517646E-2    2.842079752742059E-2   -1.612860387936396E-2    9.718124992045153E-1    1.436563291445764E-2
 8.792139673702718E5     9.719160004541370E-1    1.420957131680869E-2    2.833103588255531E-2   -1.604040066582324E-2    2.835106406717426E-2   -1.606461116932952E-2    9.718614982517920E-1    1.430583382331570E-2
 8.859222491783336E5     9.720113304673490E-1    1.415335652525478E-2    2.826618088263780E-2   -1.597059935937071E-2    2.828485207829694E-2   -1.599522563436550E-2    9.718870104494988E-1    1.421154681434658E-2
 8.926817142551860E5     9.720681239162037E-1    1.407399186339733E-2    2.820108058951113E-2   -1.590459068026179E-2    2.821755362499955E-2   -1.593102406248695E-2    9.719820198389784E-1    1.410825369592112E-2
 8.994927531221397E5     9.721002355386142E-1    1.399368526994563E-2    2.813072641747562E-2   -1.583748573467423E-2    2.815366500844769E-2   -1.586636799754347E-2    9.720719820199417E-1    1.402749159778103E-2
 9.063557592801275E5     9.721390327157043E-1    1.390572018442643E-2    2.806690143755873E-2   -1.576668058010058E-2    2.808757248195478E-2   -1.580150250209025E-2    9.720975374428685E-1    1.397900282494874E-2
 9.132711292324457E5     9.722246734054302E-1    1.383016959248697E-2    2.800251192372584E-2   -1.570443093111938E-2    2.801966221975022E-2   -1.573518066109427E-2    9.721827028005311E-1    1.388342481890113E-2
 9.202392625076511E5     9.722871973460594E-1    1.375181165081001E-2    2.793952006154971E-2   -1.563945175107284E-2    2.795758879238891E-2   -1.566937142990727E-2    9.722628638738174E-1    1.382455225709273E-2
 9.272605616826499E5     9.723333640697847E-1    1.366529451044417E-2    2.787484156151892E-2   -1.557182443395963E-2    2.789364814246311E-2   -1.560387159975600E-2    9.722948398208057E-1    1.371940395452372E-2
 9.343354324059531E5     9.724291132252267E-1    1.357449148560435E-2    2.781049558071188E-2   -1.551261942236882E-2    2.783024717866252E-2   -1.554012491168051E-2    9.723757430287983E-1    1.364551597094036E-2
 9.414642834211199E5     9.724998206532955E-1    1.351176886035432E-2    2.774768368987218E-2   -1.544200992339447E-2    2.776559885272799E-2   -1.547378939355052E-2    9.724059716670678E-1    1.356096749992249E-2
 9.486475265903610E5     9.725354915860962E-1    1.345229170873465E-2    2.768207742583199E-2   -1.537851971800412E-2    2.770198363677880E-2   -1.540770301038972E-2    9.724883552739370E-1    1.347869035571688E-2
 9.558855769183410E5     9.726275497094009E-1    1.337336718323898E-2    2.762120999244401E-2   -1.531714342356695E-2    2.763735359952975E-2   -1.534217383022778E-2    9.725290704959616E-1    1.343614521222746E-2
 9.631788525761530E5     9.726899934586343E-1    1.327277016422541E-2    2.755441599972239E-2   -1.524810035613108E-2    2.757311845930475E-2   -1.528401476165213E-2    9.726014913489447E-1    1.334504212102758E-2
 9.705277749254764E5     9.727244317410588E-1    1.321771686572598E-2    2.749705931118046E-2   -1.518583767408655E-2    2.751467964847629E-2   -1.521450429328604E-2    9.726479291089853E-1    1.327678828819348E-2
 9.779327685429282E5     9.727896924045117E-1    1.312635499143234E-2    2.743262312791659E-2   -1.512312402785319E-2    2.744930530923049E-2   -1.515378224776120E-2    9.727418271633087E-1    1.319578146735519E-2
 9.853942612445805E5     9.728501862218184E-1    1.302359841026139E-2    2.737366374448380E-2   -1.506031053395465E-2    2.738818283365117E-2   -1.508871779595203E-2    9.728097670898924E-1    1.308977170027020E-2
 9.929126841106854E5     9.729168986388730E-1    1.294628930531560E-2    2.731144975087484E-2   -1.499734250793742E-2    2.732545447062049E-2   -1.502573769449112E-2    9.728733470413726E-1    1.298997961390237E-2
 1.000488471510578E6     9.729863705349424E-1    1.289221385586516E-2    2.724951132543332E-2   -1.493500086490122E-2    2.726479491347278E-2   -1.496419291235976E-2    9.729243510441891E-1    1.292211374488490E-2
 1.008122061127771E6     9.730108232956457E-1    1.280997790076942E-2    2.719000188668580E-2   -1.487593626341997E-2    2.720034170818845E-2   -1.490218097551216E-2    9.729766107528502E-1    1.286134575408139E-2
 1.015813893985245E6     9.730970158197202E-1    1.274083527814854E-2    2.712777980553375E-2   -1.481236261188237E-2    2.714299203463005E-2   -1.483954943712386E-2    9.730468029222475E-1    1.280975049748367E-2
 1.023564414470923E6     9.731759940934306E-1    1.262681455501029E-2    2.706472773061488E-2   -1.475086113271435E-2    2.708042505311121E-2   -1.477702805324040E-2    9.730643629001765E-1    1.274995575428709E-2
 1.031374070363347E6     9.732237640453054E-1    1.254193076957020E-2    2.700876956631033E-2   -1.469284532833892E-2    2.701709972586713E-2   -1.471660091351402E-2    9.731175824932851E-1    1.267153779360760E-2
 1.039243312857548E6     9.732813078232522E-1    1.247668437133431E-2    2.694766108726863E-2   -1.463187167617134E-2    2.695879289430186E-2   -1.465545938737750E-2    9.731802868833296E-1    1.257979265893625E-2
 1.047172596591111E6     9.732953083031570E-1    1.243846222401659E-2    2.688632417812273E-2   -1.456686273103541E-2    2.689334486551067E-2   -1.459364931283829E-2    9.732475045273432E-1    1.248401359047433E-2
 1.055162379670449E6     9.733756784880399E-1    1.234230665050855E-2    2.682301714797558E-2   -1.450507665494451E-2    2.683715202847877E-2   -1.453393988857224E-2    9.733277203544995E-1    1.244165099068645E-2
 1.063213123697260E6     9.734465229703502E-1    1.228437587199912E-2    2.676305648661449E-2   -1.444414964060724E-2    2.677600403295124E-2   -1.447350442532902E-2    9.733830892752801E-1    1.234973752546672E-2
 1.071325293795198E6     9.735205969902920E-1    1.218763679653215E-2    2.670686288202697E-2   -1.438653971975615E-2    2.671796079119897E-2   -1.441548777326058E-2    9.734697652481632E-1    1.225009394697699E-2
 1.079499358636750E6     9.735625313945457E-1    1.211932003781354E-2    2.664316089084761E-2   -1.432174002159232E-2    2.665535607173571E-2   -1.435441355650993E-2    9.735466437866450E-1    1.217438107585357E-2
 1.087735790470306E6     9.736082285315678E-1    1.205070354537002E-2    2.658311032519812E-2   -1.426787829885082E-2    2.659281754237669E-2   -1.429431687488164E-2    9.735917344427290E-1    1.210174560055195E-2
 1.096035065147453E6     9.736526680645272E-1    1.200751254823465E-2    2.652192247005818E-2   -1.420852418499934E-2    2.653399125190006E-2   -1.423401023548992E-2    9.736419869269642E-1    1.201701965739465E-2
 1.104397662150453E6     9.737007968682210E-1    1.192012500845792E-2    2.646263441373651E-2   -1.414447576073403E-2    2.646888845191217E-2   -1.417449914245921E-2    9.736855050099292E-1    1.195205365828346E-2
 1.112824064619953E6     9.737613689307347E-1    1.186241426492462E-2    2.640094305869198E-2   -1.408950860796063E-2    2.641323142495861E-2   -1.411384348665622E-2    9.737330255269676E-1    1.188970594357941E-2
 1.121314759382903E6     9.738295828423718E-1    1.177741871994895E-2    2.634162952942717E-2   -1.402919572727911E-2    2.635375604067954E-2   -1.405723829286529E-2    9.737924982216701E-1    1.181334166443063E-2
 1.129870236980669E6     9.738720086184220E-1    1.172396847821836E-2    2.628391552075467E-2   -1.396979571217465E-2    2.628968236796623E-2   -1.399378316802249E-2    9.738650077219168E-1    1.174680100309712E-2
 1.138490991697383E6     9.739141797265815E-1    1.166081584074487E-2    2.622430585269877E-2   -1.390906463709287E-2    2.622779326488640E-2   -1.393402840268520E-2    9.739119035364520E-1    1.165252645147073E-2
 1.147177521588496E6     9.740109710834931E-1    1.158927412817980E-2    2.616275713976298E-2   -1.385109788122892E-2    2.616983279427679E-2   -1.387546156274918E-2    9.739722920534861E-1    1.157728114421330E-2
 1.155930328509552E6     9.741040814964212E-1    1.151457221175999E-2    2.610276617469232E-2   -1.378870534539197E-2    2.611112117939907E-2   -1.381774388619300E-2    9.740182677430771E-1    1.152164058233842E-2
 1.164749918145190E6     9.741427878140674E-1    1.137476562391873E-2    2.604150205002428E-2   -1.373400107511586E-2    2.604872089600355E-2   -1.375811907436331E-2    9.740702425334242E-1    1.145564357778257E-2
 1.173636800038349E6     9.741842864106182E-1    1.128551044627236E-2    2.598129567248890E-2   -1.367689725817429E-2    2.598853781664459E-2   -1.370084560459699E-2    9.741325146646178E-1    1.133111242118977E-2
 1.182591487619709E6     9.742682756573411E-1    1.123783262078588E-2    2.592145628124519E-2   -1.361643550385980E-2    2.592886777131023E-2   -1.363906102553712E-2    9.741922554553921E-1    1.129709958755470E-2
 1.191614498237359E6     9.743097583743211E-1    1.117298784827764E-2    2.586501590377479E-2   -1.355463122415535E-2    2.587045495389724E-2   -1.357774771520211E-2    9.742350467873457E-1    1.120867842349076E-2
 1.200706353186678E6     9.743649612320818E-1    1.111677426384725E-2    2.580466742132911E-2   -1.349549152336742E-2    2.580902407197661E-2   -1.352059120057956E-2    9.742860722360146E-1    1.112862529448970E-2
 1.209867577740467E6     9.744502991417298E-1    1.103180582945675E-2    2.574388907907763E-2   -1.343568308336583E-2    2.575260584181362E-2   -1.346063381638515E-2    9.743215965499328E-1    1.107236217079891E-2
 1.219098701179276E6     9.745284772127892E-1    1.093926489230740E-2    2.568847745548350E-2   -1.337689801943732E-2    2.569128306026541E-2   -1.340007701555130E-2    9.744232483033116E-1    1.101020389170124E-2
 1.228400256821998E6     9.745544845125894E-1    1.086118160337875E-2    2.562647252172093E-2   -1.331799570470364E-2    2.563266528352779E-2   -1.334121543874463E-2    9.744781040332396E-1    1.091672766663299E-2
 1.237772782056674E6     9.746158355734299E-1    1.078172830425259E-2    2.556806245976894E-2   -1.325725642540125E-2    2.557282246525338E-2   -1.328129353329732E-2    9.745138111752736E-1    1.082014777524054E-2
 1.247216818371540E6     9.746469103422406E-1    1.070178198126674E-2    2.551094217270062E-2   -1.319571017078895E-2    2.551715475601805E-2   -1.322050092102821E-2    9.745862665426820E-1    1.074574498811374E-2
 1.256732911386322E6     9.747249554749102E-1    1.062246439175825E-2    2.545341038587780E-2   -1.313841688650661E-2    2.546041889049768E-2   -1.316137180534928E-2    9.746222812258413E-1    1.065653957299575E-2
 1.266321610883739E6     9.747737406110577E-1    1.054816963678089E-2    2.539583314661941E-2   -1.307771560113544E-2    2.540116792402115E-2   -1.310187829253816E-2    9.746988521180688E-1    1.058815475538234E-2
 1.275983470841281E6     9.748170876750953E-1    1.048898532765513E-2    2.534013047453781E-2   -1.301932739666906E-2    2.534393193575945E-2   -1.304093437123819E-2    9.747698515505183E-1    1.051499574278405E-2
 1.285719049463211E6     9.748897649395084E-1    1.040883913874388E-2    2.528065797243959E-2   -1.295881047763964E-2    2.528323118275615E-2   -1.298348715707787E-2    9.748148407132222E-1    1.043637805264078E-2
 1.295528909212810E6     9.749448573954178E-1    1.030217267938334E-2    2.522517565091400E-2   -1.289781714160051E-2    2.522679606897198E-2   -1.292252927194502E-2    9.748788537053436E-1    1.035920011023146E-2
 1.305413616844883E6     9.749958210621196E-1    1.021486145268624E-2    2.516995353205241E-2   -1.284109427315129E-2    2.517384788129913E-2   -1.286261764429756E-2    9.749288336095181E-1    1.028192450758238E-2
 1.315373743438491E6     9.750666421777551E-1    1.013482476145509E-2    2.511020839295542E-2   -1.278182086922087E-2    2.511796039708907E-2   -1.280219430590483E-2    9.749773819705497E-1    1.018502103733781E-2
 1.325409864429950E6     9.751045616893860E-1    1.010950160529064E-2    2.505882581241384E-2   -1.272049031094505E-2    2.505861748773536E-2   -1.273918974881611E-2    9.749992022599810E-1    1.010925578614810E-2
 1.335522559646084E6     9.751259906425293E-1    9.998208009813133E-3    2.500236414219639E-2   -1.266094240166675E-2    2.500814212837132E-2   -1.268070324598549E-2    9.750852459818585E-1    1.001043533602666E-2
 1.345712413337699E6     9.752096415854391E-1    9.927139436365834E-3    2.494478682657105E-2   -1.260278487627717E-2    2.495169872623962E-2   -1.262347514905894E-2    9.751386344167357E-1    9.941552837575519E-3
 1.355980014213373E6     9.752231552637999E-1    9.839734311520300E-3    2.489079905527829E-2   -1.254364681380075E-2    2.489583025492272E-2   -1.256280830127810E-2    9.751983758161163E-1    9.868502769703615E-3
 1.366325955473440E6     9.753064740772067E-1    9.743676414792362E-3    2.483769880731745E-2   -1.248107593926878E-2    2.484325578135257E-2   -1.250288079230530E-2    9.752459338582571E-1    9.799394498801191E-3
 1.376750834844268E6     9.753408375447766E-1    9.669435615733069E-3    2.478413884054025E-2   -1.242254294239990E-2    2.478954398066308E-2   -1.244284582468637E-2    9.753351708214594E-1    9.748496506976057E-3
 1.387255254612807E6     9.753989279066597E-1    9.588488630402573E-3    2.472894317291079E-2   -1.236475327842599E-2    2.473734131228822E-2   -1.238471310366428E-2    9.753922104384145E-1    9.674976244870478E-3
 1.397839821661363E6     9.754550664450391E-1    9.561279708192139E-3    2.467333189222207E-2   -1.230717287551869E-2    2.467974547823344E-2   -1.232314538196293E-2    9.754466585329220E-1    9.602306071353471E-3
 1.408505147502673E6     9.755195403360144E-1    9.479370339398982E-3    2.462260724712723E-2   -1.224689139428589E-2    2.462977424616005E-2   -1.226772854413171E-2    9.754621527782461E-1    9.520345108648234E-3
 1.419251848315235E6     9.755549184242377E-1    9.386464378185688E-3    2.456873361891437E-2   -1.219378865059555E-2    2.457317301498388E-2   -1.220967431603143E-2    9.755429673867705E-1    9.435484792639729E-3
 1.430080544978898E6     9.756179296579245E-1    9.317531523344514E-3    2.451887245390779E-2   -1.213181725986036E-2    2.452043405353572E-2   -1.215067836984506E-2    9.755613749799211E-1    9.317372690670921E-3
 1.440991863110751E6     9.756546096102074E-1    9.252329773641170E-3    2.446808218219158E-2   -1.207337763280365E-2    2.447052276783371E-2   -1.209378177410415E-2    9.756312083665399E-1    9.265824641261364E-3
 1.451986433101243E6     9.757006890867376E-1    9.144147101465964E-3    2.441180562539637E-2   -1.201876539519135E-2    2.442167521003868E-2   -1.203591982907764E-2    9.757035591475711E-1    9.203502948428983E-3
 1.463064890150622E6     9.757644821549082E-1    9.064593982571386E-3    2.436242629486836E-2   -1.196051222474876E-2    2.436408156458951E-2   -1.197808171829102E-2    9.757435173546812E-1    9.147902189315752E-3
 1.474227874305625E6     9.757843315147681E-1    8.986705018439900E-3    2.431163472029313E-2   -1.190643869574733E-2    2.431494637493846E-2   -1.192200279188183E-2    9.758316631794177E-1    9.075911605893021E-3
 1.485476030496454E6     9.758478563903725E-1    8.908571485391113E-3    2.425584096299275E-2   -1.184842418188511E-2    2.426272994431989E-2   -1.186384433803809E-2    9.758598338908214E-1    8.980603305592545E-3
 1.496810008574050E6     9.759308429059360E-1    8.840486115789324E-3    2.420594065762165E-2   -1.178789473904148E-2    2.420989335924479E-2   -1.180881009875287E-2    9.758835394556734E-1    8.889707331350364E-3
 1.508230463347619E6     9.759756455647997E-1    8.775505621988275E-3    2.415207907919781E-2   -1.173547579917368E-2    2.415892348433004E-2   -1.175369446890032E-2    9.759604619345282E-1    8.836572435538259E-3
 1.519738054622472E6     9.760617358242824E-1    8.706513424490974E-3    2.410510589687006E-2   -1.167811696909072E-2    2.410852309848969E-2   -1.169489763100729E-2    9.759831387579001E-1    8.739737523850433E-3
 1.531333447238147E6     9.760905969746140E-1    8.638795640578067E-3    2.405514205684746E-2   -1.162081510240313E-2    2.405655210922004E-2   -1.164049819340432E-2    9.760554106246353E-1    8.676023570710558E-3
 1.543017311106810E6     9.761278069134469E-1    8.527520795092867E-3    2.399976956223108E-2   -1.156705087013766E-2    2.400785405502789E-2   -1.158260314805304E-2    9.761049842411913E-1    8.607202177838507E-3
 1.554790321251977E6     9.761710334216644E-1    8.463914770135769E-3    2.394834651075656E-2   -1.151393714637829E-2    2.395230653926946E-2   -1.152917910820372E-2    9.761948889517270E-1    8.548005033430133E-3
 1.566653157847488E6     9.762454541340700E-1    8.391658276415200E-3    2.389723694229429E-2   -1.145829327733877E-2    2.390063906846230E-2   -1.147231450389458E-2    9.761809278171267E-1    8.444792287104328E-3
 1.578606506256824E6     9.762942322623692E-1    8.282465838787459E-3    2.384437673759164E-2   -1.140276628191581E-2    2.385279191218501E-2   -1.141482336258538E-2    9.762306837282868E-1    8.383232115331415E-3
 1.590651057072690E6     9.763500039036586E-1    8.213931276334820E-3    2.379495412617613E-2   -1.134724691549699E-2    2.379900663518252E-2   -1.136162005869269E-2    9.762943699056617E-1    8.305737195226783E-3
 1.602787506156919E6     9.764275141131985E-1    8.151988787691800E-3    2.374064621558303E-2   -1.129252466383788E-2    2.374764323013346E-2   -1.130441776674765E-2    9.763412268495109E-1    8.245153402513014E-3
 1.615016554680682E6     9.764744027507222E-1    8.075463974557554E-3    2.369070751541213E-2   -1.123285609079625E-2    2.370023342264240E-2   -1.125076173507122E-2    9.764128166483933E-1    8.147325897174632E-3
 1.627338909164981E6     9.765490535425011E-1    8.002881935135618E-3    2.364092605230888E-2   -1.117811169857430E-2    2.364863441714199E-2   -1.119390394351293E-2    9.764755395055880E-1    8.098087632946432E-3
 1.639755281521474E6     9.765748426895865E-1    7.923329273945458E-3    2.358881182556255E-2   -1.112760427696126E-2    2.359201366932735E-2   -1.113963260228599E-2    9.765244353461254E-1    7.996951605320442E-3
 1.652266389093622E6     9.765939117880964E-1    7.809134944953825E-3    2.353430422685181E-2   -1.107073305230250E-2    2.354274808017655E-2   -1.108339687869536E-2    9.765965191790972E-1    7.939237213139206E-3
 1.664872954698102E6     9.766464201224291E-1    7.751821745420207E-3    2.348437739570131E-2   -1.101069327104927E-2    2.348804195934661E-2   -1.102286552181946E-2    9.765909292030909E-1    7.840022670036334E-3
 1.677575706666590E6     9.767009558029591E-1    7.663600991067913E-3    2.343716449621364E-2   -1.095874404534094E-2    2.343893579842161E-2   -1.097269429776368E-2    9.766162976004714E-1    7.751391244286046E-3
 1.690375378887833E6     9.767504697706417E-1    7.575953302057423E-3    2.338473783168678E-2   -1.090077861477821E-2    2.338803324728835E-2   -1.091347881297773E-2    9.766823897218531E-1    7.677834156040889E-3
 1.703272710850043E6     9.767938484151824E-1    7.508645224015079E-3    2.333539691986256E-2   -1.084338885007960E-2    2.333620619833171E-2   -1.085890101363972E-2    9.767037747495808E-1    7.600233974617408E-3
 1.716268447683636E6     9.768702524890680E-1    7.439169779397925E-3    2.328629690268756E-2   -1.078778023321369E-2    2.328834476577382E-2   -1.080157979387689E-2    9.767515531691925E-1    7.512094529360020E-3
 1.729363340204262E6     9.769071969259955E-1    7.360159399163691E-3    2.323227428250388E-2   -1.073033427127852E-2    2.323760544803412E-2   -1.074609596242611E-2    9.768102551250211E-1    7.419430847490608E-3
 1.742558144956193E6     9.769621603409430E-1    7.288164522950218E-3    2.318387485136862E-2   -1.067320569317567E-2    2.318727762111669E-2   -1.069029083401323E-2    9.768548035448507E-1    7.341129940124323E-3
 1.755853624256030E6     9.769604119047555E-1    7.184286781754330E-3    2.313143944117872E-2   -1.061457902632746E-2    2.313582715574594E-2   -1.063154365457793E-2    9.769271281103517E-1    7.278497138637934E-3
 1.769250546236744E6     9.770439745518725E-1    7.097838960864247E-3    2.308572420693327E-2   -1.056414431682788E-2    2.308738668481363E-2   -1.057823427900959E-2    9.769771108117647E-1    7.171758111253076E-3
 1.782749684892061E6     9.770629997693956E-1    7.007504415862191E-3    2.303474517855074E-2   -1.050459624658384E-2    2.304172947908852E-2   -1.051916293130187E-2    9.770622424526114E-1    7.109068970969528E-3
 1.796351820121167E6     9.770981918167033E-1    6.928903341010107E-3    2.298731670151498E-2   -1.044728176704873E-2    2.299235149530802E-2   -1.046430827508666E-2    9.770785531144874E-1    7.022305674491252E-3
 1.810057737773773E6     9.771364008496812E-1    6.841738550479761E-3    2.293924374956260E-2   -1.039293204991761E-2    2.294084757549417E-2   -1.040322033931635E-2    9.771024070457406E-1    6.944259835954404E-3
 1.823868229695514E6     9.772221995307888E-1    6.768687168810830E-3    2.288671982506182E-2   -1.033663324482543E-2    2.289385261733370E-2   -1.035038830293025E-2    9.771412695667375E-1    6.868752277345670E-3
 1.837784093773698E6     9.772656167693179E-1    6.685280299663504E-3    2.284060936011843E-2   -1.028400211803095E-2    2.284633036756398E-2   -1.029244985353101E-2    9.771900625176905E-1    6.780057484961143E-3
 1.851806133983411E6     9.772808229965820E-1    6.612468834349444E-3    2.279553248609366E-2   -1.022302394663418E-2    2.279734423129311E-2   -1.023597047167386E-2    9.772626706940253E-1    6.705665937366470E-3
 1.865935160433950E6     9.773477612848626E-1    6.523342330641693E-3    2.274584556747880E-2   -1.016822504937328E-2    2.275148797472001E-2   -1.018149280060422E-2    9.772887799621001E-1    6.622228332338329E-3
 1.880171989415638E6     9.774201929235879E-1    6.453402761407223E-3    2.270143990190696E-2   -1.011221791143921E-2    2.270156086372471E-2   -1.012158088955306E-2    9.773415462060199E-1    6.542555036556371E-3
 1.894517443446981E6     9.774488722757608E-1    6.383243729276607E-3    2.265568272889510E-2   -1.005776212029329E-2    2.265418262093196E-2   -1.006661590466188E-2    9.773593209470691E-1    6.466136590911871E-3
 1.908972351322182E6     9.774833486647260E-1    6.282503219700569E-3    2.260902026671588E-2   -9.999010312184226E-3    2.260685388069310E-2   -1.000865009356836E-2    9.773890406516363E-1    6.368176072818711E-3
 1.923537548159045E6     9.775087102016983E-1    6.206974580778422E-3    2.256408875680806E-2   -9.943604375443522E-3    2.256395476650669E-2   -9.953712324551217E-3    9.774113272783427E-1    6.287632597026353E-3
 1.938213875447196E6     9.775749484943310E-1    6.110672027042893E-3    2.251460319495587E-2   -9.890689624547878E-3    2.251767402994131E-2   -9.897692665222417E-3    9.774462316774913E-1    6.193499037173002E-3
 1.953002181096708E6     9.775640846100013E-1    6.031928521048210E-3    2.247163301469480E-2   -9.831799114293082E-3    2.247225129564442E-2   -9.845217903535486E-3    9.775275955474716E-1    6.112524348897476E-3
 1.967903319487111E6     9.776540903389784E-1    5.943740015438913E-3    2.242350968347702E-2   -9.776205230977766E-3    2.242856987518428E-2   -9.789059750773498E-3    9.775687652141070E-1    6.041741652582824E-3
 1.982918151516703E6     9.777041953192059E-1    5.871506917054370E-3    2.237803549994612E-2   -9.723417797814798E-3    2.238110491110188E-2   -9.735357522768790E-3    9.776397420427080E-1    5.966719286842602E-3
 1.998047544652348E6     9.777571322673849E-1    5.787968629668649E-3    2.233252448451439E-2   -9.668288004146418E-3    2.233342351560828E-2   -9.677393745444275E-3    9.776579891266216E-1    5.873462397347709E-3
 2.013292372979546E6     9.777362161209189E-1    5.703113716108995E-3    2.228815839711651E-2   -9.616418996047789E-3    2.228687505207378E-2   -9.623382907740277E-3    9.776949570264326E-1    5.793783555841285E-3
 2.028653517252947E6     9.777981836625517E-1    5.614831722515711E-3    2.224280737487956E-2   -9.560324464761920E-3    2.224221615700803E-2   -9.567264418579373E-3    9.777757343398600E-1    5.721324041541305E-3
 2.044131864947255E6     9.778222523524823E-1    5.539958001917127E-3    2.219802553028866E-2   -9.503871921132280E-3    2.219609891277817E-2   -9.514811678488893E-3    9.777851797182584E-1    5.620566355444362E-3
 2.059728310308467E6     9.778799921290624E-1    5.462059554295733E-3    2.215041003095250E-2   -9.452177408414825E-3    2.215032380340579E-2   -9.458110036626066E-3    9.778441396765668E-1    5.554924780185183E-3
 2.075443754405562E6     9.779333436641892E-1    5.380702882923348E-3    2.210528063707101E-2   -9.395619793074978E-3    2.210727383767705E-2   -9.402756334020221E-3    9.778959157588473E-1    5.471575492547633E-3
 2.091279105182548E6     9.779987025648504E-1    5.292692298798483E-3    2.205939091127432E-2   -9.344184550564495E-3    2.206269954679526E-2   -9.349734513296667E-3    9.779455669350292E-1    5.389057694882829E-3
 2.107235277510921E6     9.780395216221504E-1    5.217836689567518E-3    2.201590514082598E-2   -9.293554723955582E-3    2.201555095991758E-2   -9.296350609962624E-3    9.779633917821958E-1    5.297605020772709E-3
 2.123313193242529E6     9.780764951206856E-1    5.125742510183856E-3    2.197237998725131E-2   -9.236035396529509E-3    2.197267502700889E-2   -9.241673500427403E-3    9.780107820844322E-1    5.225554468133224E-3
 2.139513781262815E6     9.781001856387246E-1    5.048654937794122E-3    2.192528462962700E-2   -9.184263257469967E-3    2.192819884935581E-2   -9.186403162649520E-3    9.780637248368492E-1    5.132068755015994E-3
 2.155837977544490E6     9.781620157883195E-1    4.959340103870043E-3    2.187959308498963E-2   -9.127428331938714E-3    2.188098339380846E-2   -9.132555736744544E-3    9.780455395422950E-1    5.060526792643416E-3
 2.172286725201612E6     9.782536987828446E-1    4.895141424580174E-3    2.183796037194973E-2   -9.076793939555718E-3    2.183824668247436E-2   -9.077556175154697E-3    9.780924437232991E-1    4.985585563716886E-3
 2.188860974544063E6     9.782673778384161E-1    4.811983753065593E-3    2.179138698483893E-2   -9.020189634380393E-3    2.179261162494614E-2   -9.022427643987606E-3    9.781374606383259E-1    4.890537461316007E-3
 2.205561683132472E6     9.783134838487862E-1    4.735697667821557E-3    2.174573840784355E-2   -8.966218642843563E-3    2.174514091865993E-2   -8.967712577767854E-3    9.782400146382202E-1    4.801762128419093E-3
 2.222389815833514E6     9.783365486475564E-1    4.637893781246188E-3    2.170063160402369E-2   -8.913252009934015E-3    2.170337365703158E-2   -8.911723547247813E-3    9.782849942778660E-1    4.719708136183702E-3
 2.239346344875663E6     9.783714021358761E-1    4.550521051580084E-3    2.165468867165921E-2   -8.855151095331774E-3    2.165679996860367E-2   -8.854340093515777E-3    9.783269565013835E-1    4.634146815315964E-3
 2.256432249905369E6     9.784109709564260E-1    4.481566071144343E-3    2.160918102376155E-2   -8.802296853785547E-3    2.161125540544440E-2   -8.801375030568334E-3    9.783553021092571E-1    4.537723363315523E-3
 2.273648518043640E6     9.785074107850668E-1    4.388022259110087E-3    2.156694985846296E-2   -8.748550632487622E-3    2.156901146798023E-2   -8.744600280836880E-3    9.784279132710119E-1    4.456711185015915E-3
 2.290996143943099E6     9.785515614210829E-1    4.305720834540070E-3    2.152258111305601E-2   -8.692374624198140E-3    2.152239214683673E-2   -8.687759629447123E-3    9.784373624420177E-1    4.380597332898001E-3
 2.308476129845417E6     9.785699306769868E-1    4.237080131274442E-3    2.147714943928593E-2   -8.639529448090251E-3    2.147982233738481E-2   -8.631644180461657E-3    9.784726001108821E-1    4.294773210767658E-3
 2.326089485639235E6     9.785691694459707E-1    4.162135744224012E-3    2.143298159521353E-2   -8.585781222149997E-3    2.143585098721962E-2   -8.575867185175549E-3    9.785055255417983E-1    4.226546877399013E-3
 2.343837228918507E6     9.786533243187820E-1    4.067071485085092E-3    2.138909248986606E-2   -8.528801476989374E-3    2.139140447141853E-2   -8.516337369875646E-3    9.785077204445886E-1    4.148700463984739E-3
 2.361720385041283E6     9.786734175394798E-1    3.956807668649713E-3    2.134379936083575E-2   -8.475090334944937E-3    2.135026302096128E-2   -8.463827675795961E-3    9.785943022145629E-1    4.056173721957956E-3
 2.379739987188969E6     9.787343750678090E-1    3.896234429141129E-3    2.130136784327381E-2   -8.419130289532504E-3    2.130742699242257E-2   -8.405102199808553E-3    9.786053694593340E-1    3.981251038816843E-3
 2.397897076425990E6     9.788076975443213E-1    3.760297413616882E-3    2.125861725306552E-2   -8.363488055200553E-3    2.126803647716184E-2   -8.352542836528051E-3    9.786476013248493E-1    3.882270741370867E-3
 2.416192701759947E6     9.788089053033692E-1    3.687700283812556E-3    2.121620077731930E-2   -8.303465717648992E-3    2.122674937905946E-2   -8.295814047748915E-3    9.786804548319173E-1    3.804452361805024E-3
 2.434627920202243E6     9.788463092445716E-1    3.559146133161147E-3    2.117390764580053E-2   -8.247166842541533E-3    2.118704225179832E-2   -8.241052348031212E-3    9.787318355961270E-1    3.714369717328629E-3
 2.453203796829114E6     9.788886313007239E-1    3.489097200033996E-3    2.113090886939652E-2   -8.192640077165315E-3    2.114430337941620E-2   -8.182285955351733E-3    9.787721184918955E-1    3.602771727430766E-3
 2.471921404843189E6     9.789798601382018E-1    3.380874712683457E-3    2.108945395575417E-2   -8.136301832597150E-3    2.110039232984025E-2   -8.128823871074404E-3    9.788469155150230E-1    3.535242341548897E-3
 2.490781825635486E6     9.790328629473973E-1    3.313462279012680E-3    2.104921827616684E-2   -8.082804102182111E-3    2.106604744584346E-2   -8.074501765672792E-3    9.788809192419320E-1    3.449381151174188E-3
 2.509786148847881E6     9.789834066617316E-1    2.813081237204682E-3    2.113531707009748E-2   -7.909551440969788E-3    2.103189349444735E-2   -8.191861128705059E-3    9.791094764104550E-1    3.693855094514442E-3
 2.528935472436085E6     9.790589806978657E-1    2.998354783722460E-3    2.110297853512798E-2   -7.822119121328410E-3    2.098422173819027E-2   -8.146026311155128E-3    9.791433300627320E-1    3.540459847816445E-3
 2.548230902733043E6     9.791542756935544E-1    3.151170939051495E-3    2.106504464127903E-2   -7.767812208276302E-3    2.094918685964143E-2   -8.087663935789399E-3    9.792135522255111E-1    3.565724753242073E-3
 2.567673554512876E6     9.792052705692352E-1    3.033198107525801E-3    2.103108340597259E-2   -7.706741356533561E-3    2.090591641862799E-2   -8.031872740809123E-3    9.791962459836695E-1    3.418512566973751E-3
 2.587264551055275E6     9.792649532216495E-1    2.971749768879319E-3    2.099088207788246E-2   -7.654387044582177E-3    2.087222165394144E-2   -7.973570913672108E-3    9.792349393757663E-1    3.220474147336971E-3
 2.607005024210399E6     9.792425237851263E-1    2.729068538912428E-3    2.095020498184485E-2   -7.596895298072158E-3    2.083363182346701E-2   -7.909956825600931E-3    9.792786253271388E-1    3.172392807600433E-3
 2.626896114464281E6     9.793030408167465E-1    2.639352611590568E-3    2.090607206916056E-2   -7.540645511254680E-3    2.079676664377336E-2   -7.850446325176756E-3    9.793257448163250E-1    3.177765545420390E-3
 2.646938971004693E6     9.793324858600250E-1    2.511765342964470E-3    2.086988657600703E-2   -7.491444625818126E-3    2.076105297176888E-2   -7.793432357617212E-3    9.793517523318768E-1    3.052871722971487E-3
 2.667134751787555E6     9.793647176186905E-1    2.471526718636671E-3    2.082000067526564E-2   -7.446055284546254E-3    2.072570451248191E-2   -7.733057083556480E-3    9.794715101330954E-1    3.119416882953069E-3
 2.687484623603833E6     9.794152075984685E-1    2.199673523102865E-3    2.078927151608267E-2   -7.381933938558518E-3    2.069185487406685E-2   -7.670999824515870E-3    9.795264752380182E-1    3.057529361442360E-3
 2.707989762146940E6     9.794853638940276E-1    2.184712480139986E-3    2.074905387363991E-2   -7.332155228822612E-3    2.065133588027878E-2   -7.622102917863301E-3    9.795005728974816E-1    2.779807037595183E-3
 2.728651352080688E6     9.794137093140945E-1    1.959203675845294E-3    2.070219430422372E-2   -7.279131996826349E-3    2.061737315741766E-2   -7.559440801400183E-3    9.795823835674885E-1    2.875824728203924E-3
 2.749470587107692E6     9.794273965884148E-1    1.731728032904325E-3    2.066834893538591E-2   -7.219246000169885E-3    2.058500764860789E-2   -7.496594822749055E-3    9.796111189086882E-1    2.734464334144912E-3
 2.770448670038360E6     9.795038848882814E-1    1.773070555605942E-3    2.063000307739585E-2   -7.166553292534996E-3    2.054595639563561E-2   -7.439599253719557E-3    9.796121114377173E-1    2.598374725481759E-3
 2.791586812860380E6     9.795784964939864E-1    1.685655750042259E-3    2.058836127241331E-2   -7.112895574891333E-3    2.050525163438512E-2   -7.388222988671886E-3    9.795782297918378E-1    2.334673666568041E-3
 2.812886236808732E6     9.796629956289000E-1    1.749665276111049E-3    2.055097647861140E-2   -7.052477349744440E-3    2.046931410929206E-2   -7.327184007503861E-3    9.796636248426642E-1    2.304185878579382E-3
 2.834348172436268E6     9.796591938670026E-1    1.559965050013573E-3    2.051260964952639E-2   -7.004046688755055E-3    2.043314519138030E-2   -7.265928983018641E-3    9.797220838670792E-1    2.179248582142735E-3
 2.855973859684773E6     9.796415988497225E-1    1.349106909599314E-3    2.046615270511935E-2   -6.953146286218709E-3    2.038972551648909E-2   -7.216130264420955E-3    9.797829131890623E-1    2.141901125373808E-3
 2.877764547956619E6     9.797313415310702E-1    1.298495927156820E-3    2.043399888119659E-2   -6.891447569093046E-3    2.035266661610957E-2   -7.158062412520239E-3    9.798122000383306E-1    2.013233748981064E-3
 2.899721496186967E6     9.797800170050686E-1    1.412958849768428E-3    2.039203619344010E-2   -6.840260601116194E-3    2.032289592957053E-2   -7.096989566521516E-3    9.798571847398553E-1    2.081425166909341E-3
 2.921845972916440E6     9.797610952498201E-1    1.182928537200746E-3    2.035276750384281E-2   -6.786394046385391E-3    2.028544296963352E-2   -7.041109744267092E-3    9.799017665429286E-1    1.959744458987798E-3
 2.944139256364495E6     9.798731239145433E-1    1.215621685280443E-3    2.031644535386463E-2   -6.728298110131539E-3    2.025229181055131E-2   -6.983131594717544E-3    9.799753793516847E-1    1.911724769371842E-3
 2.966602634503201E6     9.798321680635198E-1    8.020685653766684E-4    2.027414664688286E-2   -6.680190133954741E-3    2.021801849588518E-2   -6.919913410197711E-3    9.800781566205338E-1    1.912159300824037E-3
 2.989237405131679E6     9.798749414991442E-1    8.245120144339173E-4    2.023833281676228E-2   -6.627661617449559E-3    2.018062129794964E-2   -6.866390235379331E-3    9.801346486096927E-1    1.925180043831798E-3
 3.012044875951098E6     9.798600841183789E-1    8.932392717348328E-4    2.021184734840461E-2   -6.603812400885269E-3    2.016725237001041E-2   -6.731573256550518E-3    9.801790588876191E-1    1.718929708386986E-3
 3.035026364640187E6     9.799618636357871E-1    8.632558509968665E-4    2.017617122695756E-2   -6.545560588966234E-3    2.012733106851859E-2   -6.675159253660676E-3    9.801437065046981E-1    1.515805768413775E-3
 3.058183198931389E6     9.799581487820062E-1    8.259160558645496E-4    2.013183337698697E-2   -6.491308240618551E-3    2.009584901293976E-2   -6.616081217103942E-3    9.802088927074455E-1    1.429802539190477E-3
 3.081516716687564E6     9.799351933987008E-1    7.433938276179409E-4    2.009978393709829E-2   -6.428266799531032E-3    2.005605087451908E-2   -6.567973792666525E-3    9.802524314598263E-1    1.393585122019319E-3
 3.105028265979277E6     9.800714891050946E-1    7.985520116699756E-4    2.006383833705986E-2   -6.371629339159947E-3    2.001936750250658E-2   -6.507864036975218E-3    9.802408166942351E-1    1.075908865963101E-3
 3.128719205162701E6     9.801095764440884E-1    6.902879744886294E-4    2.002303110516154E-2   -6.325417435895193E-3    1.997931284272160E-2   -6.450036729297115E-3    9.802728429105907E-1    9.966216563692231E-4
 3.152590902958065E6     9.800159197208009E-1    2.247910414283227E-4    1.998863185256990E-2   -6.267616816293686E-3    1.994905775612272E-2   -6.391816289714256E-3    9.803173948150442E-1    1.017360776615086E-3
 3.176644738528751E6     9.800638931769355E-1    1.375198541289364E-4    1.995016909608749E-2   -6.206887296497671E-3    1.991339548668238E-2   -6.338366045925634E-3    9.803552632896698E-1    8.314925173381113E-4
 3.200882101560967E6     9.801046798169861E-1    2.197103806924742E-4    1.991396707170033E-2   -6.150706618019247E-3    1.988145685645423E-2   -6.278880376088506E-3    9.803501922046619E-1    7.160257592340084E-4
 3.225304392344028E6     9.801556599840193E-1   -6.649530343219924E-5    1.987957993536568E-2   -6.097514366108256E-3    1.984612645940989E-2   -6.224583224291362E-3    9.804965400037886E-1    7.274160226313759E-4
 3.249913021851289E6     9.802363857874697E-1   -9.510785073970910E-5    1.984731506250060E-2   -6.038526710125184E-3    1.980884346372662E-2   -6.165742089793841E-3    9.805224090391272E-1    6.688086710693579E-4
 3.274709411821612E6     9.802330786845800E-1   -3.321927983607010E-4    1.980306177580556E-2   -5.990198174705891E-3    1.977524028923186E-2   -6.105578392838225E-3    9.805318605906633E-1    5.232714540467711E-4
 3.299694994841541E6     9.802700371994771E-1   -2.763593368445911E-4    1.977056821665588E-2   -5.924257608608303E-3    1.974067129571398E-2   -6.052478574578735E-3    9.805439491185599E-1    3.382104252753933E-4
 3.324871214428060E6     9.803145661373268E-1   -4.794403814392176E-4    1.973503440112140E-2   -5.856661258211568E-3    1.970480104668196E-2   -6.005385084304977E-3    9.807281321952148E-1    6.492356821146889E-4
 3.350239525111979E6     9.803409231567355E-1   -6.468479820312524E-4    1.969764186553929E-2   -5.804679851543978E-3    1.966391010810875E-2   -5.945482595047817E-3    9.806780351280667E-1    3.545790786755728E-4
 3.375801392522001E6     9.803285731533122E-1   -7.474688888588217E-4    1.965998351773928E-2   -5.748219004694475E-3    1.962777621886079E-2   -5.894962840537712E-3    9.806772869548802E-1    2.370183785358744E-4
 3.401558293469354E6     9.804214940368120E-1   -8.295404355135602E-4    1.962787463388950E-2   -5.712141070958294E-3    1.960097974935793E-2   -5.824655958921208E-3    9.807181074563478E-1    5.364340144722873E-6
 3.427511716033138E6     9.804440202858465E-1   -8.851337768158379E-4    1.959160161089707E-2   -5.647011867967301E-3    1.956328429176594E-2   -5.773238042549654E-3    9.806581527938131E-1   -2.080216347164346E-4
 3.453663159646295E6     9.804988533760517E-1   -1.071498962897903E-3    1.955674484541014E-2   -5.593829308221950E-3    1.953026672345326E-2   -5.711131178294270E-3    9.807480687563659E-1   -2.876768701132057E-4
 3.480014135182226E6     9.805527325465092E-1   -1.059108958357363E-3    1.952124579335908E-2   -5.533419718465192E-3    1.950089695621003E-2   -5.653364383974965E-3    9.808265173652537E-1   -2.411659028170898E-4
 3.506566165042107E6     9.805571945440293E-1   -1.068928218848204E-3    1.949542794880844E-2   -5.484627141089475E-3    1.947009473309775E-2   -5.587536222330728E-3    9.809019657444707E-1   -3.380838387667557E-4
 3.533320783242811E6     9.806203897147470E-1   -1.255984776112331E-3    1.945788179881824E-2   -5.429950063426081E-3    1.943711467117577E-2   -5.531108294296387E-3    9.809808770532142E-1   -2.914482559851270E-4
 3.560279535505542E6     9.806421389310345E-1   -1.229872543044489E-3    1.942443014585265E-2   -5.369694994547639E-3    1.940436315609451E-2   -5.475011815170464E-3    9.809121594988969E-1   -6.021037267226501E-4
 3.587443979345170E6     9.806857857821089E-1   -1.362561355897768E-3    1.938763705385017E-2   -5.313515592527968E-3    1.936867676721027E-2   -5.416823407726612E-3    9.809210106339101E-1   -7.029632551287075E-4
 3.614815684160168E6     9.806979609463047E-1   -1.527674769029973E-3    1.934896548891539E-2   -5.258746708140341E-3    1.933680325557748E-2   -5.354662232751621E-3    9.809523094911043E-1   -9.157351059773627E-4
 3.642396231323309E6     9.807624504078838E-1   -1.609067379598763E-3    1.931816650836578E-2   -5.196595006069680E-3    1.929823394841377E-2   -5.306999258252780E-3    9.810048417024759E-1   -1.046718232530275E-3
 3.670187214273024E6     9.808040428149987E-1   -1.978130797801876E-3    1.926192312459395E-2   -5.103757484292487E-3    1.924302704867081E-2   -5.322820626722872E-3    9.809971689566299E-1   -9.796067790163133E-4
 3.698190238605455E6     9.808016989424031E-1   -2.249207297543166E-3    1.923201846553408E-2   -5.051257604335477E-3    1.920325933352004E-2   -5.265282659683191E-3    9.809742092531769E-1   -1.355620684468463E-3
 3.726406922167240E6     9.808835226323175E-1   -2.243687552862948E-3    1.920072599555328E-2   -4.991003354442141E-3    1.917490180807842E-2   -5.208240812856051E-3    9.810417536846208E-1   -1.306578766285965E-3
 3.754838895148946E6     9.809434910730479E-1   -2.293300599851933E-3    1.916481940049435E-2   -4.932547532121453E-3    1.914144030636178E-2   -5.147144673769110E-3    9.811027806825662E-1   -1.429421271072945E-3
 3.783487800179276E6     9.809175044035388E-1   -2.346032312703026E-3    1.913795073900400E-2   -4.885482824709284E-3    1.910960731292079E-2   -5.059648750341848E-3    9.811185080391565E-1   -1.572840466881811E-3
 3.812355292419964E6     9.809809074609748E-1   -2.311448839329616E-3    1.911013594110707E-2   -4.821963063980524E-3    1.907888617911998E-2   -5.004600568705095E-3    9.812167294859666E-1   -1.501767444886643E-3
 3.841443039661395E6     9.810129881144323E-1   -2.535080430371296E-3    1.907426470377280E-2   -4.763957345738831E-3    1.904559964595683E-2   -4.939418918377284E-3    9.813212630252304E-1   -1.520941182422360E-3
 3.870752722418987E6     9.809893139977821E-1   -2.605526903473251E-3    1.903947814089376E-2   -4.714185720468988E-3    1.901341123350663E-2   -4.884898170662183E-3    9.813207196242995E-1   -1.632285028497251E-3
 3.900286034030236E6     9.810527105113348E-1   -2.659169650244324E-3    1.900523501549008E-2   -4.648120649429752E-3    1.898155285048151E-2   -4.829713381041671E-3    9.813674567143200E-1   -1.762145963950573E-3
 3.930044680752580E6     9.810675757584606E-1   -2.816089496149934E-3    1.897645644079496E-2   -4.590403867063878E-3    1.895075849635075E-2   -4.771968734823012E-3    9.812842115145525E-1   -2.095881978637955E-3
 3.960030381861967E6     9.811323239114013E-1   -3.007471423805229E-3    1.894122984780411E-2   -4.532060844796172E-3    1.891629367840323E-2   -4.713864976627704E-3    9.812941699334797E-1   -2.320187407440879E-3
 3.990244869752173E6     9.811081323670805E-1   -3.029918419679298E-3    1.891069941178496E-2   -4.477066808867251E-3    1.888216443881343E-2   -4.648392830202418E-3    9.813087749706463E-1   -2.368783414220941E-3
 4.020689890034929E6     9.811773390030558E-1   -2.947751576301662E-3    1.888120209399130E-2   -4.437381583506021E-3    1.887111725135449E-2   -4.546728287436113E-3    9.814506110999366E-1   -2.386654922608580E-3
 4.051367201640718E6     9.812404175939325E-1   -3.059815541163811E-3    1.885326397757730E-2   -4.383772196299517E-3    1.883044234286328E-2   -4.496229520947756E-3    9.813789322753850E-1   -2.635652220806815E-3
 4.082278576920427E6     9.812496400795336E-1   -3.251548441449183E-3    1.881909970501803E-2   -4.325194162815195E-3    1.880283883261554E-2   -4.436696435454298E-3    9.813878462621726E-1   -2.717635042401909E-3
 4.113425801747740E6     9.812678592114750E-1   -3.298269705001515E-3    1.878407524034762E-2   -4.264724020583554E-3    1.877193850446834E-2   -4.381394891211664E-3    9.814642026015984E-1   -2.814638304552536E-3
 4.144810675622302E6     9.812616211071795E-1   -3.501585293058995E-3    1.875487396393809E-2   -4.208316690303184E-3    1.874534175025459E-2   -4.311366610391045E-3    9.815366607927524E-1   -2.824841562571085E-3
 4.176435011773718E6     9.813189482625917E-1   -3.554003024584661E-3    1.872062807403933E-2   -4.149009755730825E-3    1.871396415312904E-2   -4.252452996272989E-3    9.816361466945129E-1   -2.768572599312701E-3
 4.208300637266261E6     9.813123989728305E-1   -3.876473166557975E-3    1.868835095166056E-2   -4.095580415476292E-3    1.868031568920640E-2   -4.195668924586803E-3    9.816411092538554E-1   -2.927962591336259E-3
 4.240409393104453E6     9.813388943240556E-1   -3.908065038658429E-3    1.865691284876679E-2   -4.034208682818147E-3    1.865502546179986E-2   -4.133749707013162E-3    9.816854059014948E-1   -2.975723990280269E-3
 4.272763134339464E6     9.813969752373227E-1   -3.900866086665861E-3    1.863159709541850E-2   -3.974744010804406E-3    1.862189696872806E-2   -4.070676906315545E-3    9.817019907270322E-1   -3.086691476145536E-3
 4.305363730176185E6     9.814143713958627E-1   -3.997983221674376E-3    1.859684057778578E-2   -3.918222685484372E-3    1.858860618623781E-2   -4.011560647109897E-3    9.816470801618745E-1   -3.311993836525202E-3
 4.338213064081349E6     9.814483722219154E-1   -4.263818042639502E-3    1.855894387219522E-2   -3.849219778410168E-3    1.855152210820002E-2   -3.959375717382291E-3    9.817775567040942E-1   -3.246614946154564E-3
 4.371313033892244E6     9.814702699855332E-1   -4.431178002253583E-3    1.853032602432536E-2   -3.792754165880136E-3    1.851951236605737E-2   -3.905344377691283E-3    9.816425947136418E-1   -3.757222901344481E-3
 4.404665551926396E6     9.814992637555884E-1   -4.468440601488220E-3    1.850438749101659E-2   -3.726385071918135E-3    1.849210926821442E-2   -3.841509372072748E-3    9.817824435998798E-1   -3.624125389486324E-3
 4.438272545092077E6     9.815386481800934E-1   -4.631306460534999E-3    1.846797149069365E-2   -3.668907634948042E-3    1.845909090609467E-2   -3.782472981693202E-3    9.818070169751283E-1   -3.759140031871262E-3
 4.472135954999580E6     9.815591142008853E-1   -4.723765416884608E-3    1.843574827905981E-2   -3.612342557431938E-3    1.843133823316938E-2   -3.721222292911048E-3    9.818598870375292E-1   -3.816868635229801E-3
 4.506257738073424E6     9.816082096812959E-1   -4.784638462206904E-3    1.840884376458558E-2   -3.548412403729212E-3    1.839621086292965E-2   -3.662639071566603E-3    9.817477279585182E-1   -4.258921406494700E-3
 4.540639865665382E6     9.816230376788905E-1   -4.812211959757092E-3    1.838154848322322E-2   -3.497765727142689E-3    1.837720263486543E-2   -3.585429428690546E-3    9.818119054245890E-1   -4.422518164794441E-3
 4.575284324168356E6     9.817108286225829E-1   -5.024152025863017E-3    1.835144339235411E-2   -3.438685389899824E-3    1.835057733068845E-2   -3.522189712040655E-3    9.819471946358500E-1   -4.374201023660247E-3
 4.610193115131186E6     9.817208738214415E-1   -5.295532134817298E-3    1.831211047828538E-2   -3.359738975840833E-3    1.830024339284474E-2   -3.510401697294708E-3    9.818838785647891E-1   -4.541218313044846E-3
 4.645368255374223E6     9.817201989356585E-1   -5.414831351351988E-3    1.828362234940649E-2   -3.295212554515284E-3    1.826904959039544E-2   -3.449523918671095E-3    9.818605943981206E-1   -4.762423198948421E-3
 4.680811777105891E6     9.817088328993350E-1   -5.571614012410420E-3    1.825387628362312E-2   -3.228661024709589E-3    1.824282521280417E-2   -3.386332103113535E-3    9.818772970532891E-1   -4.901260580253730E-3
 4.716525728040087E6     9.817617679338622E-1   -5.748315161647199E-3    1.822137953250974E-2   -3.173009835156161E-3    1.821192846208363E-2   -3.324991863245773E-3    9.818828168455173E-1   -4.966345467603839E-3
 4.752512171514469E6     9.818722434347369E-1   -5.922794755140614E-3    1.819281195438618E-2   -3.111505218302292E-3    1.818112542085755E-2   -3.261220288583864E-3    9.820301397086998E-1   -4.706929190756724E-3
 4.788773186609713E6     9.818426836925689E-1   -6.020442842967539E-3    1.816207993676869E-2   -3.048748615382076E-3    1.815377855778669E-2   -3.201257642699328E-3    9.819994441617744E-1   -4.963878251781807E-3
 4.825310868269563E6     9.819482724920606E-1   -6.157700516321920E-3    1.812888135615019E-2   -2.986067184884234E-3    1.812547201202630E-2   -3.167637960911877E-3    9.819641278037761E-1   -5.185255234817224E-3
 4.862127327421905E6     9.819467449939269E-1   -6.324772861717328E-3    1.809999221309167E-2   -2.919479763493603E-3    1.809724096636490E-2   -3.103191469573440E-3    9.820104500865324E-1   -5.372734204672156E-3
 4.899224691100715E6     9.819629518318038E-1   -6.454005681929120E-3    1.806955982346328E-2   -2.861858181049374E-3    1.806583099721434E-2   -3.045382823178872E-3    9.820363961342027E-1   -5.495797417664643E-3
 4.936605102568937E6     9.819910740783413E-1   -6.568916932564378E-3    1.804312507242784E-2   -2.792852634283981E-3    1.803991906321692E-2   -2.975520679296922E-3    9.820677324900176E-1   -5.459683645312301E-3
 4.974270721442348E6     9.819720163187717E-1   -6.713677082410409E-3    1.801572634059242E-2   -2.732138310885206E-3    1.801018529183300E-2   -2.914394015714884E-3    9.821082247600487E-1   -5.650190475322315E-3
 5.012223723814265E6     9.820514839017034E-1   -6.872191530968813E-3    1.798711315399121E-2   -2.674489147920217E-3    1.797774707712040E-2   -2.860546181640947E-3    9.820944211606851E-1   -6.003245838215403E-3
 5.050466302381308E6     9.821052297062475E-1   -6.989053436669626E-3    1.795622520950620E-2   -2.602179405037099E-3    1.795083276566626E-2   -2.796598248266843E-3    9.821364784033891E-1   -6.070588885183712E-3
 5.089000666570071E6     9.820944032636238E-1   -7.154052327602242E-3    1.792656494790766E-2   -2.544328925894574E-3    1.792659988391964E-2   -2.731705323866278E-3    9.821657579885563E-1   -6.070128499388686E-3
 5.127829042664761E6     9.821145246662706E-1   -7.305195655363812E-3    1.790460093970716E-2   -2.483604686316033E-3    1.789350640301842E-2   -2.668825694646675E-3    9.822168210802015E-1   -6.149458267436281E-3
 5.166953673935857E6     9.820986695390391E-1   -7.439528533320489E-3    1.787298592507014E-2   -2.416246193726046E-3    1.786841233146057E-2   -2.603408001499626E-3    9.822461578388224E-1   -6.290684322169346E-3
 5.206376820769652E6     9.821791279527077E-1   -7.518355206870260E-3    1.784530466906845E-2   -2.357852981582348E-3    1.783914179953038E-2   -2.547358059155699E-3    9.822076848883331E-1   -6.706612749878730E-3
 5.246100760798878E6     9.822374794841254E-1   -7.682241012987532E-3    1.781585899571028E-2   -2.298756151137443E-3    1.780990782664824E-2   -2.487213572502847E-3    9.822443194412880E-1   -6.763919470619228E-3
 5.286127789034322E6     9.822751206299168E-1   -7.821029007864109E-3    1.778939341823809E-2   -2.229275958791319E-3    1.778185755771811E-2   -2.424338162536217E-3    9.822534888762426E-1   -6.796703224535116E-3
 5.326460217997355E6     9.822056289983476E-1   -7.650258380214876E-3    1.778254020602724E-2   -2.209320414467596E-3    1.778699729470703E-2   -2.256176959317111E-3    9.823914774579486E-1   -6.925286841044156E-3
 5.367100377853584E6     9.822527125695468E-1   -7.812048411152316E-3    1.775637979697961E-2   -2.147431678609125E-3    1.775933978626956E-2   -2.189859239032985E-3    9.824631044222353E-1   -6.948534677228916E-3
 5.408050616547454E6     9.822837645677075E-1   -7.918380143609131E-3    1.772987752783814E-2   -2.079450662545901E-3    1.773179693087792E-2   -2.127799108416455E-3    9.824071111261798E-1   -7.287417426827458E-3
 5.449313299937895E6     9.822861566062512E-1   -8.089833923597446E-3    1.769807406666317E-2   -2.021918541306802E-3    1.770735461620837E-2   -2.057340800029603E-3    9.824489335320001E-1   -7.243849860377628E-3
 5.490890811935049E6     9.823515604054276E-1   -8.499491827852227E-3    1.765300933671575E-2   -1.904959449014550E-3    1.765024788108091E-2   -2.093747927391270E-3    9.823825901120755E-1   -7.610117062690326E-3
 5.532785554637930E6     9.823991880982073E-1   -8.682114066363128E-3    1.762847588001639E-2   -1.846056579983548E-3    1.762284752917510E-2   -2.026510024697644E-3    9.823850443774097E-1   -7.629847316381996E-3
 5.574999948473252E6     9.823816203398270E-1   -8.559135570875419E-3    1.761973029937666E-2   -1.818121870433885E-3    1.762585957175853E-2   -1.864833586069783E-3    9.824751913076579E-1   -7.905399009662264E-3
 5.617536432335250E6     9.823928115398114E-1   -8.717419765842208E-3    1.759366714298759E-2   -1.756972824931640E-3    1.759981760909549E-2   -1.796115788109929E-3    9.824880698566353E-1   -8.024041855292895E-3
 5.660397463726575E6     9.824107947494419E-1   -8.823156276269041E-3    1.756860107365647E-2   -1.695918619626631E-3    1.757152077323222E-2   -1.731180956462249E-3    9.824597649536132E-1   -8.288473717580083E-3
 5.703585518900323E6     9.825255816582833E-1   -9.294181334908103E-3    1.752167533651748E-2   -1.579760472849846E-3    1.751786029889957E-2   -1.764125104553933E-3    9.824835372399374E-1   -8.549939532147260E-3
 5.747103093003022E6     9.825475892009848E-1   -9.411920022813951E-3    1.749596034490863E-2   -1.507762831982886E-3    1.749283615301840E-2   -1.701514474388510E-3    9.824919147529076E-1   -8.873819154074722E-3
 5.790952700218840E6     9.825576123824752E-1   -9.582169616835775E-3    1.746769208544114E-2   -1.450415019643538E-3    1.746646547715669E-2   -1.634911498266134E-3    9.824781090666528E-1   -9.151586542381693E-3
 5.835136873914825E6     9.825424249898055E-1   -9.448546345308423E-3    1.746477573892281E-2   -1.426863831647365E-3    1.746565922087940E-2   -1.464275084239084E-3    9.825735674915408E-1   -9.061490355568370E-3
 5.879658166787256E6     9.825509113491694E-1   -9.588399611957205E-3    1.744021629674607E-2   -1.359556824313080E-3    1.744130407101418E-2   -1.389422350716573E-3    9.825850806401002E-1   -9.025795610033032E-3
 5.924519151009166E6     9.825153590609221E-1   -9.759464545012642E-3    1.741228988715720E-2   -1.303287399875441E-3    1.741749869787993E-2   -1.321041760125382E-3    9.826860776658028E-1   -9.030092697986727E-3
 5.969722418378883E6     9.825500337268491E-1   -9.908927581615764E-3    1.738836083580327E-2   -1.226879182725554E-3    1.739072241401131E-2   -1.258440387400917E-3    9.826868422185671E-1   -9.404439961658930E-3
 6.015270580469812E6     9.826144390152787E-1   -1.006178274010925E-2    1.736306481518729E-2   -1.158065363751184E-3    1.736375349656376E-2   -1.192955769602502E-3    9.826137847807680E-1   -9.673835997786640E-3
 6.061166268781302E6     9.826392041646316E-1   -1.022068950008117E-2    1.734036922026031E-2   -1.092671834213940E-3    1.733758924751852E-2   -1.124351285790597E-3    9.827048915508526E-1   -9.728814798235745E-3
 6.107412134890671E6     9.826587616998841E-1   -1.042438787894526E-2    1.731113921467939E-2   -1.020428616611439E-3    1.730527034035034E-2   -1.059436124121745E-3    9.826932870011462E-1   -9.876301961742493E-3
 6.154010850606443E6     9.827044794688554E-1   -1.058827410881756E-2    1.729020448264399E-2   -9.502557945743047E-4    1.727992212623791E-2   -9.907197472404175E-4    9.827412614158656E-1   -1.001299465331085E-2
 6.200965108122637E6     9.827488977547187E-1   -1.072831308938243E-2    1.726339258697327E-2   -8.799281472727488E-4    1.725543952492497E-2   -9.239180723659882E-4    9.827402429572893E-1   -1.012845317826110E-2
 6.248277620174343E6     9.827289473560894E-1   -1.090138425666038E-2    1.723534352365255E-2   -8.120876628273156E-4    1.723102424414117E-2   -8.521858016675597E-4    9.827549395015100E-1   -1.057047943948587E-2
 6.295951120194497E6     9.828059254092426E-1   -1.101504953915311E-2    1.721325624554585E-2   -7.422156624486855E-4    1.720263905533571E-2   -7.855172045480600E-4    9.827919215693781E-1   -1.062899621198967E-2
 6.343988362471664E6     9.828242112419286E-1   -1.116024014756184E-2    1.718981199833203E-2   -6.794347618904154E-4    1.718869541257100E-2   -7.066180939132545E-4    9.828124063137044E-1   -1.068418577958431E-2
 6.392392122309345E6     9.828692290409879E-1   -1.134525557679623E-2    1.716889901530269E-2   -6.069889659761317E-4    1.716466950645828E-2   -6.349944612700266E-4    9.828249971875606E-1   -1.080948776139867E-2
 6.441165196186168E6     9.828462210792047E-1   -1.149156887781379E-2    1.714505933966254E-2   -5.403889065293237E-4    1.713705161075214E-2   -5.676655675191664E-4    9.828808399037866E-1   -1.098074409306335E-2
 6.490310401917514E6     9.828627863986726E-1   -1.164437651353020E-2    1.712100109636421E-2   -4.680744449801565E-4    1.711632694186506E-2   -4.938971146203404E-4    9.828976324370976E-1   -1.105224557250771E-2
 6.539830578818345E6     9.829360390616511E-1   -1.182829674909126E-2    1.709821944047889E-2   -3.977113506605818E-4    1.709160157718029E-2   -4.223193815873606E-4    9.829046373870237E-1   -1.119115561290367E-2
 6.589728587867169E6     9.829292077949360E-1   -1.199478977613192E-2    1.707064951963760E-2   -3.293266884240960E-4    1.706795210262946E-2   -3.512287235708891E-4    9.829476450533597E-1   -1.129736986952137E-2
 6.640007311871376E6     9.829938185921877E-1   -1.215110233444074E-2    1.705154424454956E-2   -2.589926937152740E-4    1.704128163798789E-2   -2.846085764085994E-4    9.829437877512346E-1   -1.163255391345877E-2
 6.690669655633785E6     9.830410530530747E-1   -1.232583912106796E-2    1.702368949304785E-2   -1.885697992417835E-4    1.701997843802456E-2   -2.111361457371261E-4    9.829735983545326E-1   -1.182804474417057E-2
 6.741718546120445E6     9.830332004531742E-1   -1.249282373705303E-2    1.700229518770852E-2   -1.149026258622028E-4    1.699697822815740E-2   -1.400851027744057E-4    9.830054316119700E-1   -1.200551215787193E-2
 6.793156932629797E6     9.829835861831054E-1   -1.265146154469793E-2    1.697800915371929E-2   -4.318585225715274E-5    1.697062216457564E-2   -6.953837945204063E-5    9.830148716655623E-1   -1.209787036812655E-2
 6.844987786962981E6     9.829905687310898E-1   -1.284994361938015E-2    1.695546548189903E-2    2.951958054850764E-5    1.695030591202350E-2   -4.237752865185701E-7    9.830614938245087E-1   -1.223526487799003E-2
 6.897214103595586E6     9.830209684053058E-1   -1.307527722498100E-2    1.692302306672545E-2    1.212035047369348E-4    1.691359037565132E-2    4.769599941029047E-5    9.831109095634707E-1   -1.244922598752894E-2
 6.949838899850640E6     9.829767921077449E-1   -1.321986394895745E-2    1.690200521761702E-2    1.990175553844544E-4    1.688883587981261E-2    1.231934319327418E-4    9.831452247715778E-1   -1.269460632403772E-2
 7.002865216072913E6     9.830643992365649E-1   -1.354279016205352E-2    1.686408183797708E-2    2.916836672596892E-4    1.686093116853514E-2    1.323689840698941E-4    9.832384773679480E-1   -1.284358334054523E-2
 7.056296115804635E6     9.830555379613641E-1   -1.369238589121286E-2    1.684288732006801E-2    3.651709498730160E-4    1.683950572114673E-2    2.041342821519773E-4    9.832326335567104E-1   -1.306176918243577E-2
 7.110134685962399E6     9.831350960984940E-1   -1.388625272776585E-2    1.681914578138059E-2    4.403617144930861E-4    1.681665845357479E-2    2.795300251225065E-4    9.832139451957784E-1   -1.333449778499606E-2
 7.164384037015557E6     9.832205011989357E-1   -1.409134984087505E-2    1.679578831892201E-2    5.115781235034439E-4    1.679297396966234E-2    3.514216329265262E-4    9.832373563153926E-1   -1.352274153508122E-2
 7.219047303165923E6     9.832265866748022E-1   -1.427767488826815E-2    1.677483765090721E-2    5.862934927421690E-4    1.677273380844175E-2    4.277218981017501E-4    9.832424519032547E-1   -1.374557907342968E-2
 7.274127642528819E6     9.832674641819125E-1   -1.442117751054005E-2    1.675170534861442E-2    6.673748511256178E-4    1.675098416149301E-2    5.034755324408475E-4    9.832909613959316E-1   -1.385633436991216E-2
 7.329628237315600E6     9.832887480030963E-1   -1.465641421791913E-2    1.671782498886585E-2    7.508633308139952E-4    1.673587178327291E-2    5.401139275851025E-4    9.833470498757418E-1   -1.402715324626593E-2
 7.385552294017412E6     9.832894834558205E-1   -1.483142261618271E-2    1.669453913624025E-2    8.249072736866599E-4    1.671407514523690E-2    6.141060265355894E-4    9.833831242580094E-1   -1.422097838187063E-2
 7.441903043590503E6     9.832926277341678E-1   -1.481178078464051E-2    1.670426875875865E-2    8.570402136737833E-4    1.669317824230346E-2    8.007129759792170E-4    9.833927702737172E-1   -1.437783639134342E-2
 7.498683741642874E6     9.832714438440510E-1   -1.496079854893730E-2    1.668154601350063E-2    9.341946435772134E-4    1.667125400115163E-2    8.795022800859929E-4    9.833979846201101E-1   -1.458393083783676E-2
 7.555897668622349E6     9.833581711165987E-1   -1.528880115062186E-2    1.663475336876682E-2    1.048563993002896E-3    1.664442157732647E-2    8.787529991226445E-4    9.834358410698891E-1   -1.473421138863551E-2
 7.613548130006171E6     9.833784291030935E-1   -1.550159272327630E-2    1.661494162474728E-2    1.125023270803028E-3    1.662304716022135E-2    9.519369075119608E-4    9.834603620029286E-1   -1.493588118966672E-2
 7.671638456491867E6     9.834522137482733E-1   -1.579010428960656E-2    1.657040498409464E-2    1.222589798121827E-3    1.664037901533197E-2    9.428897143825741E-4    9.835008499924122E-1   -1.508670066707073E-2
 7.730172004189732E6     9.834607948158305E-1   -1.593790963622229E-2    1.654993974338089E-2    1.298730048676234E-3    1.662021607426088E-2    1.019413182837019E-3    9.834851207603689E-1   -1.528521617047592E-2
 7.789152154816771E6     9.835105305166112E-1   -1.616453810331510E-2    1.652759592429371E-2    1.377097711047217E-3    1.659987587354078E-2    1.098026652036433E-3    9.834636076427622E-1   -1.545239144246372E-2
 7.848582315891974E6     9.834200205488745E-1   -1.623283525325239E-2    1.652844205770213E-2    1.440406208475716E-3    1.654162854131740E-2    1.262779401909425E-3    9.835401831415522E-1   -1.565353465944466E-2
 7.908465920933248E6     9.834418460368832E-1   -1.643085772271095E-2    1.650829984525338E-2    1.518933321575826E-3    1.652057535871774E-2    1.337397153224126E-3    9.835458956228478E-1   -1.583735420642629E-2
 7.968806429655775E6     9.834627751218291E-1   -1.659780421832460E-2    1.648720383611788E-2    1.599690690501169E-3    1.650098699265072E-2    1.415676822612638E-3    9.835703591863872E-1   -1.600937810423591E-2
 8.029607328171868E6     9.835195629816363E-1   -1.678720574691229E-2    1.646841101908953E-2    1.679211098834498E-3    1.648166524912372E-2    1.495686117149864E-3    9.835902596578079E-1   -1.620682536730054E-2
 8.090872129192449E6     9.835236893732775E-1   -1.695497161688578E-2    1.644708344694188E-2    1.758214131379844E-3    1.646125676537264E-2    1.574667454990830E-3    9.835902908822427E-1   -1.637572952110999E-2
 8.152604372229892E6     9.834600502403147E-1   -1.714312569274029E-2    1.642533445869560E-2    1.838123931821666E-3    1.644122810366430E-2    1.654626920472868E-3    9.836258363108238E-1   -1.658347383300144E-2
 8.214807623802581E6     9.835389697268956E-1   -1.736182402781996E-2    1.640552636196840E-2    1.917445224509187E-3    1.642309211497432E-2    1.734650159809483E-3    9.835700144746665E-1   -1.675532910156876E-2
 8.277485477640945E6     9.835445649240120E-1   -1.755715473068341E-2    1.638563641318621E-2    1.999341012878094E-3    1.640153549471116E-2    1.813720339434127E-3    9.835984130315684E-1   -1.693591269650703E-2
 8.340641554895067E6     9.835587866820359E-1   -1.776294005513018E-2    1.636575715245908E-2    2.079148920731603E-3    1.638381011993399E-2    1.895480127942758E-3    9.836637730206224E-1   -1.713013865073906E-2
 8.404279504343957E6     9.835810054798064E-1   -1.794431067032895E-2    1.634282915950336E-2    2.162448607236728E-3    1.636504761383751E-2    1.977299980446300E-3    9.836792649020937E-1   -1.734433738172188E-2
 8.468403002606256E6     9.835536990364020E-1   -1.814117973634419E-2    1.632358936164292E-2    2.243982525338089E-3    1.634745657555936E-2    2.059203207020650E-3    9.837040920650630E-1   -1.754343613907330E-2
 8.533015754352720E6     9.835643473914960E-1   -1.828486471897208E-2    1.631467509843069E-2    2.314982142253103E-3    1.632262609124861E-2    2.178445384482228E-3    9.837410776199581E-1   -1.776074515462115E-2
 8.598121492520234E6     9.835848557707014E-1   -1.848375535987881E-2    1.629685223280002E-2    2.397949668784338E-3    1.630411086823084E-2    2.261399265804201E-3    9.837617705159898E-1   -1.790632859272422E-2
 8.663723978527457E6     9.837253021028878E-1   -1.886829343065253E-2    1.624328412220902E-2    2.505725093050066E-3    1.633775420852343E-2    2.214348227268188E-3    9.837910540226906E-1   -1.810353741056032E-2
 8.729827002492212E6     9.837524779361057E-1   -1.905715666651170E-2    1.621921169623694E-2    2.588808737505908E-3    1.632111225331224E-2    2.295664174232841E-3    9.837807027589665E-1   -1.830609915140042E-2
 8.796434383450346E6     9.837397591558146E-1   -1.927782905884130E-2    1.620160580847206E-2    2.672875325704418E-3    1.630043821200607E-2    2.376415782740093E-3    9.838100710521996E-1   -1.854961696708734E-2
 8.863549969576446E6     9.837585924335361E-1   -1.944223198852572E-2    1.619825875511013E-2    2.750112597310480E-3    1.625020090248012E-2    2.515472913449612E-3    9.837684005888162E-1   -1.873513046687893E-2
 8.931177638406139E6     9.837314544496600E-1   -1.962057461307701E-2    1.617977202793270E-2    2.836051396259975E-3    1.623268767426165E-2    2.599927238992390E-3    9.838279870922930E-1   -1.893443302569319E-2
 8.999321297060097E6     9.837518702930748E-1   -1.986966998274957E-2    1.615898358290878E-2    2.919566791799337E-3    1.621538599145491E-2    2.682544240928393E-3    9.838160048074809E-1   -1.915606166073881E-2
 9.067984882469844E6     9.837773382407655E-1   -2.006298148011275E-2    1.614325116085995E-2    3.004736012624815E-3    1.619901772008939E-2    2.768599654203838E-3    9.838391587032806E-1   -1.936714169960911E-2
 9.137172361605095E6     9.837980569989545E-1   -2.029328602385337E-2    1.612433159974919E-2    3.089367859539381E-3    1.617875557496215E-2    2.853402495397963E-3    9.838877422102554E-1   -1.956880282399014E-2
 9.206887731702998E6     9.838073137451753E-1   -2.033538005624904E-2    1.613616777086156E-2    3.151865448320363E-3    1.613986452476035E-2    3.045872141930835E-3    9.839066103776143E-1   -1.981149472314817E-2
 9.277135020499127E6     9.838357145938851E-1   -2.059850828079423E-2    1.611747959020157E-2    3.237182199123260E-3    1.612457508025131E-2    3.130854696959506E-3    9.839949656514949E-1   -2.003360335544791E-2
 9.347918286460072E6     9.838537845098689E-1   -2.078070166974170E-2    1.609916818321917E-2    3.327103118887160E-3    1.610787553728589E-2    3.219437286869586E-3    9.839534838313552E-1   -2.021812529301473E-2
 9.419241619017981E6     9.838878035891383E-1   -2.101618648528992E-2    1.608604177589330E-2    3.413391846848740E-3    1.608824325575972E-2    3.304774917768678E-3    9.839743494331733E-1   -2.046378095386349E-2
 9.491109138806809E6     9.838284145654720E-1   -2.124353041175588E-2    1.606435474777494E-2    3.501369194406924E-3    1.607145043453689E-2    3.393558519500418E-3    9.839418044344874E-1   -2.065293988081807E-2
 9.563524997900363E6     9.838731268047277E-1   -2.149095634495701E-2    1.605082924524412E-2    3.588974672982193E-3    1.605440689205579E-2    3.480548516299585E-3    9.839384412112177E-1   -2.087549875730529E-2
 9.636493380052259E6     9.838569127993628E-1   -2.165391539331850E-2    1.603144846473165E-2    3.680360165402352E-3    1.603647069823236E-2    3.571847369346259E-3    9.839718304423432E-1   -2.112034041728255E-2
 9.710018500937525E6     9.838732339594445E-1   -2.188185003894840E-2    1.601433448103969E-2    3.768134589254186E-3    1.602070811497373E-2    3.657168953927895E-3    9.840164588397308E-1   -2.132447759110534E-2
 9.784104608396223E6     9.838885322312592E-1   -2.223439243045717E-2    1.597386331132485E-2    3.876211258329608E-3    1.601591489959055E-2    3.677472456673908E-3    9.840333990965767E-1   -2.150077297728446E-2
 9.858755982678859E6     9.838914423515596E-1   -2.244965571734493E-2    1.595666531480599E-2    3.966718400826389E-3    1.599735369306955E-2    3.766921596694298E-3    9.840340863415202E-1   -2.174684477997204E-2
 9.933976936693633E6     9.839187672385347E-1   -2.268229886732611E-2    1.593828840070690E-2    4.056731728053314E-3    1.598326106081607E-2    3.854699450757096E-3    9.840508838539302E-1   -2.197824365881598E-2
 1.000977181625571E7     9.839295996688353E-1   -2.293769121091741E-2    1.592388970211583E-2    4.146883499107233E-3    1.596759565390004E-2    3.947365684135600E-3    9.840353470280804E-1   -2.219250292725434E-2
 1.008614500033817E7     9.839829722528861E-1   -2.314264086115871E-2    1.590653542388251E-2    4.240267258369711E-3    1.595107140742261E-2    4.038277050525527E-3    9.840382743946092E-1   -2.240127188115161E-2
 1.016310090132507E7     9.840000131502307E-1   -2.338951542965326E-2    1.588963812978278E-2    4.329640449738303E-3    1.593583544377692E-2    4.131226298378923E-3    9.840413624747204E-1   -2.263174664175105E-2
 1.024064396526634E7     9.839397717269143E-1   -2.352163096847738E-2    1.589162761662466E-2    4.405036582019181E-3    1.590531001161188E-2    4.292180291334455E-3    9.840809505287542E-1   -2.288935668866919E-2
 1.031877867213467E7     9.840282134054992E-1   -2.373459380058798E-2    1.587628946985552E-2    4.501218831216606E-3    1.588958827784595E-2    4.384817869893010E-3    9.840679816574952E-1   -2.314861653730920E-2
 1.039750953608436E7     9.839985584432261E-1   -2.398079373419242E-2    1.585818455933608E-2    4.593744779271524E-3    1.587592832294454E-2    4.478872972125498E-3    9.841089504299126E-1   -2.335651201667289E-2
 1.047684110571204E7     9.840057917903546E-1   -2.419289109993869E-2    1.584195472756713E-2    4.690521374687150E-3    1.585882256559568E-2    4.573662928618430E-3    9.841051965810127E-1   -2.359245735197620E-2
 1.055677796431950E7     9.839859917590913E-1   -2.444816965074437E-2    1.582907666548023E-2    4.786445030092131E-3    1.584571584483329E-2    4.669338193780408E-3    9.841377528235683E-1   -2.383137608864656E-2
 1.063732473017859E7     9.841097995913645E-1   -2.488619132187495E-2    1.576302241996368E-2    4.903663358419161E-3    1.591351607282315E-2    4.598947481674973E-3    9.841329161706408E-1   -2.405319631233187E-2
 1.071848605679777E7     9.841326661467877E-1   -2.517000372592067E-2    1.574811217779220E-2    4.997628789690801E-3    1.590117211031054E-2    4.694533833500165E-3    9.841344757502781E-1   -2.429153029217468E-2
 1.080026663319129E7     9.840828666616371E-1   -2.534311593711520E-2    1.574730169128469E-2    5.093414426319209E-3    1.584015836416342E-2    4.842289619633336E-3    9.842099419138988E-1   -2.452302765377785E-2
 1.088267118414987E7     9.841404787046676E-1   -2.558687874514038E-2    1.573242322549544E-2    5.190556504523846E-3    1.582557208750309E-2    4.940037389958443E-3    9.842044754805422E-1   -2.474424406565440E-2
 1.096570447051370E7     9.841732650320489E-1   -2.587828869257317E-2    1.570263839541972E-2    5.287158192627890E-3    1.586251033102408E-2    4.983992620335597E-3    9.841816470019190E-1   -2.503232994071952E-2
 1.104937128944762E7     9.841828472179948E-1   -2.615608174540587E-2    1.568631749989207E-2    5.384518529076227E-3    1.585059392829991E-2    5.080852247264987E-3    9.842217055542193E-1   -2.526581085914734E-2
 1.113367647471805E7     9.842015719316061E-1   -2.638900873142869E-2    1.567310968422923E-2    5.484298590914987E-3    1.583719513570905E-2    5.177466830850942E-3    9.841695855457854E-1   -2.552533776850487E-2
 1.121862489697252E7     9.840599608963532E-1   -2.638710283234717E-2    1.573081191411674E-2    5.542362028146860E-3    1.574155021593966E-2    5.490502714102194E-3    9.842355804906771E-1   -2.580987393334592E-2
 1.130422146402085E7     9.841154314310665E-1   -2.661323821074371E-2    1.571572510959241E-2    5.644077367149909E-3    1.572882810359165E-2    5.589557287737661E-3    9.842100540149784E-1   -2.608909433418746E-2
 1.139047112111875E7     9.841205311376385E-1   -2.688567109181226E-2    1.570274447160590E-2    5.743240176820842E-3    1.571435384540502E-2    5.690477793300085E-3    9.842441285952642E-1   -2.632319421393512E-2
 1.147737885125368E7     9.841423977936050E-1   -2.713465733154391E-2    1.568927360625600E-2    5.842296696715829E-3    1.569985435874436E-2    5.791849813516530E-3    9.842590313943113E-1   -2.656843933400918E-2
 1.156494967543242E7     9.841665198802755E-1   -2.740552255366618E-2    1.567595252076760E-2    5.945371807874352E-3    1.568637587174448E-2    5.893393237629498E-3    9.842240338982553E-1   -2.682827338509050E-2
 1.165318865297152E7     9.841379637304134E-1   -2.769172489594589E-2    1.565575998240001E-2    6.056677066555717E-3    1.567006641651637E-2    5.986295389230251E-3    9.842331566538384E-1   -2.707886681218638E-2
 1.174210088178934E7     9.842459791867263E-1   -2.819336086517906E-2    1.557454562660849E-2    6.185945770310634E-3    1.575641068957445E-2    5.878593772661429E-3    9.842494757148452E-1   -2.727889040831284E-2
 1.183169149870061E7     9.842970806395283E-1   -2.848647404802726E-2    1.556118964153169E-2    6.288999449387788E-3    1.574674156352556E-2    5.981650355282163E-3    9.842615172125843E-1   -2.754213291813625E-2
 1.192196567971337E7     9.842890018202438E-1   -2.874815087156708E-2    1.554784428508074E-2    6.394726957265271E-3    1.573789989590998E-2    6.082462312309294E-3    9.842797139551376E-1   -2.781503826914963E-2
 1.201292864032780E7     9.843121857663167E-1   -2.900924310358738E-2    1.553471616294276E-2    6.495871064653995E-3    1.572666252705150E-2    6.185638953092267E-3    9.842882121240839E-1   -2.806292925338441E-2
 1.210458563583766E7     9.842903762367963E-1   -2.928014237573953E-2    1.552146758877944E-2    6.599833897886783E-3    1.571529816188418E-2    6.289285037435168E-3    9.842932107247443E-1   -2.835039591186349E-2
 1.219694196163385E7     9.842778908413108E-1   -2.955791671367827E-2    1.551168809633935E-2    6.704683940022470E-3    1.570606354788971E-2    6.393907891394893E-3    9.842880658717931E-1   -2.862962152775544E-2
 1.229000295351040E7     9.842127502313711E-1   -2.971891846924004E-2    1.554014660233850E-2    6.802493471781262E-3    1.558944739204239E-2    6.641679303294222E-3    9.843030947588738E-1   -2.892707359998220E-2
 1.238377398797275E7     9.842473910408424E-1   -2.997949608000872E-2    1.552866962336514E-2    6.908470646461158E-3    1.557780549688689E-2    6.746780072405383E-3    9.843495178435492E-1   -2.921685190429773E-2
 1.247826048254829E7     9.842520609853055E-1   -3.026696192790812E-2    1.551833701401682E-2    7.015553779888767E-3    1.556662247402982E-2    6.856785853403075E-3    9.843425937604654E-1   -2.946255222107770E-2
 1.257346789609938E7     9.843299435921801E-1   -3.040246590014129E-2    1.554635599176377E-2    7.095495623431644E-3    1.555923360528458E-2    7.049878618151171E-3    9.843587205981670E-1   -2.976551954133338E-2
 1.266940172913885E7     9.842784721118873E-1   -3.067554149112706E-2    1.553466372218779E-2    7.204111802391685E-3    1.554752771124555E-2    7.159952173106886E-3    9.843687570273327E-1   -3.005871335152772E-2
 1.276606752414753E7     9.842724642505566E-1   -3.096180122851791E-2    1.552376188829798E-2    7.312931042567428E-3    1.553819899736274E-2    7.268558548208882E-3    9.843742370534599E-1   -3.036125305563006E-2
 1.286347086589479E7     9.842948918302019E-1   -3.127264345225261E-2    1.551374776369756E-2    7.424466088550480E-3    1.552644656754854E-2    7.378048220657593E-3    9.843149792475758E-1   -3.065626967369291E-2
 1.296161738176090E7     9.842568555540787E-1   -3.155609884647688E-2    1.550183945880157E-2    7.532893776601427E-3    1.551668356061622E-2    7.488928267073536E-3    9.843378966170413E-1   -3.092680844575832E-2
 1.306051274206230E7     9.842900333085938E-1   -3.182942701723113E-2    1.549050925928582E-2    7.642627255319848E-3    1.550695188424167E-2    7.598207226083535E-3    9.843429752275330E-1   -3.121383666289887E-2
 1.316016266037924E7     9.842406805820029E-1   -3.214153305623485E-2    1.548117183998915E-2    7.752951720809781E-3    1.549628438423038E-2    7.710551855491522E-3    9.843475960012728E-1   -3.151392622999562E-2
 1.326057289388563E7     9.842785789114771E-1   -3.247718653888101E-2    1.545687532049940E-2    7.877515149911080E-3    1.547779630945880E-2    7.802219109659538E-3    9.843792105388821E-1   -3.176868340215194E-2
 1.336174924368203E7     9.842609703409384E-1   -3.278179068689725E-2    1.544701174695105E-2    7.991242940062050E-3    1.546966951011982E-2    7.915411479743239E-3    9.843827994814713E-1   -3.205548526832025E-2
 1.346369755513046E7     9.842847163851409E-1   -3.303833768199319E-2    1.545198600616674E-2    8.092384959831765E-3    1.546754468458985E-2    8.049775087263894E-3    9.843862410772177E-1   -3.235299457748129E-2
 1.356642371819227E7     9.843014994917982E-1   -3.333913274697416E-2    1.544255111872799E-2    8.206928553286804E-3    1.545747443367053E-2    8.161628775387701E-3    9.844218115345084E-1   -3.266055541821565E-2
 1.366993366776852E7     9.843038127261549E-1   -3.366447982087863E-2    1.543137000484246E-2    8.323345820452742E-3    1.544662008910701E-2    8.277412592382571E-3    9.844005521464814E-1   -3.298129115766309E-2
 1.377423338404255E7     9.842949644265609E-1   -3.394948532971134E-2    1.542222506200519E-2    8.438352035766730E-3    1.543845449398953E-2    8.392726501005240E-3    9.843923058843332E-1   -3.329590659981707E-2
 1.387932889282586E7     9.843341685089456E-1   -3.442484198877801E-2    1.535082500406442E-2    8.583169992981235E-3    1.546436524686892E-2    8.360338744915877E-3    9.844090122378688E-1   -3.355506398634955E-2
 1.398522626590596E7     9.843885945742896E-1   -3.486076629765521E-2    1.531589898257720E-2    8.696375636912066E-3    1.556016957815108E-2    8.383750866100282E-3    9.844218185941771E-1   -3.385031263711200E-2
 1.409193162139728E7     9.844124705392989E-1   -3.517517682192654E-2    1.530630455851108E-2    8.813743814152430E-3    1.555627307073281E-2    8.500126723041346E-3    9.844384062182479E-1   -3.416675287719920E-2
 1.419945112409473E7     9.843725149773078E-1   -3.539826163813276E-2    1.532438469609577E-2    8.934484155448969E-3    1.544245826855120E-2    8.709149765004809E-3    9.844616558346723E-1   -3.443918268202720E-2
 1.430779098582953E7     9.843285739959701E-1   -3.568246912833301E-2    1.531630719549275E-2    9.052466128155039E-3    1.543590742589929E-2    8.826693748357579E-3    9.844825139374808E-1   -3.478825750046469E-2
 1.441695746582855E7     9.843304528941934E-1   -3.602900676654464E-2    1.530528582708282E-2    9.171947221720189E-3    1.542896203374006E-2    8.945521968887505E-3    9.844594278572570E-1   -3.507853946692343E-2
 1.452695687107559E7     9.843776272846092E-1   -3.636660505779046E-2    1.530075149656811E-2    9.291470247943351E-3    1.542249860237971E-2    9.066411433831561E-3    9.844626311119987E-1   -3.538443835082233E-2
 1.463779555667585E7     9.843666073801158E-1   -3.665131301576016E-2    1.529266938378883E-2    9.412556068861027E-3    1.541765551952709E-2    9.185834441658101E-3    9.844778511829171E-1   -3.571564127643109E-2
 1.474947992622320E7     9.843616741776426E-1   -3.698950025127687E-2    1.528537242447314E-2    9.533574922886140E-3    1.541010280686708E-2    9.306576854154858E-3    9.844709179253275E-1   -3.604314810868598E-2
 1.486201643216998E7     9.843532590091397E-1   -3.725730848337426E-2    1.530607402559252E-2    9.649696235296179E-3    1.536014570922594E-2    9.519321767569729E-3    9.844898269827433E-1   -3.636877467894064E-2
 1.497541157619987E7     9.843442946275209E-1   -3.765536702686657E-2    1.526820918108956E-2    9.781233316911336E-3    1.539966682302736E-2    9.552202606977684E-3    9.844421515062979E-1   -3.671145867353536E-2
 1.508967190960350E7     9.843325621928655E-1   -3.801698701149701E-2    1.526118171330429E-2    9.904467014568697E-3    1.539457020785668E-2    9.674679106340064E-3    9.844519590007323E-1   -3.703660169500204E-2
 1.520480403365694E7     9.843555521714052E-1   -3.833561967845241E-2    1.525411722210326E-2    1.002754466515464E-2    1.538840297327326E-2    9.799012414675963E-3    9.844732615430797E-1   -3.733737165010861E-2
 1.532081460000315E7     9.843205670169004E-1   -3.868151202915959E-2    1.524787429518626E-2    1.014979505307040E-2    1.538329961639940E-2    9.922884486461182E-3    9.844522183721747E-1   -3.769790438810239E-2
 1.543771031103615E7     9.843694378098730E-1   -3.900585054059723E-2    1.524094071468603E-2    1.027972545891339E-2    1.537890938515701E-2    1.004948685546611E-2    9.844628287683154E-1   -3.802517599594699E-2
 1.555549792028828E7     9.843479537503669E-1   -3.935874360896731E-2    1.523410299835098E-2    1.040618224702351E-2    1.537508014469289E-2    1.017653102840153E-2    9.845037092795835E-1   -3.835859209341898E-2
 1.567418423282054E7     9.842847775913042E-1   -3.965011943504072E-2    1.525965043547501E-2    1.053150198114320E-2    1.532061862767161E-2    1.039374334798459E-2    9.844572995181987E-1   -3.872757393327169E-2
 1.579377610561541E7     9.843054868883764E-1   -3.998250430071509E-2    1.525283907910309E-2    1.065790842684721E-2    1.531458562476603E-2    1.052075119388616E-2    9.843951246295131E-1   -3.907097310854296E-2
 1.591428044797338E7     9.842798983338579E-1   -4.030074961836115E-2    1.524836135006799E-2    1.078897414503454E-2    1.531143050315556E-2    1.065073009105267E-2    9.844050695083412E-1   -3.941993861610819E-2
 1.603570422191187E7     9.843123272981412E-1   -4.066407370924451E-2    1.524359155245111E-2    1.091834083080394E-2    1.530615274689587E-2    1.078021856797966E-2    9.844196661771595E-1   -3.977781562126741E-2
 1.615805444256752E7     9.843278283406085E-1   -4.103003738291585E-2    1.523830215459912E-2    1.104856221804397E-2    1.530435849775186E-2    1.091112171519649E-2    9.844395150236636E-1   -4.010967199967585E-2
 1.628133817860163E7     9.842962273965581E-1   -4.137946127292499E-2    1.523170946808637E-2    1.118161573950709E-2    1.529851971560412E-2    1.104156087194423E-2    9.844630469405988E-1   -4.045361256450821E-2
 1.640556255260818E7     9.843092761557033E-1   -4.177936648761769E-2    1.521509516946509E-2    1.131504055347743E-2    1.531085059095447E-2    1.113584461440048E-2    9.844065705729449E-1   -4.083114793172696E-2
 1.653073474152580E7     9.843035416921860E-1   -4.217111830590948E-2    1.521223349808563E-2    1.145064495047880E-2    1.530825235632594E-2    1.127012136302575E-2    9.844147514297725E-1   -4.118088789803665E-2
 1.665686197705204E7     9.843172626621357E-1   -4.253940246466812E-2    1.520661552222906E-2    1.158483500815217E-2    1.530868542594135E-2    1.140643674836624E-2    9.844258225473180E-1   -4.153975517721088E-2
 1.678395154606132E7     9.843182487477197E-1   -4.287703770819287E-2    1.520398959756538E-2    1.171945428894291E-2    1.530373425386448E-2    1.153733133261791E-2    9.843797909471553E-1   -4.189876312848839E-2
 1.691201079102603E7     9.842948935690637E-1   -4.333341969115832E-2    1.518223082582875E-2    1.185400240314864E-2    1.534481915246872E-2    1.161672659382510E-2    9.844114466381114E-1   -4.225819481119508E-2
 1.704104711044038E7     9.842913966971064E-1   -4.368866308317980E-2    1.517840594559143E-2    1.198921876171400E-2    1.534216745203662E-2    1.175331137802147E-2    9.844042664319805E-1   -4.262607697597328E-2
 1.717106795924834E7     9.842923563334889E-1   -4.406084052900570E-2    1.517539312439802E-2    1.212954901335579E-2    1.534050877507894E-2    1.189030360828748E-2    9.843982968512270E-1   -4.297883496822327E-2
 1.730208084927390E7     9.843375792072206E-1   -4.452280510959331E-2    1.514621328723924E-2    1.225616663470974E-2    1.548599443723433E-2    1.193651817190748E-2    9.843842545122263E-1   -4.335949719789089E-2
 1.743409334965526E7     9.842329468701618E-1   -4.485720980408966E-2    1.516865648659135E-2    1.240563207384185E-2    1.534175407629343E-2    1.216615505132579E-2    9.843854822770980E-1   -4.373083749537567E-2
 1.756711308728221E7     9.842548992329538E-1   -4.523980482461917E-2    1.516839737799213E-2    1.254598199854783E-2    1.534315534217655E-2    1.230581921514286E-2    9.843562636864642E-1   -4.413253664181688E-2
 1.770114774723655E7     9.842661403989469E-1   -4.559629069539547E-2    1.516637512436901E-2    1.268836543922102E-2    1.534228087925877E-2    1.244707011938736E-2    9.844028447851361E-1   -4.451283860285180E-2
 1.783620507323623E7     9.842819759635250E-1   -4.585389171036756E-2    1.523887010158283E-2    1.281779890748308E-2    1.526311474665963E-2    1.276553045305102E-2    9.843550007822782E-1   -4.492172768160300E-2
 1.797229286808272E7     9.842247584702628E-1   -4.628569538042542E-2    1.522048851509991E-2    1.296940110442759E-2    1.526061984081346E-2    1.288181032419728E-2    9.843709717827563E-1   -4.527688723951549E-2
 1.810941899411174E7     9.841994642226095E-1   -4.662998611801245E-2    1.523628410026357E-2    1.310487849334196E-2    1.526080372737840E-2    1.305291129357276E-2    9.843455558535523E-1   -4.569631409827417E-2
 1.824759137364766E7     9.842450611664746E-1   -4.706795369867909E-2    1.523517639324739E-2    1.324957995786754E-2    1.526166203825532E-2    1.319876653185977E-2    9.843388016496860E-1   -4.611479748101233E-2
 1.838681798946100E7     9.842344778772464E-1   -4.744621760349663E-2    1.523513881959197E-2    1.339711732562576E-2    1.526209132146350E-2    1.334496882495013E-2    9.843555564804598E-1   -4.644014071789654E-2
 1.852710688522972E7     9.842357093745858E-1   -4.804831384875098E-2    1.514642846859570E-2    1.354877045807390E-2    1.540592626507719E-2    1.326721599086940E-2    9.843435868627054E-1   -4.683877305634562E-2
 1.866846616600409E7     9.841662838060318E-1   -4.839326628130534E-2    1.515939978496135E-2    1.369964138829422E-2    1.535213878833752E-2    1.345780658178957E-2    9.843124983283612E-1   -4.722880925462703E-2
 1.881090399867451E7     9.841965025756143E-1   -4.864833891359397E-2    1.522719481208622E-2    1.384564780751708E-2    1.526195654785017E-2    1.377516076445235E-2    9.842921474988295E-1   -4.768163571597495E-2
 1.895442861244394E7     9.841581527528498E-1   -4.910326062645855E-2    1.522916883540461E-2    1.399416330126673E-2    1.526510725835996E-2    1.392566078376112E-2    9.843104109448197E-1   -4.807239694351662E-2
 1.909904829930285E7     9.841301261901845E-1   -4.951654194021089E-2    1.523070664346251E-2    1.414662981836779E-2    1.526470609153985E-2    1.407713976146226E-2    9.842905678939929E-1   -4.846213257064950E-2
 1.924477141450845E7     9.841396394070654E-1   -4.992422266066850E-2    1.523236654400457E-2    1.429821439549659E-2    1.526723436155600E-2    1.422951168863626E-2    9.842577061537706E-1   -4.889342894427948E-2
 1.939160637706759E7     9.841155303280422E-1   -5.035966853696014E-2    1.523361540628903E-2    1.445123826439477E-2    1.527144522848299E-2    1.438222247222843E-2    9.842715566114209E-1   -4.931638762175027E-2
 1.953956167022271E7     9.841144535956590E-1   -5.078997790726855E-2    1.523672338126162E-2    1.460463804394363E-2    1.527246089847290E-2    1.453557255860070E-2    9.842555319520698E-1   -4.973438571113003E-2
 1.968864584194249E7     9.840794113411642E-1   -5.124917935599013E-2    1.522616837705838E-2    1.476501172861687E-2    1.527573827559769E-2    1.467335894870949E-2    9.842149123315124E-1   -5.016002366411042E-2
 1.983886750541528E7     9.840696778607102E-1   -5.182723237697227E-2    1.515907073783139E-2    1.490965492258019E-2    1.544293940531385E-2    1.462420755594163E-2    9.842137648453496E-1   -5.055177461252137E-2
 1.999023533954688E7     9.840569706653736E-1   -5.225614864455814E-2    1.516194123824576E-2    1.506566389156599E-2    1.545207265812639E-2    1.477966654269984E-2    9.842050723891270E-1   -5.098410874456412E-2
 2.014275808946211E7     9.840450339970017E-1   -5.267800513385165E-2    1.516356355141795E-2    1.522357741624229E-2    1.545750723448085E-2    1.493497641734011E-2    9.841986965705960E-1   -5.143756396628299E-2
 2.029644456700960E7     9.840441405139372E-1   -5.313915175634339E-2    1.516879580330536E-2    1.538160227176867E-2    1.546489750471591E-2    1.509449098104904E-2    9.842037114215655E-1   -5.184367136129422E-2
 2.045130365127147E7     9.840356480350063E-1   -5.357853245597295E-2    1.517189910953125E-2    1.554188495575406E-2    1.547193403142808E-2    1.525343794045689E-2    9.841843254811836E-1   -5.225802385572242E-2
 2.060734428907584E7     9.840165304154500E-1   -5.405045048911771E-2    1.517510544709960E-2    1.570126659006156E-2    1.547957815970603E-2    1.541299712143887E-2    9.841526284630309E-1   -5.269378378123005E-2
 2.076457549551392E7     9.839790106921573E-1   -5.449636952895882E-2    1.518086594202483E-2    1.586168495240295E-2    1.548656816775032E-2    1.557501098639580E-2    9.841198654967405E-1   -5.315839018658937E-2
 2.092300635446098E7     9.839547267434977E-1   -5.493537983247816E-2    1.518565315874133E-2    1.602515150916213E-2    1.549610846061348E-2    1.573454437595149E-2    9.841052596523627E-1   -5.362316902783098E-2
 2.108264601910070E7     9.839340703425722E-1   -5.539366392921177E-2    1.519052844286147E-2    1.618936760885575E-2    1.550376266438717E-2    1.589880777307788E-2    9.840931818628866E-1   -5.404557261819818E-2
 2.124350371245464E7     9.839240745694539E-1   -5.570390993979267E-2    1.528779448440033E-2    1.636453645636606E-2    1.532213670709383E-2    1.630856624142027E-2    9.840553156445245E-1   -5.457292395096366E-2
 2.140558872791451E7     9.839178832060870E-1   -5.615353154140344E-2    1.529583650439280E-2    1.652991958733362E-2    1.532946493139962E-2    1.647578201696307E-2    9.840730811258899E-1   -5.500763518841075E-2
 2.156891042977939E7     9.838696126034199E-1   -5.672670775003760E-2    1.523943582782351E-2    1.670151635753315E-2    1.539509117921738E-2    1.650406611302378E-2    9.840272563222123E-1   -5.540977235395911E-2
 2.173347825379676E7     9.838371908103768E-1   -5.722878333317615E-2    1.524721760810652E-2    1.686935629696704E-2    1.540326559633423E-2    1.667173511439078E-2    9.840578915728273E-1   -5.589632400972994E-2
 2.189930170770744E7     9.837715110692629E-1   -5.771197265629727E-2    1.525139998722461E-2    1.703900302011326E-2    1.541377032000604E-2    1.684041070620909E-2    9.840235516930458E-1   -5.636264051330860E-2
 2.206639037179505E7     9.837537355739064E-1   -5.816153437845571E-2    1.525955579461274E-2    1.721113041890063E-2    1.542206709197359E-2    1.700974049432499E-2    9.839794906794720E-1   -5.682824398964765E-2
 2.223475389943947E7     9.837997238227293E-1   -5.853434733875994E-2    1.533193321677102E-2    1.738048885481596E-2    1.536777243468504E-2    1.732216462959615E-2    9.839645173878619E-1   -5.733678121212078E-2
 2.240440201767448E7     9.837920948853304E-1   -5.901721781665854E-2    1.534031099792813E-2    1.755370031081747E-2    1.537615335864807E-2    1.749599926039780E-2    9.839326465927226E-1   -5.782199572962419E-2
 2.257534452774993E7     9.837591860832379E-1   -5.949978274043449E-2    1.534943837100032E-2    1.772866947670656E-2    1.538490398184321E-2    1.767103877612782E-2    9.838860470715117E-1   -5.830273760870750E-2
 2.274759130569773E7     9.837170899679634E-1   -6.000502481451356E-2    1.535959890837859E-2    1.790305359930414E-2    1.539519092142873E-2    1.784575180931139E-2    9.838702959523332E-1   -5.877523021146631E-2
 2.292115230290256E7     9.836943617954943E-1   -6.052530837308446E-2    1.536984871935218E-2    1.808022283245392E-2    1.540565483928795E-2    1.802380136205091E-2    9.838621574848332E-1   -5.927819997608473E-2
 2.309603754667697E7     9.836548880086854E-1   -6.102426846345763E-2    1.537903238496010E-2    1.826105735916949E-2    1.541624916654628E-2    1.819980720040793E-2    9.838259379127046E-1   -5.975624290092457E-2
 2.327225714084021E7     9.836266744047266E-1   -6.155347006384837E-2    1.539071469821355E-2    1.843852996991390E-2    1.542459411361988E-2    1.838090585632984E-2    9.838150404638728E-1   -6.027025106523936E-2
 2.344982126630262E7     9.835687267645364E-1   -6.212436109937552E-2    1.534852772547061E-2    1.862193158886046E-2    1.547552126876369E-2    1.845895103127006E-2    9.838278488803078E-1   -6.070880003643166E-2
 2.362874018165328E7     9.835296032592672E-1   -6.265311696523658E-2    1.535916889888535E-2    1.880272854771846E-2    1.548619732223558E-2    1.863869201865996E-2    9.837831928628626E-1   -6.121044084538024E-2
 2.380902422375290E7     9.835085556121370E-1   -6.319869671415806E-2    1.533837378403775E-2    1.897215446992478E-2    1.561280467600404E-2    1.870670606305497E-2    9.837573830535861E-1   -6.171209688985781E-2
 2.399068380833123E7     9.834963859415371E-1   -6.375042703793492E-2    1.534904218318459E-2    1.915388577759976E-2    1.562639601125873E-2    1.888921630249597E-2    9.837048358992015E-1   -6.225500869332418E-2
 2.417372943058824E7     9.834626283065716E-1   -6.418715628282934E-2    1.539371356622302E-2    1.935331527455132E-2    1.552345473422211E-2    1.918677458413877E-2    9.837010245449253E-1   -6.274496885021824E-2
 2.435817166580120E7     9.834174682056380E-1   -6.470251796622330E-2    1.540641853374466E-2    1.953851557614023E-2    1.553700041598529E-2    1.937197377358428E-2    9.836736099405432E-1   -6.326138031479393E-2
 2.454402116993507E7     9.833834006718245E-1   -6.530694447226437E-2    1.538679252312701E-2    1.971082822428210E-2    1.567137696996958E-2    1.944322262392008E-2    9.836354885294923E-1   -6.378987408960297E-2
 2.473128868025839E7     9.833537855088761E-1   -6.587298996234718E-2    1.539864527122167E-2    1.989998062285341E-2    1.568567367500385E-2    1.963060224413525E-2    9.835917574819563E-1   -6.429470049729533E-2
 2.491998501596375E7     9.832955145411769E-1   -6.640815064108002E-2    1.541223809549678E-2    2.008925661668461E-2    1.570199032263373E-2    1.981942265987714E-2    9.835735196321977E-1   -6.481391882197089E-2
 2.511012107879237E7     9.832983567836069E-1   -6.680630319945750E-2    1.551130463592547E-2    2.029742654830027E-2    1.554802682380560E-2    2.023307973383388E-2    9.834909617400118E-1   -6.541377873343328E-2
 2.530170785366461E7     9.832667636195748E-1   -6.735427051815679E-2    1.552323682838786E-2    2.049157203017900E-2    1.555946989649810E-2    2.043003897200013E-2    9.834619236274897E-1   -6.594050642145963E-2
 2.549475640931404E7     9.832374954900187E-1   -6.787132198943077E-2    1.553579079752969E-2    2.068576151867598E-2    1.557318099738579E-2    2.062574554389131E-2    9.834113081948668E-1   -6.648835445688597E-2
 2.568927789892715E7     9.831935762964638E-1   -6.847689443262520E-2    1.554868690178652E-2    2.088525937368475E-2    1.558805206187657E-2    2.082343824004014E-2    9.833782418852182E-1   -6.703237231370639E-2
 2.588528356078789E7     9.831181643710906E-1   -6.906284047281688E-2    1.553600349184874E-2    2.108511665846906E-2    1.561165561042168E-2    2.098555501221409E-2    9.833520260727501E-1   -6.754119492592187E-2
 2.608278471892660E7     9.831064299832317E-1   -6.959837923778937E-2    1.557287493731705E-2    2.128808549641961E-2    1.562084928462210E-2    2.123056541475152E-2    9.832999072468821E-1   -6.813521266357866E-2
 2.628179278377446E7     9.830603718322088E-1   -7.013466171370705E-2    1.559272611059897E-2    2.149782077913046E-2    1.564392928237005E-2    2.143492726849969E-2    9.832727188720513E-1   -6.868019894991517E-2
 2.648231925282269E7     9.830046670638184E-1   -7.077575280310384E-2    1.556099485588848E-2    2.170025153031965E-2    1.571723209133446E-2    2.152489135742391E-2    9.832707545648905E-1   -6.918365148305285E-2
 2.668437571128672E7     9.829648768123708E-1   -7.136928164716640E-2    1.558559309417436E-2    2.190686616648842E-2    1.574052918527480E-2    2.172644119588278E-2    9.832264204323727E-1   -6.975870220355740E-2
 2.688797383277575E7     9.829246480213815E-1   -7.194452281349278E-2    1.560705613287953E-2    2.210911007848669E-2    1.576424028458403E-2    2.192762954381267E-2    9.831877929632460E-1   -7.034547653116592E-2
 2.709312537996687E7     9.828911767713073E-1   -7.251186219277853E-2    1.565850238436227E-2    2.232038248399041E-2    1.574272028034829E-2    2.220530608876940E-2    9.831571170800001E-1   -7.094397093484757E-2
 2.729984220528475E7     9.828536081565433E-1   -7.305914339740115E-2    1.568139291892167E-2    2.252885021234361E-2    1.576538194043894E-2    2.241210365373580E-2    9.831100434218116E-1   -7.151189672942045E-2
 2.750813625158667E7     9.828222420755812E-1   -7.363497343159867E-2    1.570398814882092E-2    2.273756619060898E-2    1.578964248751741E-2    2.261995549961810E-2    9.830727235057388E-1   -7.208063261816848E-2
 2.771801955285188E7     9.827539860695489E-1   -7.439279139351751E-2    1.566160801428685E-2    2.291083793120128E-2    1.610126031066885E-2    2.258619412933880E-2    9.830373753826923E-1   -7.263703225676885E-2
 2.792950423487763E7     9.826868772154629E-1   -7.491823911613595E-2    1.570812352991330E-2    2.314404174440787E-2    1.593029093445135E-2    2.291253698595769E-2    9.830008647719191E-1   -7.322742988235721E-2
 2.814260251597910E7     9.826541571568425E-1   -7.554648017540457E-2    1.573290195872864E-2    2.335690696438290E-2    1.595605141548452E-2    2.312238545561051E-2    9.829527231746652E-1   -7.383982598670846E-2
 2.835732670769557E7     9.826245506451522E-1   -7.616208001883472E-2    1.575959240089992E-2    2.356913168253457E-2    1.598228911772036E-2    2.333518796431365E-2    9.829137139311546E-1   -7.440722096305225E-2
 2.857368921550186E7     9.825891478280530E-1   -7.667420053297221E-2    1.585658466661022E-2    2.379673509100323E-2    1.589946916624555E-2    2.372339239512457E-2    9.828699689393445E-1   -7.505011473938124E-2
 2.879170253952448E7     9.825421791985326E-1   -7.732060396807024E-2    1.588200539319418E-2    2.401549673182996E-2    1.592515227499741E-2    2.393796298654940E-2    9.827810850772283E-1   -7.568658224460614E-2
 2.901137927526460E7     9.824912322370353E-1   -7.794329077354474E-2    1.590829692804864E-2    2.423325477922957E-2    1.595098388207694E-2    2.415653818624779E-2    9.827404420585386E-1   -7.628040876186587E-2
 2.923273211432508E7     9.824524160635655E-1   -7.858480122778959E-2    1.593393287912624E-2    2.445265631828494E-2    1.597678550630099E-2    2.437476530480021E-2    9.826831329422162E-1   -7.691419844400363E-2
 2.945577384514398E7     9.823896251656158E-1   -7.922692461401963E-2    1.596020638059429E-2    2.467300414670235E-2    1.600460409935616E-2    2.459702567595039E-2    9.826570642616975E-1   -7.751321934253655E-2
 2.968051735373363E7     9.823535296056448E-1   -7.988824109354505E-2    1.598870341017469E-2    2.489618116097335E-2    1.603297774905121E-2    2.481956780871247E-2    9.825934522437153E-1   -7.814921337971462E-2
 2.990697562442441E7     9.822495683273981E-1   -8.061567976777549E-2    1.597394407970317E-2    2.511668565785792E-2    1.609339595703096E-2    2.496032865124958E-2    9.825638655512587E-1   -7.874458775704707E-2
 3.013516174061584E7     9.821918541597310E-1   -8.119551408218403E-2    1.601702857301608E-2    2.534431503924219E-2    1.610302895920686E-2    2.522061375062307E-2    9.825216228656025E-1   -7.939713571899457E-2
 3.036508888553168E7     9.821184047345554E-1   -8.186843188199741E-2    1.603139333057665E-2    2.556987565015771E-2    1.615295108357155E-2    2.541193559872562E-2    9.824508852413871E-1   -8.001709697933246E-2
 3.059677034298190E7     9.820799492363095E-1   -8.253151198249697E-2    1.606106517345126E-2    2.579810270637597E-2    1.618268623322968E-2    2.563855213016519E-2    9.824060940945570E-1   -8.068545370868477E-2
 3.083021949813037E7     9.819699651351134E-1   -8.340305451415403E-2    1.604620883865085E-2    2.597405011477900E-2    1.672638642754107E-2    2.562238975937211E-2    9.823384236174264E-1   -8.129733067499653E-2
 3.106544983826748E7     9.819088042819653E-1   -8.406704796594940E-2    1.607731755254093E-2    2.620700569898177E-2    1.676348927739953E-2    2.585165230398378E-2    9.822799464523927E-1   -8.194303234257384E-2
 3.130247495359022E7     9.819417590718109E-1   -8.450275700868193E-2    1.619900327580612E-2    2.650026359360925E-2    1.624056125039394E-2    2.641986753181876E-2    9.822142684061401E-1   -8.265271908592108E-2
 3.154130853798668E7     9.818532518475831E-1   -8.517628650176665E-2    1.622992614408227E-2    2.673472692885966E-2    1.627234506269962E-2    2.665455668784025E-2    9.821414336597667E-1   -8.332135477376032E-2
 3.178196438982744E7     9.818107608179434E-1   -8.589186694004390E-2    1.626441032776569E-2    2.697144667346228E-2    1.630655290892775E-2    2.689085253078843E-2    9.820915418419712E-1   -8.399658861252410E-2
 3.202445641276293E7     9.817133498738668E-1   -8.658214645868222E-2    1.626950419385347E-2    2.721022913537678E-2    1.635735503067930E-2    2.707736389024772E-2    9.820460744118916E-1   -8.467751705100995E-2
 3.226879861652631E7     9.816932018755214E-1   -8.725679417506747E-2    1.633110695502752E-2    2.745128840793833E-2    1.637231544110071E-2    2.736832360294872E-2    9.819551400965408E-1   -8.537654307356767E-2
 3.251500511774320E7     9.814982401268946E-1   -8.814459672917635E-2    1.627871217132832E-2    2.764399194008552E-2    1.678761369428470E-2    2.729260056465544E-2    9.819168029448843E-1   -8.598893299627137E-2
 3.276309014074709E7     9.814097145921167E-1   -8.886815199080798E-2    1.631315596600977E-2    2.788574390222275E-2    1.682508138020683E-2    2.753202408596018E-2    9.818498419524857E-1   -8.665813530603729E-2
 3.301306801840112E7     9.813566432437163E-1   -8.960464181551553E-2    1.635127539004581E-2    2.812973628752731E-2    1.686499088768014E-2    2.777496696791600E-2    9.817918622201521E-1   -8.735098810612138E-2
 3.326495319292643E7     9.813152268125493E-1   -9.030038451914321E-2    1.638716992301822E-2    2.837807961938665E-2    1.690203536780473E-2    2.801849901892193E-2    9.817201578188698E-1   -8.806951177217709E-2
 3.351876021673609E7     9.813318574729744E-1   -9.088050080195340E-2    1.651200855565398E-2    2.867398423061015E-2    1.654069742199257E-2    2.859046120873115E-2    9.816039102816402E-1   -8.882939314459096E-2
 3.377450375327612E7     9.812502487739625E-1   -9.157847134084833E-2    1.655115790771882E-2    2.892446876446858E-2    1.657310145330838E-2    2.884323115159419E-2    9.815415089179677E-1   -8.953212325658917E-2
 3.403219857787284E7     9.811325586152096E-1   -9.237839689191495E-2    1.654029744972387E-2    2.916645319427009E-2    1.664970040961080E-2    2.900678110016798E-2    9.814856828497677E-1   -9.022529143304711E-2
 3.429185957858586E7     9.810508410271410E-1   -9.313872205907037E-2    1.657757692046629E-2    2.941867773513224E-2    1.668306962986176E-2    2.926659308240567E-2    9.814040395161058E-1   -9.095350498626990E-2
 3.455350175706909E7     9.809578267871337E-1   -9.387029519980131E-2    1.661408865462857E-2    2.967084270793198E-2    1.672093800904947E-2    2.952863922706459E-2    9.813296667329879E-1   -9.165573947451311E-2
 3.481714022943672E7     9.807960541244786E-1   -9.477731142373659E-2    1.660885636651841E-2    2.987992848795494E-2    1.713406469334753E-2    2.956112618358000E-2    9.812685117451568E-1   -9.238015054381321E-2
 3.508279022713681E7     9.806957744522746E-1   -9.555572081759608E-2    1.664020354472297E-2    3.013695188185677E-2    1.717835263595896E-2    2.983120161729451E-2    9.811961054480225E-1   -9.306424786119308E-2
 3.535046709783159E7     9.806151225771879E-1   -9.630249800009698E-2    1.667138635291713E-2    3.040165454875964E-2    1.722911977133046E-2    3.010488870023713E-2    9.811197787212530E-1   -9.379399486302092E-2
 3.562018630628331E7     9.805058616279728E-1   -9.706473794568672E-2    1.669468633733706E-2    3.067357272365590E-2    1.728601623070887E-2    3.038128399865857E-2    9.810557177674708E-1   -9.453283533547560E-2
 3.589196343524875E7     9.803888375322343E-1   -9.783965028347776E-2    1.671720287401754E-2    3.096171059220668E-2    1.734847730541059E-2    3.065333131896095E-2    9.809830709323378E-1   -9.527484098490530E-2
 3.616581418637872E7     9.802962646332271E-1   -9.856088106561070E-2    1.676053290875205E-2    3.127166107183118E-2    1.741221175861321E-2    3.092252778203913E-2    9.809159688024014E-1   -9.602999456379807E-2
 3.644175438112541E7     9.802364579748403E-1   -9.932928298237531E-2    1.683311149069724E-2    3.157384259081321E-2    1.747300902773914E-2    3.119126056071084E-2    9.808370593871036E-1   -9.679972690948592E-2
 3.671979996165685E7     9.802327911142150E-1   -9.998019750218240E-2    1.691888242355351E-2    3.188264113310043E-2    1.725246443432881E-2    3.158767337966523E-2    9.807580066728259E-1   -9.758187423312209E-2
 3.699996699177712E7     9.801522677407513E-1   -1.007979493186483E-1    1.698987984368022E-2    3.215435521004992E-2    1.731022267266962E-2    3.185727010769632E-2    9.806662393395581E-1   -9.835584778560415E-2
 3.728227165785540E7     9.800834858001400E-1   -1.016095734382429E-1    1.705093544011098E-2    3.242287746188539E-2    1.736580944609855E-2    3.213035809710516E-2    9.805965287606527E-1   -9.913026485082758E-2
 3.756673026976037E7     9.800083199728624E-1   -1.024206486263937E-1    1.710910923967495E-2    3.269497126557340E-2    1.742249911600703E-2    3.240290476139520E-2    9.805001057633395E-1   -9.992068218214889E-2
 3.785335926180276E7     9.800260117547189E-1   -1.031206008197632E-1    1.723969413356619E-2    3.300362951814810E-2    1.730306356372066E-2    3.289901941442006E-2    9.803767257539315E-1   -1.007869391989051E-1
 3.814217519368506E7     9.799494088875271E-1   -1.039618697494918E-1    1.729505496869416E-2    3.328277110717583E-2    1.736023479905444E-2    3.317942754386277E-2    9.802963004899165E-1   -1.015814848270031E-1
 3.843319475145779E7     9.798561228187769E-1   -1.047893528442190E-1    1.735298196568479E-2    3.356351257347807E-2    1.741651772324069E-2    3.346239489608316E-2    9.801980111081091E-1   -1.023885361601688E-1
 3.872643474848381E7     9.797699266022446E-1   -1.056114173449739E-1    1.741125213220920E-2    3.384984908261576E-2    1.747451996904095E-2    3.374881396285877E-2    9.801164026195188E-1   -1.031889425550833E-1
 3.902191212640966E7     9.796710631531023E-1   -1.064556951167602E-1    1.746927547493022E-2    3.413581939995895E-2    1.753215606182450E-2    3.403412523728895E-2    9.800206000829567E-1   -1.040100844525797E-1
 3.931964395614420E7     9.795723394002732E-1   -1.072986225792334E-1    1.752982265723846E-2    3.442384614430274E-2    1.759252315213437E-2    3.432144207433026E-2    9.799374223025775E-1   -1.048229397584376E-1
 3.961964743884522E7     9.794396743016346E-1   -1.081727865001333E-1    1.755644267082194E-2    3.470847840837892E-2    1.767787475802678E-2    3.455019012812864E-2    9.798464726864500E-1   -1.056212410303913E-1
 3.992193990691278E7     9.793266615979382E-1   -1.090449367421399E-1    1.761695812971882E-2    3.499816406983883E-2    1.773905178220237E-2    3.484467762126311E-2    9.797433415628830E-1   -1.064590456205194E-1
 4.022653882499073E7     9.791441789573534E-1   -1.100234497884458E-1    1.763980412781728E-2    3.526686162776185E-2    1.796518308018520E-2    3.497071002900128E-2    9.796659980158988E-1   -1.072608733820559E-1
 4.053346179097611E7     9.790359135173892E-1   -1.108833397208011E-1    1.770202421170239E-2    3.556465275597899E-2    1.803098708359275E-2    3.526713633006318E-2    9.795770236791985E-1   -1.081330786246231E-1
 4.084272653703488E7     9.789350036990480E-1   -1.117508034137974E-1    1.776524958337746E-2    3.586100749275697E-2    1.809748010297858E-2    3.556432454293251E-2    9.794623890680938E-1   -1.089839043862076E-1
 4.115435093062763E7     9.787857952013074E-1   -1.127258421057497E-1    1.782459846440136E-2    3.614528056544747E-2    1.832821088017508E-2    3.577655111446748E-2    9.793600274496611E-1   -1.098391431359141E-1
 4.146835297554084E7     9.786817323556203E-1   -1.136260598595868E-1    1.789049505717601E-2    3.644767323131327E-2    1.839995765026245E-2    3.607646680474935E-2    9.792552322705154E-1   -1.107144219218982E-1
 4.178475081292742E7     9.785248513187551E-1   -1.147138306243229E-1    1.797543497996816E-2    3.674085416042567E-2    1.890944916133456E-2    3.632290771131105E-2    9.791547627199715E-1   -1.115619651837328E-1
 4.210356272235513E7     9.784219546786576E-1   -1.156329627259446E-1    1.804316639923956E-2    3.704793090826600E-2    1.898603907992865E-2    3.662791649242831E-2    9.790339589611887E-1   -1.124447396870123E-1
 4.242480712286174E7     9.783110468745105E-1   -1.165447179225266E-1    1.811312910350631E-2    3.736139182380715E-2    1.906451870384973E-2    3.693672993379091E-2    9.789103776764821E-1   -1.133321022848093E-1
 4.274850257402029E7     9.781947549599849E-1   -1.174524134551189E-1    1.818267223197400E-2    3.767493053264143E-2    1.914261245437603E-2    3.724893592921457E-2    9.788050657840736E-1   -1.142241750036822E-1
 4.307466777701053E7     9.782936791850519E-1   -1.179706589135260E-1    1.831268383968267E-2    3.806269997753803E-2    1.838364516528284E-2    3.795689736137582E-2    9.786309191563087E-1   -1.151894990896665E-1
 4.340332157569963E7     9.779502017324532E-1   -1.193423360297821E-1    1.832899865836635E-2    3.831028996484629E-2    1.929971974061720E-2    3.788079210453620E-2    9.785673556269808E-1   -1.160229758705701E-1
 4.373448295773120E7     9.778180794906106E-1   -1.202616155175185E-1    1.840110431165840E-2    3.862916248831898E-2    1.938426333980143E-2    3.819631517643240E-2    9.784508341278553E-1   -1.169292002462593E-1
 4.406817105562137E7     9.777239026791460E-1   -1.210264484095604E-1    1.845500515106280E-2    3.896441757011411E-2    1.900218996169922E-2    3.857414566999382E-2    9.783230678919430E-1   -1.178645537456023E-1
 4.440440514786536E7     9.776059896093724E-1   -1.219826822256425E-1    1.852986344514824E-2    3.929046812534506E-2    1.907947490198604E-2    3.889823553737499E-2    9.781954786810948E-1   -1.188133014774801E-1
 4.474320466005030E7     9.774667755451298E-1   -1.229665812983130E-1    1.860708358011300E-2    3.961757536159599E-2    1.916039832825325E-2    3.922413767830385E-2    9.780678810297911E-1   -1.197341170452340E-1
 4.508458916597787E7     9.774082278848284E-1   -1.237958886434028E-1    1.870043566801778E-2    3.997498643197609E-2    1.896874341738873E-2    3.971831277272479E-2    9.779355755015827E-1   -1.207072858051089E-1
 4.542857838879555E7     9.772794866554377E-1   -1.247671018276684E-1    1.878079126941475E-2    4.030980073651253E-2    1.905045862566965E-2    4.005132009990623E-2    9.778036526387668E-1   -1.216390821532875E-1
 4.577519220213508E7     9.771313459750430E-1   -1.257707155039558E-1    1.886090440897056E-2    4.064576130656080E-2    1.913314613537028E-2    4.038757596828988E-2    9.776912765775048E-1   -1.225808377427387E-1
 4.612445063126191E7     9.770037964652680E-1   -1.267377056327328E-1    1.894108998376013E-2    4.098126695268444E-2    1.921963590976097E-2    4.072179742021391E-2    9.775289597513686E-1   -1.235654179286693E-1
 4.647637385423118E7     9.768544682996996E-1   -1.277270888775048E-1    1.902409755869183E-2    4.132360535717680E-2    1.930350665193017E-2    4.106420654247737E-2    9.773925744767814E-1   -1.245202489579762E-1
 4.683098220305377E7     9.766971106882774E-1   -1.287262522614634E-1    1.910777744688036E-2    4.166536232725531E-2    1.939001988237457E-2    4.140550286218601E-2    9.772498788581111E-1   -1.255149276888214E-1
 4.718829616487134E7     9.765434650718361E-1   -1.297451787900225E-1    1.919613106970412E-2    4.201294208257240E-2    1.947996677407038E-2    4.175129556865054E-2    9.771062520834952E-1   -1.264996363856518E-1
 4.754833638313931E7     9.762954093632299E-1   -1.309207451883006E-1    1.926835618277543E-2    4.233167081783082E-2    1.986648283563688E-2    4.192379852919195E-2    9.769873690568924E-1   -1.274642897268912E-1
 4.791112365881994E7     9.761379971529519E-1   -1.319322144354177E-1    1.935474635966562E-2    4.268277754876711E-2    1.996240196373612E-2    4.227418447190495E-2    9.768281610065782E-1   -1.284554198374165E-1
 4.827667895158397E7     9.759816136229388E-1   -1.329763200591887E-1    1.944265660300665E-2    4.303960487376780E-2    2.005948282507354E-2    4.262717880341008E-2    9.766740553330466E-1   -1.294671849168133E-1
 4.864502338102144E7     9.758160577612642E-1   -1.339946676560511E-1    1.953330244970150E-2    4.339917001001421E-2    2.015963936155844E-2    4.298186259932248E-2    9.765122341313763E-1   -1.304701587294008E-1
 4.901617822786229E7     9.756590907272703E-1   -1.350447423717424E-1    1.962795418109166E-2    4.376323374407919E-2    2.026043661044606E-2    4.333914680872871E-2    9.763656126975165E-1   -1.314687036068073E-1
 4.939016493520518E7     9.754935854383492E-1   -1.360974232499966E-1    1.972674584640621E-2    4.412714224969898E-2    2.036341552586998E-2    4.369971804436942E-2    9.762200191022259E-1   -1.325205576440065E-1
 4.976700510975666E7     9.753417517659704E-1   -1.371755601521751E-1    1.982448341268131E-2    4.449477711981591E-2    2.046918020250509E-2    4.405980547339740E-2    9.760420042063310E-1   -1.335343218943510E-1
 5.014672052307993E7     9.751651210391884E-1   -1.382596511882554E-1    1.992397300647680E-2    4.486394117732963E-2    2.057624365284831E-2    4.443012923625646E-2    9.758850299506675E-1   -1.345786251578963E-1
 5.052933311285146E7     9.750110113070616E-1   -1.393264371561838E-1    2.002941469228800E-2    4.523621061345903E-2    2.068388579705684E-2    4.479559332492120E-2    9.757258773291944E-1   -1.356346352750857E-1
 5.091486498412994E7     9.748259207684082E-1   -1.404128391401297E-1    2.013565644100086E-2    4.561510338113012E-2    2.079521049009485E-2    4.516735633282703E-2    9.755462434245817E-1   -1.366960867289619E-1
 5.130333841063219E7     9.746273313200453E-1   -1.415180440402717E-1    2.024466790482255E-2    4.599018321214367E-2    2.091283665446017E-2    4.554427545508067E-2    9.753771860599803E-1   -1.377748913399789E-1
 5.169477583602042E7     9.744675202146977E-1   -1.426125023652201E-1    2.035479642784445E-2    4.636900998478026E-2    2.102769613548898E-2    4.592023624305736E-2    9.752088105476161E-1   -1.388785560756515E-1
 5.208919987519933E7     9.743024995494834E-1   -1.437140979709696E-1    2.046562829788360E-2    4.675354194075985E-2    2.114784232653182E-2    4.629809737583515E-2    9.750364070904208E-1   -1.399351617198632E-1
 5.248663331562151E7     9.741091943105765E-1   -1.448706356747449E-1    2.058051455526399E-2    4.713679839154985E-2    2.126822626555639E-2    4.667757419265226E-2    9.748503522292590E-1   -1.410196159810811E-1
 5.288709911860541E7     9.739574488776519E-1   -1.459977064443229E-1    2.069170863107134E-2    4.752199012093108E-2    2.138876948270462E-2    4.705859971338266E-2    9.746516052762471E-1   -1.421241918497422E-1
 5.329062042066076E7     9.737589389602084E-1   -1.471247155760733E-1    2.081038636617667E-2    4.791061087277182E-2    2.151298862724402E-2    4.744621910271301E-2    9.744681196288391E-1   -1.432229432487066E-1
 5.369722053482568E7     9.735631925830689E-1   -1.482880970560538E-1    2.092987284263598E-2    4.830319129297708E-2    2.163689921140014E-2    4.783588780630998E-2    9.742843678474379E-1   -1.443762605500364E-1
 5.410692295201402E7     9.733680356410781E-1   -1.494191883941973E-1    2.104704734408108E-2    4.869592649900660E-2    2.176181869995886E-2    4.822654036942792E-2    9.740986818264499E-1   -1.454863343932444E-1
 5.451975134237129E7     9.731539227201491E-1   -1.505839929956789E-1    2.116881954934923E-2    4.909165243325580E-2    2.188900671490775E-2    4.862044606671469E-2    9.738926799211864E-1   -1.466325580770167E-1
 5.493572955664375E7     9.729467613292699E-1   -1.517870662696497E-1    2.128988033112178E-2    4.949257706776116E-2    2.202058644336450E-2    4.901782009726507E-2    9.737037599917385E-1   -1.477792132834929E-1
 5.535488162755510E7     9.727543703464490E-1   -1.529527685614457E-1    2.141560997463326E-2    4.989611121549308E-2    2.215302129460615E-2    4.941897251186352E-2    9.735103024287209E-1   -1.488955614147483E-1
 5.577723177119546E7     9.725340833351096E-1   -1.541284498898811E-1    2.153965699365270E-2    5.030014552457743E-2    2.228800591302231E-2    4.982107585463453E-2    9.732730878388482E-1   -1.500611777187092E-1
 5.620280438842070E7     9.723123601509985E-1   -1.553425991955887E-1    2.166749466950148E-2    5.071192160875924E-2    2.242417761862808E-2    5.022947359482141E-2    9.730648451145677E-1   -1.512318969750196E-1
 5.663162406626155E7     9.720950546885202E-1   -1.565601149768553E-1    2.179672312093028E-2    5.112635059303492E-2    2.256281467754449E-2    5.063904336743901E-2    9.728509009018244E-1   -1.524367209615973E-1
 5.706371557934452E7     9.718685454826012E-1   -1.577717689837671E-1    2.193216622824814E-2    5.154257561061391E-2    2.270474215510461E-2    5.105418402052683E-2    9.726474111110367E-1   -1.536047735652579E-1
 5.749910389132310E7     9.716294821454337E-1   -1.589946334407402E-1    2.206722521314675E-2    5.196033013436955E-2    2.284891513271816E-2    5.147179272622111E-2    9.724188068720033E-1   -1.548114791206145E-1
 5.793781415631992E7     9.714192275344770E-1   -1.602360988077173E-1    2.220214599256873E-2    5.238618287164677E-2    2.299724774544883E-2    5.188792066550645E-2    9.721898247130637E-1   -1.560406574203374E-1
 5.837987172038046E7     9.714018040739096E-1   -1.611151002483964E-1    2.246063820539836E-2    5.286467511272032E-2    2.259125991641035E-2    5.275015742970386E-2    9.719218064639064E-1   -1.573035121093362E-1
 5.882530212293670E7     9.711399634362626E-1   -1.623778730955849E-1    2.260419010736056E-2    5.329337541859036E-2    2.273685750985623E-2    5.317967124955795E-2    9.716745910832856E-1   -1.585275585977470E-1
 5.927413109828297E7     9.709052847682194E-1   -1.635914810579627E-1    2.275155828490108E-2    5.372675776554055E-2    2.288825822648436E-2    5.361238917422199E-2    9.714373217199106E-1   -1.597547219534028E-1
 5.972638457706322E7     9.706577811097431E-1   -1.648629831636310E-1    2.290095990789668E-2    5.416264720072256E-2    2.303710768455418E-2    5.404951648198759E-2    9.712256084074601E-1   -1.609912780784817E-1
 6.018208868776779E7     9.704079884667552E-1   -1.661207683081431E-1    2.305148402907579E-2    5.460102832746675E-2    2.319094356479801E-2    5.449193276429506E-2    9.709661294201676E-1   -1.622264850866488E-1
 6.064126975824468E7     9.701591761106436E-1   -1.673888605625867E-1    2.320621472657448E-2    5.504394406440515E-2    2.335065411156611E-2    5.493302892847396E-2    9.707116459180446E-1   -1.635106798768095E-1
 6.110395431721926E7     9.698851256341984E-1   -1.687072893433936E-1    2.336447763108889E-2    5.548955910748435E-2    2.350933993619138E-2    5.537722553866648E-2    9.704446552986753E-1   -1.647619880182807E-1
 6.157016909582742E7     9.696298157402703E-1   -1.700068427746250E-1    2.352432383805093E-2    5.593672728557150E-2    2.367167293119559E-2    5.582544072288260E-2    9.701846659088328E-1   -1.660585665977818E-1
 6.203994102916045E7     9.693552767374188E-1   -1.713241529616829E-1    2.368788537484866E-2    5.638754680556840E-2    2.383342272483069E-2    5.627702382454117E-2    9.699368396238776E-1   -1.673349443940847E-1
 6.251329725781982E7     9.690644886406938E-1   -1.726525612076848E-1    2.385206425635832E-2    5.684092615708359E-2    2.400181248935793E-2    5.673163581141263E-2    9.696369095113282E-1   -1.686449373169499E-1
 6.299026512948693E7     9.687801861894391E-1   -1.739860743074968E-1    2.401823948537484E-2    5.729607076994012E-2    2.417249398361870E-2    5.718990515505410E-2    9.693814431309641E-1   -1.699273663414207E-1
 6.347087220050172E7     9.684943888058659E-1   -1.753056075111791E-1    2.418921795795455E-2    5.775699211641446E-2    2.434336718041970E-2    5.765068798163386E-2    9.691088152322109E-1   -1.712575620891867E-1
 6.395514623745525E7     9.682142207856156E-1   -1.766736106358899E-1    2.435857215824930E-2    5.822362168480839E-2    2.451647672150264E-2    5.811468743860781E-2    9.688270304235216E-1   -1.725819863686497E-1
 6.444311521879433E7     9.679249904980090E-1   -1.780410055640032E-1    2.453267228589437E-2    5.869455518901634E-2    2.469178930994482E-2    5.858403043516958E-2    9.685473724291715E-1   -1.739625009096079E-1
 6.493480733643661E7     9.676158968054620E-1   -1.794236471877840E-1    2.471040070494928E-2    5.916091801891230E-2    2.487233405836396E-2    5.905440929448684E-2    9.682358538152942E-1   -1.753004178170247E-1
 6.543025099740107E7     9.673069111686620E-1   -1.808133784016456E-1    2.488593935332913E-2    5.963591862228303E-2    2.504933769602807E-2    5.952861201707239E-2    9.679581618913126E-1   -1.766446309368512E-1
 6.592947482544785E7     9.669225076498176E-1   -1.830068638023514E-1    2.482177132338017E-2    6.008221982780548E-2    2.650145055000680E-2    5.946709474544105E-2    9.677230806732322E-1   -1.779120770686879E-1
 6.643250766273243E7     9.666290242055040E-1   -1.844148053629883E-1    2.500317389588904E-2    6.056917338658011E-2    2.672008045414773E-2    5.994729723778806E-2    9.674000184990470E-1   -1.793152199183369E-1
 6.693937857147253E7     9.663166919955820E-1   -1.858364122619702E-1    2.517767793288756E-2    6.106059961274210E-2    2.692830331413302E-2    6.042910869015482E-2    9.670883031765833E-1   -1.807087819314232E-1
 6.745011683562562E7     9.659992488211928E-1   -1.872899503099441E-1    2.535273552443609E-2    6.155908063973228E-2    2.713674728746648E-2    6.092281208216620E-2    9.667688833673886E-1   -1.821310018451732E-1
 6.796475196258274E7     9.656692649851808E-1   -1.887536747972584E-1    2.553237434252504E-2    6.207171297736893E-2    2.735164684295070E-2    6.142080308505755E-2    9.664384992619250E-1   -1.835648520397589E-1
 6.848331368487169E7     9.653180523555709E-1   -1.901800392152969E-1    2.571602283864205E-2    6.259381215167165E-2    2.757159374376977E-2    6.192522126666929E-2    9.661004535258979E-1   -1.850096433257155E-1
 6.900583196187538E7     9.648477249145184E-1   -1.912567120099872E-1    2.597954860209682E-2    6.311402573315680E-2    2.705622478149056E-2    6.248104184226735E-2    9.657797122765713E-1   -1.864364386844961E-1
 6.953233698156311E7     9.645004454997886E-1   -1.927266827866502E-1    2.618726658381053E-2    6.362798432899643E-2    2.727651872216038E-2    6.298750942896257E-2    9.654726704356791E-1   -1.878374249911141E-1
 7.006285916223384E7     9.641653753201391E-1   -1.941779820434185E-1    2.640325124913917E-2    6.414001617689168E-2    2.749070986961762E-2    6.350217397873016E-2    9.651292654201677E-1   -1.892372667649157E-1
 7.059742915427396E7     9.638326491239063E-1   -1.956302242334470E-1    2.662235765666493E-2    6.465723979587175E-2    2.770535510020052E-2    6.402028569473937E-2    9.647662656970483E-1   -1.907474597314667E-1
 7.113607784192866E7     9.634965270480973E-1   -1.971428001274258E-1    2.683860402799826E-2    6.518121464591493E-2    2.793984885505274E-2    6.453025395238673E-2    9.643718091408267E-1   -1.922837644354482E-1
 7.167883634508467E7     9.631174842513855E-1   -1.986676510195423E-1    2.706019854419192E-2    6.570343134190973E-2    2.817712987863855E-2    6.504807872188999E-2    9.640086062721992E-1   -1.937824328618181E-1
 7.222573602107021E7     9.627377021226965E-1   -2.002459794195107E-1    2.727918034254525E-2    6.623246542127903E-2    2.840864908710111E-2    6.557057990163438E-2    9.636260621969094E-1   -1.953153586556105E-1
 7.277680846646504E7     9.623266280141276E-1   -2.017987499352100E-1    2.748914995679787E-2    6.676669272900697E-2    2.864013089186387E-2    6.610044618931359E-2    9.632404387007704E-1   -1.968227042505938E-1
 7.333208551892644E7     9.619367632940313E-1   -2.033449197967487E-1    2.770583697150679E-2    6.731330962090035E-2    2.886975399228761E-2    6.664723978340575E-2    9.628757116131842E-1   -1.983301874430262E-1
 7.389159925902925E7     9.615641222187055E-1   -2.049206564231899E-1    2.794554570467655E-2    6.786045338151300E-2    2.910360100551268E-2    6.720481091879067E-2    9.625076737260736E-1   -1.998439467666721E-1
 7.445538201211768E7     9.611969016029605E-1   -2.064429012428604E-1    2.819113822231836E-2    6.841054404413312E-2    2.935037078500690E-2    6.775872720118423E-2    9.620869238986796E-1   -2.014018044901202E-1
 7.502346635017487E7     9.608053190678819E-1   -2.080304369763466E-1    2.844090472565070E-2    6.896318611104654E-2    2.961417655546987E-2    6.831035118758984E-2    9.616676931688569E-1   -2.029846466534604E-1
 7.559588509370317E7     9.603818118051032E-1   -2.096701978249663E-1    2.868685896638195E-2    6.951595168861237E-2    2.988598665773204E-2    6.885994923455700E-2    9.612585350156153E-1   -2.045927224492125E-1
 7.617267131362079E7     9.599484237981195E-1   -2.112888774937972E-1    2.893343332808723E-2    7.007577902926815E-2    3.014736216822331E-2    6.941855344273366E-2    9.608519853133843E-1   -2.062166174169169E-1
 7.675385833317320E7     9.595020963304467E-1   -2.129139813383863E-1    2.917359842938274E-2    7.064268900954530E-2    3.041288127141147E-2    6.999009820629183E-2    9.604087348115452E-1   -2.077857670809628E-1
 7.733947972985649E7     9.590703582356856E-1   -2.145601096851957E-1    2.942002599772073E-2    7.121696716481758E-2    3.068455389760260E-2    7.057390465704708E-2    9.600183126872412E-1   -2.093025793780275E-1
 7.792956933735959E7     9.586472248370529E-1   -2.161755487733251E-1    2.968280248983520E-2    7.179435909251532E-2    3.096196586767062E-2    7.116203336275989E-2    9.595955969556057E-1   -2.109363794308390E-1
 7.852416124751715E7     9.582215171090860E-1   -2.178170219517156E-1    2.995276491291432E-2    7.237766674626232E-2    3.125084986881681E-2    7.174715538496111E-2    9.591255770911824E-1   -2.125873775668122E-1
 7.912328981227988E7     9.577562724203579E-1   -2.194698539359745E-1    3.021849565478395E-2    7.296867498067240E-2    3.155047016379134E-2    7.233042236780653E-2    9.586855419358878E-1   -2.142503533305954E-1
 7.972698964569975E7     9.572798797386636E-1   -2.211903899969684E-1    3.049470007027267E-2    7.356243686708572E-2    3.184571976827195E-2    7.291929860475239E-2    9.582225702585990E-1   -2.159195138734040E-1
 8.033529562592810E7     9.568288911828748E-1   -2.228876527691704E-1    3.077587563226540E-2    7.416467731287670E-2    3.215667131402367E-2    7.351727599229364E-2    9.577667099348930E-1   -2.175712095176159E-1
 8.094824289723292E7     9.563631592417718E-1   -2.246057634682626E-1    3.107181515227190E-2    7.477124202938482E-2    3.247091916026866E-2    7.411819312314159E-2    9.573055682052168E-1   -2.192362509565991E-1
 8.156586687202743E7     9.558831872541975E-1   -2.263064381259577E-1    3.136949500463060E-2    7.538180328675605E-2    3.278528511598031E-2    7.472009294749786E-2    9.568427527308982E-1   -2.209409918526373E-1
 8.218820323291673E7     9.553814364853835E-1   -2.280475133446568E-1    3.167591910434890E-2    7.599497520513265E-2    3.310748751820368E-2    7.532421380710740E-2    9.563613584443458E-1   -2.226661164750168E-1
 8.281528793475981E7     9.548737871908931E-1   -2.297816158516150E-1    3.198374994031640E-2    7.661335490911578E-2    3.343095362754422E-2    7.593217070604963E-2    9.558731793535472E-1   -2.243940807368788E-1
 8.344715720674579E7     9.543901171692882E-1   -2.315549747855664E-1    3.229735962190551E-2    7.723593305326902E-2    3.376637886978136E-2    7.655028462129920E-2    9.553757963052065E-1   -2.261657302207763E-1
 8.408384755448765E7     9.538822394033991E-1   -2.333182511925598E-1    3.261520559231670E-2    7.786478848233512E-2    3.409926276778137E-2    7.717411848390268E-2    9.549067697042009E-1   -2.279500679743409E-1
 8.472539576213124E7     9.533406454451160E-1   -2.351171357265537E-1    3.293563389548831E-2    7.849378385001012E-2    3.443891237921106E-2    7.780411628631499E-2    9.543822328955225E-1   -2.297159238680512E-1
 8.537183889448020E7     9.527903536336866E-1   -2.368835694826666E-1    3.325469057300928E-2    7.914210059912702E-2    3.478663881811867E-2    7.844588982015055E-2    9.538646997491986E-1   -2.314884875137891E-1
 8.602321429913802E7     9.522409106259527E-1   -2.386771113781689E-1    3.359731191788334E-2    7.979804699775193E-2    3.515615623947222E-2    7.908607826263987E-2    9.533411114840220E-1   -2.332907365918303E-1
 8.667955960866481E7     9.516944353391462E-1   -2.404951994436175E-1    3.394727421136658E-2    8.044526570670313E-2    3.551884003600408E-2    7.972414593515370E-2    9.528325781135322E-1   -2.351214398136143E-1
 8.734091274275188E7     9.511403175203215E-1   -2.423457174355239E-1    3.429146267001188E-2    8.109641690253833E-2    3.588273090396431E-2    8.037373993579841E-2    9.522848409285831E-1   -2.369412559100036E-1
 8.800731191041334E7     9.505719563898902E-1   -2.441943306944813E-1    3.464357346396233E-2    8.176853001972594E-2    3.626082896848179E-2    8.103498198302675E-2    9.517323124411491E-1   -2.387833695884111E-1
 8.867879561219153E7     9.499922737337078E-1   -2.460359493212567E-1    3.501077682231162E-2    8.244800224179397E-2    3.665000219807391E-2    8.169545322058072E-2    9.511798380944217E-1   -2.406437451256267E-1
 8.935540264238395E7     9.494265951439085E-1   -2.479097127973148E-1    3.540183401480133E-2    8.313269458636080E-2    3.704838856672830E-2    8.235512028753995E-2    9.506188391798580E-1   -2.425198534154396E-1
 9.003717209128250E7     9.488433587675985E-1   -2.497831421405334E-1    3.578077444614878E-2    8.379164815119747E-2    3.742158062614353E-2    8.300140958229237E-2    9.500536704891280E-1   -2.443847732097227E-1
 9.072414334743266E7     9.482678525053275E-1   -2.516872420562574E-1    3.618225553473219E-2    8.447056903006536E-2    3.783199155048772E-2    8.367095688578309E-2    9.494948942275299E-1   -2.463096335786843E-1
 9.141635609990983E7     9.476411469401245E-1   -2.536434647645117E-1    3.658565333797205E-2    8.515130460431369E-2    3.824588622883024E-2    8.434791593179064E-2    9.489137417269635E-1   -2.482350582401462E-1
 9.211385034061028E7     9.470500663435449E-1   -2.555832624256604E-1    3.699901004645277E-2    8.584834555458754E-2    3.867008465440273E-2    8.502980766338354E-2    9.482927936947699E-1   -2.501755374074290E-1
 9.281666636656430E7     9.464009190463630E-1   -2.575338188444882E-1    3.742801914953358E-2    8.654119866888846E-2    3.910168607031927E-2    8.571695135552572E-2    9.476706136508136E-1   -2.521307581157299E-1
 9.352484478226222E7     9.457841953446890E-1   -2.595190044870404E-1    3.786357727071189E-2    8.722652966651430E-2    3.953513634086035E-2    8.639892526607390E-2    9.470550165452439E-1   -2.540882340721218E-1
 9.423842650200106E7     9.451337994826005E-1   -2.615317285681507E-1    3.829844540615027E-2    8.791569741408749E-2    3.997947157600749E-2    8.708671441999841E-2    9.464103086906992E-1   -2.560689117484938E-1
 9.495745275224906E7     9.444447004551864E-1   -2.635177096858264E-1    3.873610142819546E-2    8.860672410670278E-2    4.043021775189995E-2    8.778251933258753E-2    9.457531499521851E-1   -2.580853360516153E-1
 9.568196507402541E7     9.437266659548641E-1   -2.655472362716933E-1    3.918207080815865E-2    8.931268459865682E-2    4.088627973175190E-2    8.847912954783468E-2    9.450711352692386E-1   -2.600745757115491E-1
 9.641200532530291E7     9.430038902810227E-1   -2.676030833904761E-1    3.963139524468551E-2    9.002394507115355E-2    4.134650471142506E-2    8.918110643895745E-2    9.443849543415027E-1   -2.621001147353731E-1
 9.714761568342420E7     9.422975303478829E-1   -2.696512118026331E-1    4.008663686815684E-2    9.074239339881225E-2    4.180888948210650E-2    8.989435055263743E-2    9.436549537423602E-1   -2.641172583659253E-1
 9.788883864753923E7     9.415243252248613E-1   -2.717230865681535E-1    4.055452221284029E-2    9.146904565518345E-2    4.228817118878486E-2    9.061628209244914E-2    9.429397107816251E-1   -2.661688900898447E-1
 9.863571704106140E7     9.407560735747158E-1   -2.738303556754236E-1    4.103021344337660E-2    9.220034611207004E-2    4.277404912156139E-2    9.133931382976122E-2    9.422028360067606E-1   -2.682443104207272E-1
 9.938829401413949E7     9.399856072613739E-1   -2.759298350481871E-1    4.150800001944165E-2    9.293899257223513E-2    4.326286763575962E-2    9.207295752388359E-2    9.414573980338669E-1   -2.703220500592264E-1
 1.001466130461536E8     9.392044768167153E-1   -2.780705262966354E-1    4.200128289931587E-2    9.370012505878134E-2    4.376220262838133E-2    9.282485774442813E-2    9.406846906864608E-1   -2.724028562742952E-1
 1.009107179482240E8     9.383621191170054E-1   -2.801953323124210E-1    4.250722985826320E-2    9.446297675601588E-2    4.428557671144553E-2    9.358327515914641E-2    9.399176247349934E-1   -2.745116535572042E-1
 1.016806528657447E8     9.374935000927989E-1   -2.823513210352425E-1    4.303672930193617E-2    9.523416059518423E-2    4.482293770960756E-2    9.434240487500321E-2    9.391339564649022E-1   -2.766300191462053E-1
 1.024564622809335E8     9.366195339426945E-1   -2.845380112793924E-1    4.358107244335559E-2    9.601271859870036E-2    4.537581063614262E-2    9.510729667872582E-2    9.383426894477856E-1   -2.787816313207303E-1
 1.032381910153997E8     9.357519942726683E-1   -2.867322365120554E-1    4.414744511908045E-2    9.679359380439374E-2    4.595112877710397E-2    9.587034969052792E-2    9.374920152808688E-1   -2.809297651877789E-1
 1.040258842327368E8     9.348564253485852E-1   -2.889353145777386E-1    4.473914330630266E-2    9.756216315987487E-2    4.654348368682253E-2    9.663157694736708E-2    9.366727606108286E-1   -2.830750336865717E-1
 1.048195874411304E8     9.339311792817979E-1   -2.911498620768393E-1    4.533094591531794E-2    9.831550799705899E-2    4.713790695258257E-2    9.737411834382634E-2    9.357889796635406E-1   -2.852377314744934E-1
 1.056193464959857E8     9.329847560952376E-1   -2.933527962501140E-1    4.592229892635581E-2    9.907000486140793E-2    4.773040956852741E-2    9.811494758808736E-2    9.349397522051163E-1   -2.874278595983303E-1
 1.064252076025801E8     9.320083499646755E-1   -2.955721541483780E-1    4.650078823115033E-2    9.982477803512885E-2    4.832019364451788E-2    9.885926851055657E-2    9.340839774298189E-1   -2.896207023571734E-1
 1.072372173187304E8     9.310217082991370E-1   -2.977982037373797E-1    4.708390390736637E-2    1.006075358224315E-1    4.891161958870374E-2    9.963358895766362E-2    9.331937282739927E-1   -2.918581593709869E-1
 1.080554225574824E8     9.299938257871265E-1   -3.000923264820197E-1    4.769636853465007E-2    1.014002925883529E-1    4.952867772142679E-2    1.004097594736701E-1    9.322873201729971E-1   -2.940948507747779E-1
 1.088798705898232E8     9.289461513050938E-1   -3.023536783659881E-1    4.832221297176703E-2    1.022045030020824E-1    5.016485227155738E-2    1.011898019683356E-1    9.313839418911275E-1   -2.963672613632468E-1
 1.097106090474096E8     9.278667614104816E-1   -3.046196987151055E-1    4.897971847581621E-2    1.030089646886714E-1    5.081304546855533E-2    1.019707361042232E-1    9.304175829882658E-1   -2.986711278079563E-1
 1.105476859253232E8     9.267960802755343E-1   -3.068690178040873E-1    4.966415547363127E-2    1.037961051629129E-1    5.148626738163347E-2    1.027348955284502E-1    9.294414585235459E-1   -3.009635017131869E-1
 1.113911495848395E8     9.257683766525030E-1   -3.091313645070304E-1    5.033926716490264E-2    1.045691257642049E-1    5.215037028009925E-2    1.034889652366129E-1    9.284531921012985E-1   -3.032615293663871E-1
 1.122410487562254E8     9.247365245025878E-1   -3.114351194619807E-1    5.100477851076640E-2    1.053529256384884E-1    5.280329861802682E-2    1.042526819075109E-1    9.274534842444730E-1   -3.055796952253850E-1
 1.130974325415529E8     9.237086655743117E-1   -3.137773696576817E-1    5.167722373425914E-2    1.061505859788386E-1    5.346303112289943E-2    1.050413896256077E-1    9.263968837273531E-1   -3.079256479432300E-1
 1.139603504175348E8     9.226622122496265E-1   -3.161642123245802E-1    5.236538288246156E-2    1.069605926351002E-1    5.415503027988532E-2    1.058384108274924E-1    9.253488421341789E-1   -3.102448667356558E-1
 1.148298522383858E8     9.215618704840759E-1   -3.185786565961554E-1    5.306630006423761E-2    1.077699618421914E-1    5.485544251445890E-2    1.066257913230393E-1    9.243046141461900E-1   -3.125918927805216E-1
 1.157059882387014E8     9.204668818382333E-1   -3.209992008271798E-1    5.377368021503760E-2    1.085908672945905E-1    5.555606048089965E-2    1.074072926273049E-1    9.232290736751310E-1   -3.149423403196377E-1
 1.165888090363587E8     9.193122427210344E-1   -3.234826526913293E-1    5.449745056639021E-2    1.094129979092572E-1    5.625834602036030E-2    1.081927911089781E-1    9.221685315929427E-1   -3.173251066061402E-1
 1.174783656354443E8     9.181090325614216E-1   -3.259760410806708E-1    5.525040985524307E-2    1.102329666749661E-1    5.696069383475572E-2    1.089660770085325E-1    9.210862223658947E-1   -3.196941235314827E-1
 1.183747094291968E8     9.168662189564590E-1   -3.283931516378178E-1    5.599923518001850E-2    1.110297600457042E-1    5.763096999359251E-2    1.097605065217163E-1    9.200535461092072E-1   -3.221115416566332E-1
 1.192778922029803E8     9.157392560756379E-1   -3.308502329729820E-1    5.671523284615959E-2    1.118509715003518E-1    5.829998945590489E-2    1.106095497526776E-1    9.190090089915720E-1   -3.246049605312513E-1
 1.201879661372721E8     9.145724108517299E-1   -3.334196367976037E-1    5.747491193684314E-2    1.127181931783604E-1    5.902001135372424E-2    1.115071072316259E-1    9.178980403738894E-1   -3.271329434888139E-1
 1.211049838106809E8     9.133506496476769E-1   -3.359823620618358E-1    5.828612841174634E-2    1.135527140546908E-1    5.979673738090210E-2    1.123792986468738E-1    9.167266432637127E-1   -3.296571300807986E-1
 1.220289982029829E8     9.121729361586739E-1   -3.385241372727009E-1    5.905199249108213E-2    1.143543660478677E-1    6.056388370836798E-2    1.132373209133196E-1    9.155799726466198E-1   -3.321917253849799E-1
 1.229600626981811E8     9.109987057935610E-1   -3.411493482715347E-1    5.978400637167720E-2    1.152070508757609E-1    6.132651783437212E-2    1.141209738928621E-1    9.144047007311495E-1   -3.347805643711920E-1
 1.238982310875929E8     9.098055680887073E-1   -3.438642534419625E-1    6.054027416154249E-2    1.161142277232934E-1    6.211671663711021E-2    1.150441586100617E-1    9.131913766857935E-1   -3.374051730241289E-1
 1.248435575729559E8     9.085253960661565E-1   -3.466562024893440E-1    6.136147335113176E-2    1.170545788082197E-1    6.295612067828199E-2    1.159768092102861E-1    9.119052785496944E-1   -3.400413495733526E-1
 1.257960967695579E8     9.071418616529427E-1   -3.494226292321382E-1    6.222209469871990E-2    1.179474542964392E-1    6.381647392878576E-2    1.168643537317708E-1    9.105723635960835E-1   -3.426256920378368E-1
 1.267559037093956E8     9.057572132206216E-1   -3.521783233513235E-1    6.308278434827970E-2    1.187971728843584E-1    6.469263890925531E-2    1.177131907695044E-1    9.092849347525808E-1   -3.451810591085240E-1
 1.277230338443520E8     9.044016794397934E-1   -3.549779444490209E-1    6.388321201093393E-2    1.197029374432056E-1    6.551738538484167E-2    1.185992375649210E-1    9.080635212425532E-1   -3.478284050823505E-1
 1.286975430493991E8     9.029898871123920E-1   -3.578314555179250E-1    6.472821200225130E-2    1.206798999244235E-1    6.637207544018563E-2    1.195474834155678E-1    9.067756258141823E-1   -3.505572537516748E-1
 1.296794876258291E8     9.015128342606740E-1   -3.606892374918556E-1    6.565063106868997E-2    1.216472719600556E-1    6.728296858661356E-2    1.205006144655364E-1    9.054270572136476E-1   -3.532940270012864E-1
 1.306689243045034E8     9.000151580817793E-1   -3.635113286229000E-1    6.658659036179890E-2    1.225897498777610E-1    6.821699054363350E-2    1.214388284246608E-1    9.040523074880735E-1   -3.560375411619519E-1
 1.316659102491341E8     8.985361389685667E-1   -3.663582738047870E-1    6.752517618204347E-2    1.235323549853374E-1    6.916136380801943E-2    1.223794232686065E-1    9.026473893504525E-1   -3.588060186724787E-1
 1.326705030595824E8     8.970710029503428E-1   -3.692372492732240E-1    6.846722211039753E-2    1.244936689904826E-1    7.011898027330933E-2    1.233342342639150E-1    9.012092628097190E-1   -3.615850729737696E-1
 1.336827607751903E8     8.955736902991286E-1   -3.721707295692153E-1    6.943612039247681E-2    1.254645746423379E-1    7.111421679597918E-2    1.242935850605146E-1    8.997364710001902E-1   -3.643752613287719E-1
 1.347027418781318E8     8.940374693908227E-1   -3.751518107007642E-1    7.042462586095485E-2    1.264365173079592E-1    7.211527492036271E-2    1.252372949439793E-1    8.982706607078429E-1   -3.671772403886843E-1
 1.357305052967905E8     8.924653747166925E-1   -3.781652215339721E-1    7.143294421759212E-2    1.274176549181204E-1    7.311256565202043E-2    1.261781350605071E-1    8.967651305256730E-1   -3.699861592424852E-1
 1.367661104091667E8     8.908529279412181E-1   -3.811842411236148E-1    7.245776390602232E-2    1.283968944630042E-1    7.412056906375436E-2    1.271573617341538E-1    8.952207999049551E-1   -3.728155819928059E-1
 1.378096170463071E8     8.891975886613931E-1   -3.842461181696979E-1    7.349428946638877E-2    1.293747012921461E-1    7.516655246028481E-2    1.281391767492150E-1    8.936645846889281E-1   -3.756569454751595E-1
 1.388610854957592E8     8.875120075561194E-1   -3.873082243713447E-1    7.452551221078837E-2    1.303671625033712E-1    7.622552365645653E-2    1.291293525813627E-1    8.921309954426617E-1   -3.785135392291902E-1
 1.399205765050585E8     8.857649551444513E-1   -3.903867930994042E-1    7.558014265448282E-2    1.313782013036526E-1    7.729311719271369E-2    1.301261321693460E-1    8.905848193364787E-1   -3.814027385069274E-1
 1.409881512852336E8     8.840101372619033E-1   -3.934826142201238E-1    7.664824443024199E-2    1.324125898723484E-1    7.838590611698805E-2    1.311443956824650E-1    8.889767858500286E-1   -3.843832493084235E-1
 1.420638715143470E8     8.822426557716228E-1   -3.965827264902579E-1    7.773841225679451E-2    1.334627927983220E-1    7.950374498086316E-2    1.321833827492232E-1    8.873314404043472E-1   -3.873683245116802E-1
 1.431477993410541E8     8.804687869079133E-1   -3.996989698607449E-1    7.885186256336364E-2    1.345289934275291E-1    8.064395673529651E-2    1.332288959997410E-1    8.856646095126919E-1   -3.903500760081458E-1
 1.442399973881980E8     8.786436663444608E-1   -4.028636452304982E-1    7.998685440030745E-2    1.356169079813725E-1    8.181255626102224E-2    1.342930062265359E-1    8.839463923246434E-1   -3.934160496269706E-1
 1.453405287564251E8     8.767756506021636E-1   -4.060901927895718E-1    8.117093283529303E-2    1.367408882692664E-1    8.302473783605922E-2    1.353833314690445E-1    8.821542917808304E-1   -3.964959864999399E-1
 1.464494570278296E8     8.748454474088099E-1   -4.093092249376922E-1    8.240977493073913E-2    1.378595048859681E-1    8.428565493068313E-2    1.364591883702051E-1    8.803151280826872E-1   -3.995639477086176E-1
 1.475668462696298E8     8.728673089329925E-1   -4.125499931793047E-1    8.367754988909903E-2    1.389635618108855E-1    8.556363261203383E-2    1.375232443642322E-1    8.784270222114264E-1   -4.026249683791585E-1
 1.486927610378684E8     8.708261121403343E-1   -4.158296662313023E-1    8.498645500225083E-2    1.400697953378130E-1    8.687573549089191E-2    1.385901526226858E-1    8.765251198809765E-1   -4.057024220359862E-1
 1.498272663811400E8     8.687758179280057E-1   -4.190749310092290E-1    8.631391092343137E-2    1.411641878967852E-1    8.821308844090153E-2    1.396480959244491E-1    8.745553657300409E-1   -4.088324970294345E-1
 1.509704278443526E8     8.666698794719412E-1   -4.223507191927295E-1    8.765680441277306E-2    1.422486600945901E-1    8.954970738866912E-2    1.407057294148674E-1    8.725429951814254E-1   -4.119259275478411E-1
 1.521223114725131E8     8.645456995352123E-1   -4.256536998318021E-1    8.899284672311164E-2    1.433539338110100E-1    9.089642438248205E-2    1.417733035116705E-1    8.704949995615149E-1   -4.149952078153516E-1
 1.532829838145407E8     8.623687272554388E-1   -4.290011710949699E-1    9.037218570617189E-2    1.444704401962684E-1    9.226454557959754E-2    1.428704940115827E-1    8.684756595403240E-1   -4.181071201733904E-1
 1.544525119271165E8     8.601095964374579E-1   -4.323685688443988E-1    9.178203640980317E-2    1.456130120786976E-1    9.367226764871081E-2    1.439824935940344E-1    8.664581428441489E-1   -4.212421836208074E-1
 1.556309633785520E8     8.578396863006587E-1   -4.357364877408792E-1    9.322094077139406E-2    1.467383443985752E-1    9.512016983967170E-2    1.450990011862463E-1    8.644126692617700E-1   -4.244686724092596E-1
 1.568184062526983E8     8.555357838245620E-1   -4.390969163205507E-1    9.465394132568423E-2    1.478790506314888E-1    9.659485434774083E-2    1.462275774339510E-1    8.623192255724420E-1   -4.277202206719001E-1
 1.580149091528745E8     8.532084472313539E-1   -4.425472980030890E-1    9.611326029968989E-2    1.490838466828502E-1    9.810686913469860E-2    1.473941254222457E-1    8.601535493001619E-1   -4.310115657068709E-1
 1.592205412058353E8     8.507871544937343E-1   -4.459774315726736E-1    9.764551770427052E-2    1.503003998953187E-1    9.970024087942711E-2    1.485681578855161E-1    8.579680966032613E-1   -4.343190371877155E-1
 1.604353720657634E8     8.482999672977085E-1   -4.494077011620983E-1    9.923887516191789E-2    1.515053640219263E-1    1.013513540824450E-1    1.497338015267575E-1    8.556817292529538E-1   -4.376977764605510E-1
 1.616594719182909E8     8.457693502691336E-1   -4.528776049425411E-1    1.008761068326003E-1    1.526915114660755E-1    1.030371570019469E-1    1.508825089844889E-1    8.533274796955487E-1   -4.411078564665195E-1
 1.628929114845590E8     8.431619135520751E-1   -4.562957259657317E-1    1.025504443423072E-1    1.538501220578459E-1    1.047663321827625E-1    1.520132153210732E-1    8.508659855522274E-1   -4.445243335341142E-1
 1.641357620253014E8     8.405832970821320E-1   -4.596345616756146E-1    1.042212590156393E-1    1.550027800354315E-1    1.065016007217884E-1    1.531276585477133E-1    8.483494982802408E-1   -4.479488344881728E-1
 1.653880953449593E8     8.379491653885669E-1   -4.631110562303355E-1    1.059229848109901E-1    1.561440961306916E-1    1.082418646698528E-1    1.542349084558649E-1    8.458233034468691E-1   -4.513563613837178E-1
 1.666499837958347E8     8.352373086718411E-1   -4.666110472051855E-1    1.076569336250415E-1    1.572820587201833E-1    1.099972318579801E-1    1.553443035380753E-1    8.432105347383863E-1   -4.547889847710458E-1
 1.679215002822650E8     8.324759823780824E-1   -4.702062592355101E-1    1.094240290490112E-1    1.584484369784224E-1    1.117686287804369E-1    1.564929545215080E-1    8.405851757689135E-1   -4.582682103418989E-1
 1.692027182648404E8     8.296463919281971E-1   -4.737936445271403E-1    1.112391577128568E-1    1.596545563219956E-1    1.136087997784986E-1    1.576659575631021E-1    8.378603733922622E-1   -4.617851362733219E-1
 1.704937117646426E8     8.266708215691129E-1   -4.774075562518715E-1    1.131111971097756E-1    1.608600714751178E-1    1.155031299625751E-1    1.588333965548278E-1    8.350975475208616E-1   -4.653099613586451E-1
 1.717945553675260E8     8.236763859404510E-1   -4.810076539188875E-1    1.150313993582791E-1    1.620320003359946E-1    1.174456892297677E-1    1.599794998892577E-1    8.322466983813612E-1   -4.688691245462400E-1
 1.731053242284249E8     8.206218167349689E-1   -4.846470823669090E-1    1.169475724125716E-1    1.631939614388274E-1    1.193784669472590E-1    1.611234220709063E-1    8.293294925653557E-1   -4.724054065144976E-1
 1.744260940756933E8     8.174725101076253E-1   -4.883166372385728E-1    1.189184555927073E-1    1.643990205957180E-1    1.213583529328503E-1    1.622984362963469E-1    8.263450154145258E-1   -4.759820208316590E-1
 1.757569412154842E8     8.142616830094539E-1   -4.920234499934713E-1    1.208932745357810E-1    1.655588901668447E-1    1.233350245395793E-1    1.634620979996309E-1    8.232536496240421E-1   -4.795123742036695E-1
 1.770979425361561E8     8.109125980913813E-1   -4.957633074760788E-1    1.228511330607540E-1    1.667918083888776E-1    1.253356905568746E-1    1.646919120830243E-1    8.201883663523379E-1   -4.830250521904071E-1
 1.784491755127131E8     8.073909782837594E-1   -4.994677455486983E-1    1.248951839478066E-1    1.681138701670689E-1    1.274242739494763E-1    1.659783108707421E-1    8.170836050007206E-1   -4.866678246728370E-1
 1.798107182112848E8     8.037912257496757E-1   -5.030982966842054E-1    1.270599964203615E-1    1.694527574373908E-1    1.296025760101683E-1    1.672689508886755E-1    8.138444160716398E-1   -4.903355715472070E-1
 1.811826492936349E8     8.000893922931251E-1   -5.066978257564445E-1    1.293039668532259E-1    1.707629273980102E-1    1.318314241525335E-1    1.685554980530599E-1    8.104964474746171E-1   -4.940198778274322E-1
 1.825650480217040E8     7.963222368832666E-1   -5.102793232648900E-1    1.316519880492107E-1    1.720405017114496E-1    1.341783497540298E-1    1.698161595920822E-1    8.070644169215241E-1   -4.977480441129903E-1
 1.839579942621904E8     7.924551192681858E-1   -5.138124039331292E-1    1.340561895600200E-1    1.732891991510046E-1    1.365808030199526E-1    1.710608309615056E-1    8.035092523186808E-1   -5.013991244719197E-1
 1.853615684911660E8     7.885584904548036E-1   -5.173013904014689E-1    1.364863297008505E-1    1.744965142530272E-1    1.390296198894042E-1    1.722640452312450E-1    7.998932111250192E-1   -5.050601256538454E-1
 1.867758517987237E8     7.846035123778933E-1   -5.208207548784882E-1    1.389177607316908E-1    1.756899377975800E-1    1.414657011898995E-1    1.734624603324986E-1    7.961971874072685E-1   -5.087919323346954E-1
 1.882009258936609E8     7.805586484132645E-1   -5.243331971130729E-1    1.413959582724241E-1    1.769323970865647E-1    1.439850083419596E-1    1.746954225537488E-1    7.923836723192749E-1   -5.124659431510662E-1
 1.896368731082037E8     7.764114215435727E-1   -5.278459827444304E-1    1.439364722363798E-1    1.781605865559851E-1    1.465444899571191E-1    1.759135776314490E-1    7.884548774410896E-1   -5.161747920109370E-1
 1.910837764027621E8     7.721799618693953E-1   -5.314182435260828E-1    1.465215648224154E-1    1.794084194270582E-1    1.491408042464858E-1    1.771399019856369E-1    7.845283188004403E-1   -5.198013304313505E-1
 1.925417193707203E8     7.677769075415561E-1   -5.350257523210219E-1    1.491464769736559E-1    1.806541071757815E-1    1.517919319275387E-1    1.783862597100707E-1    7.805181771596335E-1   -5.235337792321663E-1
 1.940107862432706E8     7.631655313710181E-1   -5.386167087755193E-1    1.517836231570437E-1    1.819128331531466E-1    1.544585929349665E-1    1.796558575515839E-1    7.763417224959968E-1   -5.272946104359224E-1
 1.954910618942780E8     7.583166000983640E-1   -5.421394485875999E-1    1.544303711385328E-1    1.832983216183020E-1    1.571817592779690E-1    1.810489693130340E-1    7.720198060285682E-1   -5.309873193379384E-1
 1.969826318451810E8     7.533196943825746E-1   -5.454684011314452E-1    1.572908307598085E-1    1.848129857052296E-1    1.601489646681363E-1    1.824559141754288E-1    7.677238844041914E-1   -5.346953152498778E-1
 1.984855822699381E8     7.482627014629415E-1   -5.485878972416451E-1    1.602784194160800E-1    1.862551914330726E-1    1.631281766196727E-1    1.837756390335195E-1    7.632703537264479E-1   -5.384577149442957E-1
 2.000000000000000E8     7.432188200413123E-1   -5.515913463055859E-1    1.633324273025017E-1    1.877476493426736E-1    1.661608296235958E-1    1.851660708578991E-1    7.586409789986174E-1   -5.422478000045196E-1
