#  HZ   S   RI   R     50.00 
! Rohde & Schwarz Vector Network Analyzer 
! Rohde-Schwarz,ZNLE6-2Port,1323001256200024,1.71.1.10-23.02.1.238
! Created: UTC 4/11/2025, 5:44:44 AM
! freq[Hz]                re:S11                  im:S11                  re:S21                  im:S21                  re:S12                  im:S12                  re:S22                  im:S22
 1.000000000000000E5     9.498329332490200E-1    4.063277795903205E-2    5.083969405663771E-2   -4.092842760749291E-2    5.091143837030771E-2   -4.097123702923883E-2    9.496729174712891E-1    4.049282720590600E-2
 1.007629862646662E5     9.499296724119701E-1    4.045848522562741E-2    5.073932593393538E-2   -4.076544991675653E-2    5.080936871504509E-2   -4.080531182773861E-2    9.497992374628678E-1    4.031881117118164E-2
 1.015317940097331E5     9.500215950647294E-1    4.030426209269543E-2    5.063745306203584E-2   -4.060243449214012E-2    5.071112470447400E-2   -4.064518156740938E-2    9.498797884219200E-1    4.016877592028263E-2
 1.023064676522963E5     9.501073832826087E-1    4.012008182203756E-2    5.053754603485494E-2   -4.044062429213333E-2    5.060486254516688E-2   -4.048050441378574E-2    9.499730109535780E-1    4.002071703737111E-2
 1.030870519483485E5     9.501575145289887E-1    3.995094307783890E-2    5.043295486153027E-2   -4.028221053600729E-2    5.050735717095198E-2   -4.032642515282280E-2    9.500458292656102E-1    3.984343031177318E-2
 1.038735919953636E5     9.502613582102415E-1    3.979096358579055E-2    5.033113483501538E-2   -4.012496100879352E-2    5.040862354903199E-2   -4.017026514852667E-2    9.501599790759161E-1    3.967531270356862E-2
 1.046661332349037E5     9.503264913481554E-1    3.960878171929546E-2    5.022773388447447E-2   -3.996314290254147E-2    5.030784105210477E-2   -4.001182533947657E-2    9.502857088417603E-1    3.953406854568848E-2
 1.054647214552430E5     9.504623598187308E-1    3.946194788573464E-2    5.013331463306808E-2   -3.981054729968697E-2    5.020898525174292E-2   -3.985637134932137E-2    9.503751847498988E-1    3.936507659704178E-2
 1.062694027940149E5     9.505436346350521E-1    3.931335747614921E-2    5.002923750284562E-2   -3.965882488845519E-2    5.010645640359546E-2   -3.970143537102808E-2    9.504770145623658E-1    3.921493079954698E-2
 1.070802237408760E5     9.506368965690357E-1    3.915051224027101E-2    4.993182522602657E-2   -3.950344497217684E-2    5.000506698968553E-2   -3.955296557533328E-2    9.505473734571794E-1    3.907117365625810E-2
 1.078972311401927E5     9.507428217950388E-1    3.897879919619912E-2    4.982924307049592E-2   -3.934904363751645E-2    4.990536167943968E-2   -3.939738780576371E-2    9.506443972221397E-1    3.891768452884581E-2
 1.087204721937475E5     9.508801592103219E-1    3.883628247365310E-2    4.972699057059497E-2   -3.920298695274790E-2    4.980370872162426E-2   -3.924498797122496E-2    9.507778412300679E-1    3.874586745079638E-2
 1.095499944634658E5     9.509722253543602E-1    3.869372573698154E-2    4.962742107300509E-2   -3.905620323537221E-2    4.970344147897472E-2   -3.909378152431000E-2    9.508984983240842E-1    3.862832711112951E-2
 1.103858458741646E5     9.510518935223496E-1    3.853029598923251E-2    4.952410463869424E-2   -3.890358132658521E-2    4.960004049174797E-2   -3.894785459184267E-2    9.509685341528410E-1    3.845081002554723E-2
 1.112280747163201E5     9.511277495030648E-1    3.838877383944468E-2    4.942235904019216E-2   -3.875423276944911E-2    4.949857890005088E-2   -3.880368932300181E-2    9.510794825614156E-1    3.831716413481891E-2
 1.120767296488583E5     9.512102418094108E-1    3.822555662362866E-2    4.932106627293086E-2   -3.860435792418567E-2    4.939628207548632E-2   -3.865117127674349E-2    9.511858494577092E-1    3.815841862015083E-2
 1.129318597019661E5     9.513033426297572E-1    3.807584302494344E-2    4.921637374333330E-2   -3.846094266528529E-2    4.929133894995861E-2   -3.850635350629431E-2    9.512759093585588E-1    3.800743155170159E-2
 1.137935142799240E5     9.514159859894512E-1    3.793384270532695E-2    4.911758866461269E-2   -3.831276654446043E-2    4.919021991053962E-2   -3.836063058098747E-2    9.513903009242293E-1    3.785940376084982E-2
 1.146617431639607E5     9.515392651471394E-1    3.778565617504063E-2    4.901386794474683E-2   -3.817249474426779E-2    4.908682712827399E-2   -3.821600018535217E-2    9.514708382316013E-1    3.774106822846341E-2
 1.155365965151286E5     9.516253980145579E-1    3.764483499326007E-2    4.891359698083707E-2   -3.802695684098589E-2    4.898132012477354E-2   -3.807187980748771E-2    9.515760907054491E-1    3.759010297005184E-2
 1.164181248772018E5     9.517456808769552E-1    3.750423589120390E-2    4.881089959838797E-2   -3.788643731659024E-2    4.888076342998558E-2   -3.793204474473669E-2    9.516655517595420E-1    3.744887861681791E-2
 1.173063791795965E5     9.518408810411738E-1    3.737567547988151E-2    4.870948838614540E-2   -3.774549464922376E-2    4.877661433759548E-2   -3.778826604206992E-2    9.517626672744055E-1    3.729139874341812E-2
 1.182014107403141E5     9.519863422343283E-1    3.722402602715496E-2    4.860929860357105E-2   -3.760530508859171E-2    4.867391330679519E-2   -3.765034565150605E-2    9.518713409158552E-1    3.716730456274472E-2
 1.191032712689044E5     9.520842437365226E-1    3.708708933894346E-2    4.850212047934697E-2   -3.746901087411777E-2    4.857190527034801E-2   -3.751153707712282E-2    9.519211560039180E-1    3.700621531900316E-2
 1.200120128694542E5     9.522033227001044E-1    3.693924274006103E-2    4.840241913969980E-2   -3.733086817288497E-2    4.846552781556610E-2   -3.736974843171575E-2    9.520433742736224E-1    3.688839382203361E-2
 1.209276880435975E5     9.522825017777652E-1    3.680850205997647E-2    4.829513207412097E-2   -3.719091356695430E-2    4.836535832934318E-2   -3.723307394827838E-2    9.521530525023559E-1    3.674951182932487E-2
 1.218503496935483E5     9.523532652853235E-1    3.666429508413954E-2    4.819303489419596E-2   -3.705597176048178E-2    4.825711539436028E-2   -3.709634967546665E-2    9.522664865046788E-1    3.662741980502700E-2
 1.227800511251578E5     9.524647807863912E-1    3.651940202571993E-2    4.808991375295719E-2   -3.691978259609718E-2    4.815522155199659E-2   -3.696190953197236E-2    9.523570871578695E-1    3.648171265049496E-2
 1.237168460509929E5     9.525301787297054E-1    3.638341620024195E-2    4.798395377136518E-2   -3.678141963114492E-2    4.804992552713840E-2   -3.682288492244596E-2    9.524688966771722E-1    3.634448141370080E-2
 1.246607885934402E5     9.526524941003908E-1    3.624316578317863E-2    4.788076520078784E-2   -3.665036855286410E-2    4.794666527107633E-2   -3.669166548753369E-2    9.525834573976582E-1    3.620187579505148E-2
 1.256119332878327E5     9.527314436499331E-1    3.611904079985905E-2    4.777721984716289E-2   -3.651710387977743E-2    4.784246022410429E-2   -3.655845991116007E-2    9.526952770477461E-1    3.607901110193622E-2
 1.265703350856002E5     9.528476483131768E-1    3.598290414575937E-2    4.767331812718319E-2   -3.638476065892875E-2    4.774052308569553E-2   -3.642768688631932E-2    9.527955883605117E-1    3.594433995120324E-2
 1.275360493574453E5     9.529517615290051E-1    3.584975680456605E-2    4.756824475114834E-2   -3.625124522554574E-2    4.763368833934473E-2   -3.629135893169397E-2    9.528880390502643E-1    3.580077628480796E-2
 1.285091318965405E5     9.530290450692098E-1    3.570614676218770E-2    4.746283751236151E-2   -3.611998041865706E-2    4.753307899743543E-2   -3.616496878444954E-2    9.530221855986527E-1    3.567753529020831E-2
 1.294896389217529E5     9.531045276183707E-1    3.558003745228803E-2    4.735851392950930E-2   -3.599025825930058E-2    4.742717350430786E-2   -3.603401279174399E-2    9.531174579630846E-1    3.555084745413825E-2
 1.304776270808914E5     9.532340592754551E-1    3.546684552300462E-2    4.725661475526995E-2   -3.586717908693871E-2    4.732289750261596E-2   -3.590593709537743E-2    9.532513900181006E-1    3.542286768824393E-2
 1.314731534539810E5     9.533482527964369E-1    3.533254154150914E-2    4.715187657446552E-2   -3.573706082125406E-2    4.721896375685861E-2   -3.577797969338842E-2    9.533187392596334E-1    3.529369199432424E-2
 1.324762755565583E5     9.534344248538575E-1    3.519832287281284E-2    4.704697853749264E-2   -3.561039915489433E-2    4.710968745659050E-2   -3.565201481639980E-2    9.534150476780328E-1    3.515524219415831E-2
 1.334870513429962E5     9.535615182838231E-1    3.504909934375332E-2    4.694109822243307E-2   -3.548304122243610E-2    4.700584737574548E-2   -3.552485191792341E-2    9.535573293978327E-1    3.504287566813899E-2
 1.345055392098512E5     9.536817325769084E-1    3.493931789412100E-2    4.683680642638600E-2   -3.535570847550904E-2    4.690155178437949E-2   -3.539551435540252E-2    9.536354664640280E-1    3.490948381502132E-2
 1.355317979992373E5     9.537929763761541E-1    3.481490911206732E-2    4.672983670384168E-2   -3.523230801583301E-2    4.679875234986976E-2   -3.527144070078722E-2    9.537752259280835E-1    3.479376806399559E-2
 1.365658870022265E5     9.538783953116944E-1    3.468080336380791E-2    4.662660660597440E-2   -3.510760712379783E-2    4.668486664842161E-2   -3.514335219187765E-2    9.538424933217804E-1    3.466426999958283E-2
 1.376078659622731E5     9.540017413083098E-1    3.456014759037371E-2    4.652004503951431E-2   -3.498241337492973E-2    4.658001030613720E-2   -3.502160373536196E-2    9.539584170497337E-1    3.452503304074962E-2
 1.386577950786655E5     9.541055905136921E-1    3.443578645971410E-2    4.641581403951408E-2   -3.485933175469660E-2    4.647750471142559E-2   -3.489925778173785E-2    9.540537945783362E-1    3.440318724276618E-2
 1.397157350100044E5     9.541756950661817E-1    3.429230722061345E-2    4.630560569288319E-2   -3.473471783225736E-2    4.636995756893752E-2   -3.477668947927105E-2    9.541531599320897E-1    3.427392383149264E-2
 1.407817468777081E5     9.542902917078199E-1    3.417862537123913E-2    4.620256986664568E-2   -3.461395269418793E-2    4.626228815105030E-2   -3.465553264040943E-2    9.542284975427411E-1    3.414150404889572E-2
 1.418558922695422E5     9.543985109228414E-1    3.404461553441396E-2    4.609641192421064E-2   -3.449473433041771E-2    4.615400008031013E-2   -3.453087848763472E-2    9.543827586271331E-1    3.402310951251266E-2
 1.429382332431784E5     9.545106707845783E-1    3.393427418651390E-2    4.599109407445735E-2   -3.437425772927315E-2    4.604900582203416E-2   -3.441394468390146E-2    9.544709767279878E-1    3.392721738427142E-2
 1.440288323297804E5     9.546116986019303E-1    3.381599058075988E-2    4.588202691385736E-2   -3.425241196650673E-2    4.594486092238313E-2   -3.429020844073345E-2    9.545854317692338E-1    3.379105183795732E-2
 1.451277525376154E5     9.547180964526821E-1    3.368916940845165E-2    4.577668170375913E-2   -3.413869160576315E-2    4.583582211334938E-2   -3.417293314221809E-2    9.546516834579533E-1    3.366913323080090E-2
 1.462350573556962E5     9.548144733474445E-1    3.358665082927009E-2    4.567055736059556E-2   -3.401571153140469E-2    4.573149393873588E-2   -3.405425825398468E-2    9.547750872366747E-1    3.355695051228579E-2
 1.473508107574468E5     9.549265443105162E-1    3.345605393242270E-2    4.556072540601117E-2   -3.389796273109717E-2    4.562385218420220E-2   -3.393562681487233E-2    9.548790344788365E-1    3.342893862340179E-2
 1.484750772044004E5     9.550424481081403E-1    3.334056911665319E-2    4.545730410552064E-2   -3.378025716369617E-2    4.551780339266879E-2   -3.381787274919529E-2    9.549631797380849E-1    3.331820767687885E-2
 1.496079216499225E5     9.551756101204756E-1    3.322566222772401E-2    4.535414247469002E-2   -3.366333995756220E-2    4.540592631562118E-2   -3.370275274834357E-2    9.550611388283469E-1    3.320436713056609E-2
 1.507494095429637E5     9.552512183274872E-1    3.310563883905826E-2    4.524203568681445E-2   -3.354849534760309E-2    4.530094125847184E-2   -3.358874803075500E-2    9.551884801737293E-1    3.307383001776834E-2
 1.518996068318418E5     9.553436711710994E-1    3.297562963784351E-2    4.513640295872907E-2   -3.343464713411504E-2    4.519638534444664E-2   -3.346970292301321E-2    9.553209456157606E-1    3.295905213593076E-2
 1.530585799680507E5     9.554121911694251E-1    3.286564465625899E-2    4.502933201574916E-2   -3.331319309233973E-2    4.509170478895306E-2   -3.335504147897580E-2    9.554127722402598E-1    3.285101656718443E-2
 1.542263959101001E5     9.555527187706404E-1    3.273751228118617E-2    4.492115536555333E-2   -3.320265481932923E-2    4.498333565751986E-2   -3.324023452603977E-2    9.555139390578377E-1    3.274021192245738E-2
 1.554031221273835E5     9.556621001939755E-1    3.263515239096274E-2    4.481750187893455E-2   -3.308887642625589E-2    4.488074500145901E-2   -3.312779675265250E-2    9.556212363959284E-1    3.260718832851433E-2
 1.565888266040779E5     9.557878095572182E-1    3.252572004860362E-2    4.470791775260643E-2   -3.297955861040840E-2    4.476899578403393E-2   -3.301313980544310E-2    9.557261214902358E-1    3.250133914787222E-2
 1.577835778430689E5     9.558870673829941E-1    3.239229568824864E-2    4.460445677500688E-2   -3.286417870692771E-2    4.466122451183748E-2   -3.289790141915597E-2    9.558279116156994E-1    3.238451173590660E-2
 1.589874448699104E5     9.559416838574155E-1    3.228150384504855E-2    4.449369192217646E-2   -3.274970464248979E-2    4.455418513496112E-2   -3.278611615042461E-2    9.559696206766646E-1    3.228236503377956E-2
 1.602004972368116E5     9.560559311354513E-1    3.217726897853711E-2    4.438904419505792E-2   -3.263935884044059E-2    4.444884400988100E-2   -3.267495036592717E-2    9.560271215968202E-1    3.216196483538164E-2
 1.614228050266550E5     9.561957890816651E-1    3.207011076056953E-2    4.428146985324913E-2   -3.252763316144847E-2    4.434276232292524E-2   -3.256444955798110E-2    9.561655964310805E-1    3.205443847375314E-2
 1.626544388570473E5     9.562915880660841E-1    3.196134024596442E-2    4.417345824631812E-2   -3.241243366934871E-2    4.423484624806167E-2   -3.245347843666596E-2    9.562388952039456E-1    3.193024335920038E-2
 1.638954698843964E5     9.563801561780167E-1    3.183469212507008E-2    4.406592408187737E-2   -3.230104341923556E-2    4.412537117235683E-2   -3.234292093995237E-2    9.563413478518370E-1    3.182066660202018E-2
 1.651459698080244E5     9.565066558999626E-1    3.171886877649142E-2    4.395767785458409E-2   -3.219396774915611E-2    4.401466433306626E-2   -3.223176798474832E-2    9.564693439578223E-1    3.169650804330885E-2
 1.664060108743095E5     9.566083193609508E-1    3.161462541685173E-2    4.384632710959110E-2   -3.208682784544872E-2    4.390917512923963E-2   -3.211856521373557E-2    9.565494303074406E-1    3.159685907917267E-2
 1.676756658808590E5     9.566982075732122E-1    3.150863926215528E-2    4.374400960190228E-2   -3.197905297803649E-2    4.380075065889955E-2   -3.201283841810557E-2    9.566599124132690E-1    3.149314818513442E-2
 1.689550081807175E5     9.568260892889405E-1    3.139284632339306E-2    4.363605121064431E-2   -3.186763267656804E-2    4.369237100665432E-2   -3.190501541053133E-2    9.567828016584446E-1    3.137839990025655E-2
 1.702441116866020E5     9.569318570255712E-1    3.127054641438000E-2    4.352732461490466E-2   -3.175819434437398E-2    4.358513075030826E-2   -3.179589947016440E-2    9.568896451909072E-1    3.127937810900099E-2
 1.715430508751738E5     9.570566460204092E-1    3.119777919057568E-2    4.342390780090527E-2   -3.164900897265135E-2    4.347997572973615E-2   -3.168880329789932E-2    9.570163852550110E-1    3.114763526835466E-2
 1.728519007913403E5     9.571527678997568E-1    3.106664306975734E-2    4.331534961866869E-2   -3.154847937802066E-2    4.336873665314330E-2   -3.158321339238418E-2    9.571156406882081E-1    3.105428473896110E-2
 1.741707370525927E5     9.573221591955312E-1    3.095749396534763E-2    4.320485714942792E-2   -3.143713755391665E-2    4.325901562716043E-2   -3.147762958758014E-2    9.571866312722621E-1    3.094366644159323E-2
 1.754996358533718E5     9.574198816781881E-1    3.087144514919536E-2    4.309814882909621E-2   -3.132882063707543E-2    4.315494872130551E-2   -3.136804482986640E-2    9.573093380399397E-1    3.082626807037517E-2
 1.768386739694722E5     9.574915764647070E-1    3.076396516311882E-2    4.299118969585782E-2   -3.122436918330400E-2    4.304416780784451E-2   -3.126120623910422E-2    9.574137430024208E-1    3.072690910350495E-2
 1.781879287624771E5     9.576034334282717E-1    3.064553867583205E-2    4.288075180913390E-2   -3.112240294677033E-2    4.294058595695320E-2   -3.115448341552417E-2    9.575322752517733E-1    3.061856701822695E-2
 1.795474781842276E5     9.577001138995563E-1    3.054786709781271E-2    4.277011585473460E-2   -3.101038635821824E-2    4.283068345112511E-2   -3.104736338868743E-2    9.576101260744542E-1    3.051072864761411E-2
 1.809174007813277E5     9.577878145237815E-1    3.042324378013699E-2    4.266753641325598E-2   -3.090895074701926E-2    4.272031771011292E-2   -3.094711330451246E-2    9.577245399023682E-1    3.040522583781757E-2
 1.822977756996804E5     9.579133838159702E-1    3.031235819616274E-2    4.256104985306549E-2   -3.080603462534153E-2    4.261775255281156E-2   -3.084033418028150E-2    9.578035287194785E-1    3.030739813838474E-2
 1.836886826890609E5     9.580430141177615E-1    3.021974240149805E-2    4.245106572893772E-2   -3.069890540362236E-2    4.250704566008600E-2   -3.073635801937019E-2    9.579339057343830E-1    3.019374496669263E-2
 1.850902021077247E5     9.581520965842999E-1    3.010603293614958E-2    4.234351942539744E-2   -3.059669875012799E-2    4.239608854724914E-2   -3.063536565339622E-2    9.580489944869779E-1    3.009524115996833E-2
 1.865024149270491E5     9.582456942955773E-1    2.999717320689825E-2    4.223716922581724E-2   -3.049600867605171E-2    4.229009101283478E-2   -3.053082290160996E-2    9.581602798668287E-1    2.997241239300035E-2
 1.879254027362132E5     9.583820862493698E-1    2.991395691886846E-2    4.212679542706404E-2   -3.039155467342485E-2    4.218478664963550E-2   -3.042958984539084E-2    9.582863006166010E-1    2.987527047796681E-2
 1.893592477469092E5     9.584954064146537E-1    2.974828829836543E-2    4.200812312476185E-2   -3.029683309261499E-2    4.208063565249280E-2   -3.030422099035151E-2    9.583582240192519E-1    2.983008145677186E-2
 1.908040327980933E5     9.585747768156578E-1    2.969620217412696E-2    4.191366042088228E-2   -3.018719529700782E-2    4.196898809166015E-2   -3.022145334849550E-2    9.584962638606271E-1    2.968629957297443E-2
 1.922598413607715E5     9.586798316748366E-1    2.958649223877029E-2    4.180367174773805E-2   -3.008364529862783E-2    4.186227413054808E-2   -3.011801650917507E-2    9.586069302715430E-1    2.957210551596337E-2
 1.937267575428232E5     9.587758754301655E-1    2.948123701900724E-2    4.169835071183584E-2   -2.997985293836487E-2    4.175039129988903E-2   -3.001497104472704E-2    9.587243541772067E-1    2.946400003459649E-2
 1.952048660938581E5     9.588810342266610E-1    2.938298972707080E-2    4.158936190420760E-2   -2.988475051281282E-2    4.164957511936714E-2   -2.991780817894137E-2    9.588244338016068E-1    2.937627954299401E-2
 1.966942524101142E5     9.590026952588125E-1    2.925993865956993E-2    4.148035695780797E-2   -2.978167888506190E-2    4.153749580185783E-2   -2.981450086069218E-2    9.589519416249835E-1    2.927316504911329E-2
 1.981950025393913E5     9.591156458106455E-1    2.917534114140607E-2    4.137468740942456E-2   -2.968125845012214E-2    4.142914240063369E-2   -2.971569142341447E-2    9.590319530600755E-1    2.915290555025136E-2
 1.997072031860212E5     9.592509206642149E-1    2.909830867961175E-2    4.127070188820711E-2   -2.958066062317259E-2    4.132611553731777E-2   -2.961408627747582E-2    9.591745678171454E-1    2.906533014718058E-2
 2.012309417158795E5     9.593459819344005E-1    2.897044366154929E-2    4.116378892109086E-2   -2.947890582803512E-2    4.121459051204164E-2   -2.951011520215453E-2    9.592139708548757E-1    2.895223071224975E-2
 2.027663061614301E5     9.594299435097814E-1    2.886164418077346E-2    4.105520908992616E-2   -2.937809496289270E-2    4.111070417436549E-2   -2.941151120096982E-2    9.593346071466871E-1    2.885857496988133E-2
 2.043133852268128E5     9.594825261789027E-1    2.877210706122317E-2    4.094681426483242E-2   -2.927866738257335E-2    4.099986029323028E-2   -2.931113711083366E-2    9.594066444889982E-1    2.873242122952887E-2
 2.058722682929675E5     9.596119307282631E-1    2.867931158004387E-2    4.083774552637397E-2   -2.917854281780986E-2    4.089320438114257E-2   -2.920904149955965E-2    9.595106037420431E-1    2.863490430500817E-2
 2.074430454227995E5     9.597418068389932E-1    2.856553132838393E-2    4.073074352181146E-2   -2.908132605819090E-2    4.078228764011617E-2   -2.910974911003618E-2    9.595984937413947E-1    2.853278164732128E-2
 2.090258073663807E5     9.598476081370471E-1    2.847151748392802E-2    4.062437609847738E-2   -2.898404771381007E-2    4.067589650728616E-2   -2.901567864800622E-2    9.597184415707621E-1    2.841728014164394E-2
 2.106206455661938E5     9.599631891702433E-1    2.837158600932812E-2    4.051953741102084E-2   -2.888330108519143E-2    4.057268914199595E-2   -2.891161164403273E-2    9.598393156081610E-1    2.834955856474192E-2
 2.122276521624151E5     9.600565917701368E-1    2.826172325268959E-2    4.041542722672998E-2   -2.878447928729697E-2    4.046503623821954E-2   -2.881757591780856E-2    9.599161633701088E-1    2.823381351577229E-2
 2.138469199982374E5     9.601607208986723E-1    2.816497382847778E-2    4.030607597250559E-2   -2.869082862493284E-2    4.035545304458200E-2   -2.871939944899548E-2    9.600153790265356E-1    2.812343666994710E-2
 2.154785426252357E5     9.602833967039788E-1    2.806621106727676E-2    4.019991387169942E-2   -2.859030116288184E-2    4.024977101846801E-2   -2.861861792027375E-2    9.601597401134980E-1    2.803552307069482E-2
 2.171226143087691E5     9.603637420693094E-1    2.795893881194384E-2    4.009143829320918E-2   -2.848820164111063E-2    4.013993051520121E-2   -2.852253401144629E-2    9.602529754611675E-1    2.793175319514257E-2
 2.187792300334291E5     9.604873281560208E-1    2.786183331603544E-2    3.998568405686605E-2   -2.839254489676289E-2    4.003537077163170E-2   -2.842415981640175E-2    9.603443944894210E-1    2.782476222563318E-2
 2.204484855085266E5     9.605740084416219E-1    2.774813388997655E-2    3.987903947125739E-2   -2.829566910415817E-2    3.993331089880237E-2   -2.832558402760584E-2    9.604440228525448E-1    2.771065128105241E-2
 2.221304771736209E5     9.607090949681339E-1    2.765306963774323E-2    3.977436298223903E-2   -2.820075680225221E-2    3.982779973346636E-2   -2.822836995496583E-2    9.605394873800713E-1    2.762772271560055E-2
 2.238253022040931E5     9.608155717112532E-1    2.757293318015379E-2    3.966638340265627E-2   -2.810000344274430E-2    3.972275122525053E-2   -2.813263335108921E-2    9.606880849788560E-1    2.753673045661792E-2
 2.255330585167579E5     9.609118591784012E-1    2.745755672604304E-2    3.955804102961995E-2   -2.800695062870559E-2    3.961414236581040E-2   -2.803436822693539E-2    9.607667345568596E-1    2.742999872702656E-2
 2.272538447755223E5     9.610301602232710E-1    2.737610311665558E-2    3.945112114734260E-2   -2.790974268091937E-2    3.950778934313335E-2   -2.793728200128139E-2    9.608822914002833E-1    2.734093822989084E-2
 2.289877603970853E5     9.611244628569984E-1    2.727473505195395E-2    3.934990042760706E-2   -2.781205051213616E-2    3.940147720285823E-2   -2.783894016615417E-2    9.609659880291966E-1    2.724683700425606E-2
 2.307349055566813E5     9.612397182238888E-1    2.718649680584963E-2    3.924474136032465E-2   -2.771511166065183E-2    3.929396606500633E-2   -2.774593106982349E-2    9.610547895540595E-1    2.713043892846041E-2
 2.324953811938693E5     9.612966318448284E-1    2.707402200289821E-2    3.914097565341382E-2   -2.761564788348351E-2    3.919184308994093E-2   -2.764913396311037E-2    9.611735328513090E-1    2.704243243261033E-2
 2.342692890183618E5     9.613894576923036E-1    2.696746194591966E-2    3.903005284086448E-2   -2.752298554327821E-2    3.908199729790501E-2   -2.754926078139758E-2    9.612707481176741E-1    2.694082366781117E-2
 2.360567315159030E5     9.615359631802922E-1    2.687429360695248E-2    3.892602877791200E-2   -2.742575144773461E-2    3.898097082234904E-2   -2.745465741042501E-2    9.614018825412453E-1    2.683849773217266E-2
 2.378578119541888E5     9.616435481302007E-1    2.676385650741326E-2    3.882005716340793E-2   -2.733051813253835E-2    3.887309886577073E-2   -2.736136241134425E-2    9.614713716218436E-1    2.673701392585846E-2
 2.396726343888348E5     9.617277531013189E-1    2.665508587005557E-2    3.871911989579008E-2   -2.723434460372770E-2    3.877214505245115E-2   -2.726288061956372E-2    9.615816279068145E-1    2.664280151229274E-2
 2.415013036693852E5     9.618351589175838E-1    2.657545949395755E-2    3.861482345800202E-2   -2.713879432274137E-2    3.867112979236718E-2   -2.716928980465589E-2    9.617003971786957E-1    2.656515940379416E-2
 2.433439254453724E5     9.619272336006562E-1    2.648260809696982E-2    3.850846926418183E-2   -2.704295792187288E-2    3.856092143449311E-2   -2.707447956392506E-2    9.618146603907040E-1    2.645637748092601E-2
 2.452006061724201E5     9.620242217132063E-1    2.636561212086225E-2    3.840801483205321E-2   -2.694709560034085E-2    3.845637235316367E-2   -2.697851820497708E-2    9.619181699223224E-1    2.636051094350773E-2
 2.470714531183934E5     9.621561151174078E-1    2.628453914764625E-2    3.830686457620049E-2   -2.685722947961142E-2    3.835368265379977E-2   -2.688151706041174E-2    9.620188754847298E-1    2.626582308280842E-2
 2.489565743695979E5     9.622441963751879E-1    2.617281204315123E-2    3.819818062406535E-2   -2.675645346967371E-2    3.824503510608392E-2   -2.679121345050638E-2    9.621181658957182E-1    2.616127512100732E-2
 2.508560788370214E5     9.623517655546198E-1    2.606930855606821E-2    3.809730055748528E-2   -2.666713571633356E-2    3.814666422759060E-2   -2.669474918535070E-2    9.622274970956712E-1    2.608030070224288E-2
 2.527700762626280E5     9.624390672155717E-1    2.598238154863943E-2    3.799083036652049E-2   -2.656985516727388E-2    3.804211292891636E-2   -2.660074067826624E-2    9.623442790573984E-1    2.598133099136821E-2
 2.546986772256976E5     9.625444398089332E-1    2.587278031737254E-2    3.789064765039488E-2   -2.647621989568318E-2    3.793661665908957E-2   -2.650560358117359E-2    9.624374692562109E-1    2.587348158116017E-2
 2.566419931492161E5     9.626157569309081E-1    2.576925473751569E-2    3.778520986073745E-2   -2.637820160993337E-2    3.784096202908570E-2   -2.641202724833770E-2    9.625438127614154E-1    2.578247907042938E-2
 2.586001363063102E5     9.627189000640936E-1    2.566176399765698E-2    3.768579920326666E-2   -2.628644449157749E-2    3.773262430566748E-2   -2.631575253484076E-2    9.626305752782418E-1    2.568535204420247E-2
 2.605732198267354E5     9.627754606082028E-1    2.557933618988395E-2    3.758375558474509E-2   -2.619262049549927E-2    3.763055363972231E-2   -2.622502869734623E-2    9.627333949997132E-1    2.560042703287051E-2
 2.625613577034118E5     9.629168021952822E-1    2.548331075304292E-2    3.748471555772535E-2   -2.609570750070194E-2    3.753170338796418E-2   -2.612749497402939E-2    9.627964032584103E-1    2.548506957483108E-2
 2.645646647990093E5     9.630051813575828E-1    2.538614184265706E-2    3.738491881648749E-2   -2.600330979306419E-2    3.743166394849511E-2   -2.603737820492334E-2    9.629037317454149E-1    2.539640642468162E-2
 2.665832568525859E5     9.631036814034766E-1    2.529942941221284E-2    3.728303931508986E-2   -2.591291317237348E-2    3.732786083378289E-2   -2.594220563284748E-2    9.630184018832675E-1    2.528143820163235E-2
 2.686172504862709E5     9.631964572098810E-1    2.521534202102111E-2    3.718167717157417E-2   -2.582184021822068E-2    3.722790823132081E-2   -2.584831773625562E-2    9.631115366352483E-1    2.520172916939921E-2
 2.706667632120051E5     9.632610152900706E-1    2.509856306156994E-2    3.707626150322273E-2   -2.572264732373019E-2    3.712577977057960E-2   -2.575689538035391E-2    9.632274689145568E-1    2.510692344397146E-2
 2.727319134383292E5     9.633715095358890E-1    2.500662088073342E-2    3.698128916555141E-2   -2.562756144760710E-2    3.702860927855512E-2   -2.566080671969238E-2    9.633733664394218E-1    2.502486702196991E-2
 2.748128204772244E5     9.634771108145067E-1    2.491505058922882E-2    3.688004845693869E-2   -2.553581745745049E-2    3.692743082679129E-2   -2.557246197166745E-2    9.634241737846119E-1    2.491331030402780E-2
 2.769096045510074E5     9.636183094201122E-1    2.483910640520023E-2    3.678289295982699E-2   -2.543992502682161E-2    3.682269784870537E-2   -2.547498593555144E-2    9.635094218514928E-1    2.481849693696924E-2
 2.790223867992730E5     9.637383121629630E-1    2.474281986660067E-2    3.668419093593925E-2   -2.535202335968222E-2    3.672939542790003E-2   -2.538858831179270E-2    9.636139225303730E-1    2.472587732398184E-2
 2.811512892858952E5     9.638417729466093E-1    2.465169203221806E-2    3.658792041303714E-2   -2.526128348521999E-2    3.662515209619240E-2   -2.529354631286578E-2    9.637009763806955E-1    2.463473586998074E-2
 2.832964350060779E5     9.639078345962195E-1    2.453981390846098E-2    3.648436009067443E-2   -2.516641294645523E-2    3.652766128777542E-2   -2.519757846606965E-2    9.637683126219601E-1    2.453635180099148E-2
 2.854579478934632E5     9.639773435046500E-1    2.444322020970629E-2    3.638920105826135E-2   -2.507567677303864E-2    3.643155866876815E-2   -2.510647313108974E-2    9.638612005953456E-1    2.442955201793731E-2
 2.876359528272883E5     9.641078482988493E-1    2.434341432402642E-2    3.629311545412954E-2   -2.498776325959107E-2    3.633226348262592E-2   -2.501263555177732E-2    9.639780236856699E-1    2.433307964300211E-2
 2.898305756396023E5     9.641984595272818E-1    2.424768388359429E-2    3.619583834372792E-2   -2.489328098084428E-2    3.623522447286220E-2   -2.492548287538511E-2    9.641078978394130E-1    2.424753289020756E-2
 2.920419431225354E5     9.642839816988715E-1    2.416514783806859E-2    3.610466064362389E-2   -2.480130977182195E-2    3.613803192634805E-2   -2.483249315853727E-2    9.642007378012274E-1    2.415402532207219E-2
 2.942701830356239E5     9.643908160459085E-1    2.406233472006538E-2    3.600538407881827E-2   -2.471471010945295E-2    3.604423380729527E-2   -2.474279628742975E-2    9.643194625350348E-1    2.406183110799932E-2
 2.965154241131938E5     9.644700931286317E-1    2.395584926607385E-2    3.590989173413972E-2   -2.461940840783363E-2    3.594658928434433E-2   -2.465110029899475E-2    9.644085415947731E-1    2.396704781598720E-2
 2.987777960717941E5     9.645645770865765E-1    2.387160188688165E-2    3.581508102816412E-2   -2.452922899468650E-2    3.585272553378033E-2   -2.455926604384676E-2    9.644878913934516E-1    2.387261278804672E-2
 3.010574296176943E5     9.647024469742890E-1    2.378378505897854E-2    3.572356447551080E-2   -2.444156848179622E-2    3.575647846072329E-2   -2.446784392723967E-2    9.645810306979725E-1    2.379465420628843E-2
 3.033544564544337E5     9.647430108377884E-1    2.368488361730279E-2    3.562383592082140E-2   -2.434914399630235E-2    3.566239982611726E-2   -2.437973059011764E-2    9.647071858593139E-1    2.368479537496824E-2
 3.056690092904338E5     9.648810544001832E-1    2.359944387300145E-2    3.552988652825410E-2   -2.425847671329526E-2    3.556786468605668E-2   -2.428905014614097E-2    9.648070569946359E-1    2.360687546270173E-2
 3.080012218466610E5     9.649704184442238E-1    2.350910844839637E-2    3.544058168502812E-2   -2.417390811236667E-2    3.547349817497290E-2   -2.420093286193257E-2    9.648312039206296E-1    2.349862891810485E-2
 3.103512288643551E5     9.650293230056529E-1    2.340546602207992E-2    3.534497776222730E-2   -2.407820577970326E-2    3.538033319979934E-2   -2.411085506703514E-2    9.649782080366265E-1    2.340036856891358E-2
 3.127191661128128E5     9.651373785025608E-1    2.331938220622745E-2    3.525374982945544E-2   -2.399459323028750E-2    3.528934573492122E-2   -2.401884082926875E-2    9.650536926614237E-1    2.331112709424525E-2
 3.151051703972316E5     9.652259151872822E-1    2.324336743467990E-2    3.516281920119814E-2   -2.390149760147950E-2    3.519492959117992E-2   -2.392885326972851E-2    9.651247371754489E-1    2.323373926542655E-2
 3.175093795666154E5     9.652712933378964E-1    2.312766763803216E-2    3.506912433881554E-2   -2.381495662494945E-2    3.510125121485708E-2   -2.384226809646390E-2    9.652272359657188E-1    2.312907050422123E-2
 3.199319325217355E5     9.653579305536665E-1    2.303709350247636E-2    3.497404215335211E-2   -2.372619694922570E-2    3.501028630315644E-2   -2.375410805550518E-2    9.653149821105842E-1    2.304001278549924E-2
 3.223729692231574E5     9.654583828560580E-1    2.294392712119576E-2    3.488355405271870E-2   -2.363605278539492E-2    3.491547821039093E-2   -2.366472712726552E-2    9.653863062726840E-1    2.293682100199756E-2
 3.248326306993267E5     9.655445665833335E-1    2.283978670780586E-2    3.479611118776375E-2   -2.354896841186304E-2    3.482515613409529E-2   -2.357852125128081E-2    9.654941580018702E-1    2.285431767053402E-2
 3.273110590547157E5     9.656612501945901E-1    2.275104664152348E-2    3.470621374041133E-2   -2.346572849631256E-2    3.473333556886084E-2   -2.349337731929845E-2    9.655664821439529E-1    2.275879595371964E-2
 3.298083974780366E5     9.657794165668248E-1    2.266358733091447E-2    3.461215568314907E-2   -2.338025464451822E-2    3.464585898559203E-2   -2.340305939566491E-2    9.656589649367016E-1    2.267019773096512E-2
 3.323247902505097E5     9.658487805973233E-1    2.257086063436615E-2    3.452449608228580E-2   -2.328745172009875E-2    3.455681021013846E-2   -2.331553218192199E-2    9.657688702202732E-1    2.258754007743174E-2
 3.348603827542018E5     9.659086179114584E-1    2.249444639510719E-2    3.443645712498202E-2   -2.320271591399038E-2    3.446644199589606E-2   -2.323024948998532E-2    9.658677440153852E-1    2.249325528792273E-2
 3.374153214804250E5     9.660136303733308E-1    2.240880517041056E-2    3.434527625306515E-2   -2.311751665651563E-2    3.437396950832442E-2   -2.314244513770850E-2    9.659277683749946E-1    2.239908812374397E-2
 3.399897540381991E5     9.661293881320138E-1    2.230715218015502E-2    3.425955613393524E-2   -2.303158804204092E-2    3.428824253495088E-2   -2.305868111347514E-2    9.660265302432716E-1    2.230993599113908E-2
 3.425838291627830E5     9.662296827037403E-1    2.222328342331759E-2    3.416750355339863E-2   -2.294690737644584E-2    3.419772501805954E-2   -2.296973482174026E-2    9.661180044995697E-1    2.221296908133208E-2
 3.451976967242625E5     9.662591947014767E-1    2.213199079413736E-2    3.407846929875771E-2   -2.285936531357826E-2    3.411060430235355E-2   -2.288753471552326E-2    9.661932831558325E-1    2.213432146565452E-2
 3.478315077362126E5     9.663932635982339E-1    2.204204588855316E-2    3.399295164945439E-2   -2.278025676550488E-2    3.402205974940450E-2   -2.280054365538306E-2    9.662712963763868E-1    2.204545804036965E-2
 3.504854143644205E5     9.664801797603726E-1    2.195611965298382E-2    3.390260794997359E-2   -2.269154957107483E-2    3.393264726627136E-2   -2.271452322733278E-2    9.664073538355573E-1    2.195191723251266E-2
 3.531595699356794E5     9.665598278129902E-1    2.186316790642926E-2    3.381888304554460E-2   -2.260839323719843E-2    3.384964651578281E-2   -2.263079745534131E-2    9.664964626302968E-1    2.187068174096293E-2
 3.558541289466428E5     9.666496602736213E-1    2.176906908230078E-2    3.373184096636776E-2   -2.252633985632283E-2    3.375774445262616E-2   -2.255077617518231E-2    9.665506462846924E-1    2.177046297420648E-2
 3.585692470727532E5     9.667266181859683E-1    2.168358198995509E-2    3.364643929465196E-2   -2.244380880707442E-2    3.367312540180476E-2   -2.246169996696704E-2    9.666235319650371E-1    2.168552385226680E-2
 3.613050811772345E5     9.668378452521638E-1    2.159540823180247E-2    3.355764977133755E-2   -2.236411108605528E-2    3.358565353009423E-2   -2.237617205201597E-2    9.667197144880086E-1    2.159037953371974E-2
 3.640617893201578E5     9.669015200364751E-1    2.150691249507419E-2    3.347200913202410E-2   -2.227477236113735E-2    3.349882700339430E-2   -2.229462247853987E-2    9.667839617443338E-1    2.150274747694808E-2
 3.668395307675686E5     9.669867541889031E-1    2.141795311395120E-2    3.338887976488299E-2   -2.219348517387444E-2    3.341564390926608E-2   -2.221169676036575E-2    9.668461412320438E-1    2.140868150463754E-2
 3.696384660006910E5     9.670753901956182E-1    2.133337125551057E-2    3.330201887032215E-2   -2.211119495720427E-2    3.332909661372304E-2   -2.212868736423304E-2    9.669630154683730E-1    2.132726610856705E-2
 3.724587567251991E5     9.671528773693853E-1    2.123799527914911E-2    3.321531922599083E-2   -2.202956125507074E-2    3.324373170769895E-2   -2.205005552756498E-2    9.670054417788002E-1    2.123850203288158E-2
 3.753005658805580E5     9.672607176782155E-1    2.115530904263616E-2    3.313110584092017E-2   -2.194750826649111E-2    3.316118202817743E-2   -2.196757594270483E-2    9.671029010610226E-1    2.116728637695813E-2
 3.781640576494411E5     9.673607752622312E-1    2.107508113957697E-2    3.305038744830623E-2   -2.187404807977633E-2    3.307448027879683E-2   -2.188177184303624E-2    9.672079707482552E-1    2.106331522120696E-2
 3.810493974672107E5     9.674762683834240E-1    2.099494928420965E-2    3.296193300220207E-2   -2.178807673593464E-2    3.299022222563919E-2   -2.180189002930598E-2    9.672962007822302E-1    2.099381137262270E-2
 3.839567520314787E5     9.675454027475550E-1    2.089676661335320E-2    3.287557388375396E-2   -2.170581848634100E-2    3.290678561271720E-2   -2.172290518631134E-2    9.673608654424439E-1    2.090119135201328E-2
 3.868862893117373E5     9.675829956913984E-1    2.081052695205990E-2    3.279083173887253E-2   -2.162892199669003E-2    3.282252467723007E-2   -2.164127936951586E-2    9.674899167701906E-1    2.081526744229319E-2
 3.898381785590618E5     9.676733888246057E-1    2.073286586573047E-2    3.271100291338715E-2   -2.154732971357385E-2    3.273976711685527E-2   -2.156051667226468E-2    9.675463753317213E-1    2.072600774854357E-2
 3.928125903158922E5     9.677492124563762E-1    2.063962339784193E-2    3.262583718569741E-2   -2.146871609019075E-2    3.265383412617276E-2   -2.148382017427616E-2    9.676021045683293E-1    2.063631206465103E-2
 3.958096964258819E5     9.678248234749042E-1    2.055761183740504E-2    3.254214988095580E-2   -2.138787826634959E-2    3.257106336371800E-2   -2.140171330388423E-2    9.677100688655432E-1    2.055688003447577E-2
 3.988296700438284E5     9.679374890006580E-1    2.046514809336936E-2    3.246292173253845E-2   -2.131174735716532E-2    3.249161188345911E-2   -2.132575578439855E-2    9.677718155989466E-1    2.046253020215654E-2
 4.018726856456762E5     9.680163020824488E-1    2.038886286726400E-2    3.237731651027412E-2   -2.123421098293789E-2    3.240936376281264E-2   -2.124599789261470E-2    9.678728010978852E-1    2.038477929039309E-2
 4.049389190385970E5     9.680669516450451E-1    2.031311517738980E-2    3.229445365612951E-2   -2.115424739581372E-2    3.232676048494659E-2   -2.116691587730348E-2    9.679593876941561E-1    2.030395836446586E-2
 4.080285473711492E5     9.681523457441914E-1    2.021638726950797E-2    3.220735222093198E-2   -2.107541036731340E-2    3.224199566077659E-2   -2.109048224340535E-2    9.680709809142315E-1    2.021302664159051E-2
 4.111417491435081E5     9.682419180534144E-1    2.014367848911363E-2    3.212742062800881E-2   -2.099347826264801E-2    3.215993328794366E-2   -2.100955261131673E-2    9.681285286760930E-1    2.014296434296564E-2
 4.142787042177814E5     9.683385854579911E-1    2.004676403452001E-2    3.204830964930129E-2   -2.092100591215605E-2    3.207556344783993E-2   -2.093478510123545E-2    9.682159514769461E-1    2.005089598891173E-2
 4.174395938283992E5     9.684451882557177E-1    1.997058403808490E-2    3.196379143156725E-2   -2.084370319475972E-2    3.199724435314796E-2   -2.085751805951838E-2    9.683037954541087E-1    1.995717963112312E-2
 4.206246005925882E5     9.684858673571147E-1    1.987786551423619E-2    3.188290865408827E-2   -2.076533676188808E-2    3.191875540565236E-2   -2.077793548188096E-2    9.683948103235361E-1    1.988881832670037E-2
 4.238339085209167E5     9.685792474124655E-1    1.979246721379163E-2    3.179723975666066E-2   -2.068995163582350E-2    3.183260672070966E-2   -2.070212977561195E-2    9.684621276725198E-1    1.981053732850758E-2
 4.270677030279291E5     9.686418466821201E-1    1.971729199119944E-2    3.172079267514009E-2   -2.061357723424632E-2    3.175235998159253E-2   -2.062400597557559E-2    9.685264896984034E-1    1.972253403427180E-2
 4.303261709428567E5     9.687405095375644E-1    1.963116169049708E-2    3.163809531044091E-2   -2.053807295227077E-2    3.167356246579778E-2   -2.054875034074232E-2    9.685916164815748E-1    1.963501590415007E-2
 4.336095005204146E5     9.688628997150426E-1    1.954221214131552E-2    3.156025012412556E-2   -2.046243754800408E-2    3.159173588189686E-2   -2.047422937045969E-2    9.687179172505058E-1    1.955444435870161E-2
 4.369178814516730E5     9.689169295260224E-1    1.945913478103181E-2    3.147465130798355E-2   -2.038406349570330E-2    3.151494546253886E-2   -2.039677161587484E-2    9.688083757536129E-1    1.947088387750025E-2
 4.402515048750198E5     9.689908974495637E-1    1.938079131886179E-2    3.139457042971178E-2   -2.030785083214855E-2    3.143440094184698E-2   -2.031973493119997E-2    9.689046754282821E-1    1.938605663986974E-2
 4.436105633872023E5     9.690631979561732E-1    1.929603407664963E-2    3.131647986721916E-2   -2.023185920307475E-2    3.135227724422682E-2   -2.024641055574737E-2    9.690136094601176E-1    1.930317925734971E-2
 4.469952510544541E5     9.691249690288060E-1    1.920841079946245E-2    3.123185375529236E-2   -2.015648731481412E-2    3.127054722076026E-2   -2.016883660276646E-2    9.690963117406556E-1    1.923333048126352E-2
 4.504057634237097E5     9.691890037907031E-1    1.913057404851803E-2    3.115377962375460E-2   -2.007844406079666E-2    3.118984619842878E-2   -2.009387924940037E-2    9.691605058417070E-1    1.915071950766991E-2
 4.538422975338975E5     9.692291772122191E-1    1.905253215244681E-2    3.107011833084238E-2   -2.000557315537738E-2    3.111310598110014E-2   -2.001634600293260E-2    9.692412972771870E-1    1.906065508531017E-2
 4.573050519273265E5     9.692965034099870E-1    1.896126535464181E-2    3.099072401292769E-2   -1.993029828044218E-2    3.103227310870301E-2   -1.994545079687950E-2    9.693153474176150E-1    1.898997397181441E-2
 4.607942266611566E5     9.694210840199708E-1    1.889191747212235E-2    3.091357102272834E-2   -1.985463894465346E-2    3.095225964504513E-2   -1.987035425080712E-2    9.693484944039548E-1    1.889549422444399E-2
 4.643100233189550E5     9.695267835986893E-1    1.881721013327876E-2    3.083753193914388E-2   -1.977832353121241E-2    3.087315707519915E-2   -1.979547513242595E-2    9.694309171368698E-1    1.881968125296227E-2
 4.678526450223470E5     9.696127545729872E-1    1.872871600917514E-2    3.075818828400649E-2   -1.970708499327705E-2    3.079325651056489E-2   -1.972043609288816E-2    9.695093132810086E-1    1.874395267488827E-2
 4.714222964427450E5     9.696544653775236E-1    1.863636277105752E-2    3.067521373156327E-2   -1.962983236311497E-2    3.071521811451735E-2   -1.964266357316942E-2    9.695936342316689E-1    1.865783852051948E-2
 4.750191838131770E5     9.697536390886360E-1    1.856032871683761E-2    3.059872140364431E-2   -1.955597132950347E-2    3.063836286566811E-2   -1.956966351027422E-2    9.696432349214703E-1    1.857859604030537E-2
 4.786435149402010E5     9.698297047233295E-1    1.848013121105499E-2    3.052116197100613E-2   -1.948138561609387E-2    3.055919317174116E-2   -1.949805671091897E-2    9.697515849835291E-1    1.849065329804960E-2
 4.822954992159092E5     9.698942388300191E-1    1.839575210035155E-2    3.044002899077644E-2   -1.940547032906724E-2    3.048046850084619E-2   -1.942198539820806E-2    9.698069247464398E-1    1.840834869909223E-2
 4.859753476300298E5     9.699810326671396E-1    1.829715776322794E-2    3.036437248541406E-2   -1.933245910236786E-2    3.040460154392322E-2   -1.935082227980345E-2    9.698940925847508E-1    1.832109955696475E-2
 4.896832727821107E5     9.700653620392229E-1    1.823824108780957E-2    3.028648115465450E-2   -1.925736235359433E-2    3.032762076195932E-2   -1.927458394771525E-2    9.699500022191863E-1    1.823280076838831E-2
 4.934194888938060E5     9.701229586175660E-1    1.816022246199083E-2    3.020653460038876E-2   -1.918426020401232E-2    3.024894046897157E-2   -1.920261806264267E-2    9.700608382382693E-1    1.815915054604057E-2
 4.971842118212518E5     9.701811341735243E-1    1.807695998464764E-2    3.013332250860134E-2   -1.911111436490991E-2    3.017564194391690E-2   -1.913254639925390E-2    9.701703876311444E-1    1.809562801197039E-2
 5.009776590675358E5     9.702589560498617E-1    1.798470127796179E-2    3.005437637766252E-2   -1.904077712150469E-2    3.009592561959084E-2   -1.905471452554653E-2    9.701778733481101E-1    1.799517454877899E-2
 5.048000497952673E5     9.703581283151168E-1    1.789718442679132E-2    2.997974654969198E-2   -1.896573616362786E-2    3.001905599398883E-2   -1.898274351744550E-2    9.702811490278846E-1    1.792046470845481E-2
 5.086516048392332E5     9.704525987048851E-1    1.782221606964460E-2    2.990617133942957E-2   -1.888968761659448E-2    2.994282419988680E-2   -1.890704814404786E-2    9.703823458908059E-1    1.783980780664931E-2
 5.125325467191607E5     9.705035524170815E-1    1.774751923785799E-2    2.983190820082765E-2   -1.881900620900457E-2    2.986914419941137E-2   -1.883570414648567E-2    9.704172107942239E-1    1.776243231880966E-2
 5.164430996525706E5     9.705504519154460E-1    1.766311093076553E-2    2.975394774927459E-2   -1.874341392177210E-2    2.979421185842905E-2   -1.876397809096578E-2    9.705226557419527E-1    1.768531677968517E-2
 5.203834895677360E5     9.706935034983252E-1    1.757218147885879E-2    2.968504603578433E-2   -1.867511668054206E-2    2.971869383576074E-2   -1.869125828971522E-2    9.705714139901508E-1    1.760830285067110E-2
 5.243539441167285E5     9.707861983768499E-1    1.749773136867977E-2    2.960589980658387E-2   -1.860074234633003E-2    2.964205743681176E-2   -1.861644170240090E-2    9.706537105485460E-1    1.751404414789694E-2
 5.283546926885745E5     9.708510285663918E-1    1.740888636544552E-2    2.952895724515209E-2   -1.852697024245830E-2    2.956795320636751E-2   -1.854250932001896E-2    9.706992409259716E-1    1.744794664614062E-2
 5.323859664225065E5     9.709160838247496E-1    1.732192412157425E-2    2.945900392995548E-2   -1.845313388332570E-2    2.949386258514313E-2   -1.847087091484038E-2    9.707582120706333E-1    1.736128625878991E-2
 5.364479982213206E5     9.709584045837425E-1    1.724762496523532E-2    2.938355207235135E-2   -1.837886595056647E-2    2.941867152875273E-2   -1.839847996680116E-2    9.708253039927898E-1    1.728566170107498E-2
 5.405410227648258E5     9.710696944646702E-1    1.715854834891307E-2    2.931072389245435E-2   -1.830885476289393E-2    2.935064900881784E-2   -1.832907570385867E-2    9.709358144149171E-1    1.720571289207175E-2
 5.446652765234077E5     9.711083350727171E-1    1.708540548177946E-2    2.924009996837276E-2   -1.823423839744066E-2    2.927319004319341E-2   -1.825778438190835E-2    9.710578369077090E-1    1.712535401274739E-2
 5.488209977716873E5     9.711869089048334E-1    1.700258031018462E-2    2.917013225520910E-2   -1.816521248001289E-2    2.920302604078512E-2   -1.818551189510222E-2    9.711323605368535E-1    1.704286284708957E-2
 5.530084266022880E5     9.712193763453091E-1    1.692944436659728E-2    2.909413121445559E-2   -1.809135874431227E-2    2.913228148404118E-2   -1.811474335852852E-2    9.711984145181978E-1    1.696989096405033E-2
 5.572278049397101E5     9.713312120866366E-1    1.684804481756395E-2    2.902404151826772E-2   -1.802117658602688E-2    2.905763247069304E-2   -1.804243319515013E-2    9.712834204711492E-1    1.687821047008928E-2
 5.614793765543010E5     9.713774165228198E-1    1.676677414349153E-2    2.894843125233812E-2   -1.794993726152470E-2    2.899075374484948E-2   -1.797280457279168E-2    9.713306955264031E-1    1.680254271776594E-2
 5.657633870763436E5     9.714687986922497E-1    1.667789668597521E-2    2.888323487195309E-2   -1.787911514379208E-2    2.891701678378784E-2   -1.790157490291547E-2    9.714035053620860E-1    1.671289213841820E-2
 5.700800840102463E5     9.715573364508946E-1    1.661057850464828E-2    2.881082757348542E-2   -1.780725751903818E-2    2.884276619796946E-2   -1.783076587850916E-2    9.714538462060210E-1    1.665236736791622E-2
 5.744297167488408E5     9.715924444031161E-1    1.654190766954317E-2    2.874051390800820E-2   -1.773685814696432E-2    2.877614572642131E-2   -1.776201844497646E-2    9.714996283526879E-1    1.657721437228434E-2
 5.788125365877954E5     9.716622380669259E-1    1.646178400163848E-2    2.867127099828706E-2   -1.766734351178558E-2    2.870549659706683E-2   -1.768898809576687E-2    9.715735786978134E-1    1.650738767021928E-2
 5.832287967401261E5     9.717044032919685E-1    1.638392791962148E-2    2.859918890949399E-2   -1.759411312089407E-2    2.863438865871350E-2   -1.762102485852500E-2    9.716251916901023E-1    1.643165416792170E-2
 5.876787523508312E5     9.717490256173207E-1    1.629918391685168E-2    2.852850066868102E-2   -1.752945489327392E-2    2.856579344247038E-2   -1.755149307692406E-2    9.716989829174837E-1    1.634573744652372E-2
 5.921626605116295E5     9.718899168900734E-1    1.620884670933924E-2    2.846226068958015E-2   -1.746068643041127E-2    2.849441149714934E-2   -1.748193722212744E-2    9.717336546497469E-1    1.626746993678567E-2
 5.966807802758140E5     9.719814062319143E-1    1.613404154659133E-2    2.839702127308378E-2   -1.738914603459351E-2    2.842802841425552E-2   -1.741351683853352E-2    9.718122883247508E-1    1.619798423322686E-2
 6.012333726732214E5     9.720490838480697E-1    1.605212193443103E-2    2.833029963502436E-2   -1.732232104078507E-2    2.836086533394079E-2   -1.734471258307081E-2    9.718488247240676E-1    1.611468848439280E-2
 6.058207007253073E5     9.720608473638537E-1    1.598644669153088E-2    2.825807324954179E-2   -1.725017176538773E-2    2.829286007700327E-2   -1.727866513438161E-2    9.719122864214187E-1    1.603769744048543E-2
 6.104430294603459E5     9.721305221771855E-1    1.589276705917613E-2    2.819034173439599E-2   -1.718629428126486E-2    2.822481673546710E-2   -1.721114984415477E-2    9.719841665760327E-1    1.595568869476573E-2
 6.151006259287392E5     9.722080299101952E-1    1.584624030746780E-2    2.812270381273469E-2   -1.711818754272163E-2    2.815634011934623E-2   -1.714213427221952E-2    9.720785903702622E-1    1.589220254111780E-2
 6.197937592184512E5     9.722627297074731E-1    1.577584198953316E-2    2.806142074796116E-2   -1.705045862297335E-2    2.808905542584521E-2   -1.707547428233738E-2    9.721270978940882E-1    1.579797055860085E-2
 6.245227004705463E5     9.723113352684223E-1    1.569456840253104E-2    2.799271882872348E-2   -1.698378094819566E-2    2.802237308197788E-2   -1.700643780339951E-2    9.722231430987910E-1    1.571975902144648E-2
 6.292877228948588E5     9.724183234191246E-1    1.560616804359502E-2    2.792607055334430E-2   -1.691736864309887E-2    2.795608261962682E-2   -1.694035188475327E-2    9.722501349082046E-1    1.564861231375711E-2
 6.340891017857760E5     9.724358670349275E-1    1.552517732232108E-2    2.786199952194504E-2   -1.685467953051601E-2    2.789119521635020E-2   -1.687394591620599E-2    9.723158217165050E-1    1.558457279935835E-2
 6.389271145381465E5     9.724940921056139E-1    1.546303875401897E-2    2.779386039887398E-2   -1.678739769267163E-2    2.782451517029471E-2   -1.680951192133538E-2    9.724286611587537E-1    1.550814020085913E-2
 6.438020406633007E5     9.725313445060112E-1    1.539511789896724E-2    2.773015372914616E-2   -1.671706477919925E-2    2.775795658673571E-2   -1.674285487256755E-2    9.724597254607358E-1    1.544139953487759E-2
 6.487141618052023E5     9.726287778970314E-1    1.530963378919681E-2    2.766317542501652E-2   -1.665331456717112E-2    2.769182639858035E-2   -1.667293863452869E-2    9.725334641913468E-1    1.535308064945856E-2
 6.536637617567203E5     9.726754944231385E-1    1.523842657718670E-2    2.759877535076934E-2   -1.658960330114483E-2    2.762672283188148E-2   -1.661323565375805E-2    9.726487819476306E-1    1.527502252947304E-2
 6.586511264760230E5     9.727438212412090E-1    1.518798693762695E-2    2.753171399061148E-2   -1.652607222215736E-2    2.756122362224609E-2   -1.654709846496083E-2    9.726864300095946E-1    1.520992561903587E-2
 6.636765441031042E5     9.727805762845813E-1    1.509752514783603E-2    2.746806351703975E-2   -1.645913543040712E-2    2.749777958815075E-2   -1.648704209279564E-2    9.728218473642780E-1    1.511010631498073E-2
 6.687403049764220E5     9.728492247248971E-1    1.501018567021367E-2    2.740243476003236E-2   -1.639882221572988E-2    2.743464304261006E-2   -1.642012513315303E-2    9.728308703802083E-1    1.504058140354216E-2
 6.738427016496789E5     9.729010038296245E-1    1.495922768082214E-2    2.733712013087374E-2   -1.633123001928205E-2    2.736833171749371E-2   -1.635543646927334E-2    9.728860622924729E-1    1.497684355319101E-2
 6.789840289087215E5     9.729772290281015E-1    1.488031001843899E-2    2.727431316696004E-2   -1.626722284881629E-2    2.730243895731100E-2   -1.629500226038484E-2    9.729432350788886E-1    1.491116413832600E-2
 6.841645837885707E5     9.730679895342099E-1    1.481782632505928E-2    2.721068758824244E-2   -1.620359267519720E-2    2.723822431971087E-2   -1.622920862483175E-2    9.730303739458064E-1    1.483374526777181E-2
 6.893846655905881E5     9.731400867731040E-1    1.471701600413732E-2    2.714202959808893E-2   -1.613990302971122E-2    2.717224160162302E-2   -1.616771988593835E-2    9.730711906098503E-1    1.476623540477476E-2
 6.946445758997592E5     9.731690043270880E-1    1.466034507732377E-2    2.708085242551805E-2   -1.607999309612065E-2    2.710700613028967E-2   -1.610469388258519E-2    9.731531763090726E-1    1.467689383989273E-2
 6.999446186021230E5     9.732249326128186E-1    1.459519615163527E-2    2.701528709613205E-2   -1.601655792260678E-2    2.704556375989065E-2   -1.604308696348667E-2    9.732407745822050E-1    1.459961471053266E-2
 7.052850999023273E5     9.733230180901606E-1    1.448792962164404E-2    2.695497675285638E-2   -1.595619168442089E-2    2.698086552467859E-2   -1.598026109891980E-2    9.732958914797681E-1    1.453705072657922E-2
 7.106663283413178E5     9.733891439353120E-1    1.443698567700887E-2    2.688577068577202E-2   -1.589249475316841E-2    2.691818322136718E-2   -1.591818375820981E-2    9.733730549406131E-1    1.446747899253049E-2
 7.160886148141696E5     9.734550346164363E-1    1.436023305206845E-2    2.682118164765443E-2   -1.583193834120530E-2    2.685379810650548E-2   -1.585599210165044E-2    9.734114386474135E-1    1.438770393444156E-2
 7.215522725880400E5     9.735110550412998E-1    1.429141250297034E-2    2.675917918474057E-2   -1.577264753877444E-2    2.678952421080828E-2   -1.579243144283607E-2    9.734233803452534E-1    1.433745108058120E-2
 7.270576173202734E5     9.735950038720803E-1    1.421604052222398E-2    2.669535037274728E-2   -1.570938198269249E-2    2.672296421242561E-2   -1.573401042378474E-2    9.734792292221315E-1    1.427599683125462E-2
 7.326049670766364E5     9.736392303681644E-1    1.414558617759582E-2    2.663168877366514E-2   -1.564825734938588E-2    2.665850149009719E-2   -1.567470816116733E-2    9.736093063946865E-1    1.417143250105115E-2
 7.381946423496918E5     9.736852238946356E-1    1.408001335108148E-2    2.656742645082557E-2   -1.559041009919644E-2    2.659477662563975E-2   -1.561043364005266E-2    9.736661351390804E-1    1.412595446518260E-2
 7.438269660773217E5     9.737406315699544E-1    1.402892503215999E-2    2.650282688939505E-2   -1.552308255921262E-2    2.653262392046665E-2   -1.554901245089209E-2    9.737053358204498E-1    1.403646609977159E-2
 7.495022636613748E5     9.738085333452928E-1    1.394584268929770E-2    2.644352149218040E-2   -1.546848837361074E-2    2.646784133478433E-2   -1.548789393747106E-2    9.737730481209007E-1    1.395773845087417E-2
 7.552208629864733E5     9.738807397189326E-1    1.386501475673010E-2    2.637538594226270E-2   -1.540335414330475E-2    2.640362098177397E-2   -1.542744823226417E-2    9.738629052841548E-1    1.385942569429865E-2
 7.609830944389519E5     9.739367358785833E-1    1.377464497546070E-2    2.631639720832392E-2   -1.534613354154122E-2    2.633894079898204E-2   -1.536807529486442E-2    9.738919311543672E-1    1.381814115625809E-2
 7.667892909259528E5     9.740622601955270E-1    1.368623137802607E-2    2.624936195280983E-2   -1.528268098754143E-2    2.627592037648083E-2   -1.531292072607376E-2    9.739736729625266E-1    1.372600314651960E-2
 7.726397878946491E5     9.740770152004273E-1    1.362844454541903E-2    2.618331809279418E-2   -1.522141720644589E-2    2.621357060435589E-2   -1.524777149255780E-2    9.740176517964398E-1    1.367727957537604E-2
 7.785349233516312E5     9.741427964048415E-1    1.357509020725851E-2    2.612327269423109E-2   -1.516238017683950E-2    2.614816605928630E-2   -1.518527251326707E-2    9.740683043919960E-1    1.361669108763749E-2
 7.844750378824320E5     9.742022459199947E-1    1.349015764671498E-2    2.606001090281282E-2   -1.510085259704909E-2    2.608770152063126E-2   -1.512554260118295E-2    9.741250108724857E-1    1.354367907285593E-2
 7.904604746712097E5     9.742550030299426E-1    1.343482720808081E-2    2.599816839184830E-2   -1.504143671757638E-2    2.602560992222280E-2   -1.506954746039951E-2    9.741968323014766E-1    1.347158100050046E-2
 7.964915795205662E5     9.743401409108756E-1    1.334823656867640E-2    2.593793990090745E-2   -1.498115600089692E-2    2.596151826108089E-2   -1.500686379011610E-2    9.742784408644684E-1    1.339199471367788E-2
 8.025687008715309E5     9.744019657827481E-1    1.329344612317219E-2    2.587129767111701E-2   -1.492027119243027E-2    2.590065040824509E-2   -1.494717064599375E-2    9.743208290340282E-1    1.332548820501848E-2
 8.086921898236905E5     9.744768078811487E-1    1.320998956103447E-2    2.581230756208542E-2   -1.486229944555167E-2    2.583667004139161E-2   -1.488403545643943E-2    9.743765080317925E-1    1.326949217350638E-2
 8.148624001554718E5     9.745386419006032E-1    1.313889830414028E-2    2.574955915918257E-2   -1.480059470955919E-2    2.577351794178404E-2   -1.482451616110892E-2    9.743990107772544E-1    1.320063633502803E-2
 8.210796883445872E5     9.745843843068458E-1    1.305688883599316E-2    2.568876978538246E-2   -1.473938819396275E-2    2.570874967480683E-2   -1.476259501459437E-2    9.744847978600271E-1    1.311568551926537E-2
 8.273444135886204E5     9.746374763528007E-1    1.299128438854994E-2    2.562394257084330E-2   -1.468040186115980E-2    2.565020356588358E-2   -1.470380139432687E-2    9.745577785811048E-1    1.303248218997079E-2
 8.336569378257846E5     9.746802020276754E-1    1.292976530800400E-2    2.556158630912606E-2   -1.461884290456485E-2    2.558895908835957E-2   -1.464318812506315E-2    9.746315007424677E-1    1.296574509790590E-2
 8.400176257558319E5     9.747552402487838E-1    1.283315008762903E-2    2.550784829728116E-2   -1.455741338358850E-2    2.552809027576804E-2   -1.458212988290549E-2    9.746978930940828E-1    1.288510614644092E-2
 8.464268448611222E5     9.747879421222181E-1    1.279331212410968E-2    2.544120877403623E-2   -1.449904603212791E-2    2.546345487130768E-2   -1.452457269268108E-2    9.747039286683924E-1    1.281983202297461E-2
 8.528849654278599E5     9.748916119649761E-1    1.268883145535992E-2    2.538080159427192E-2   -1.443504695956433E-2    2.540489348714650E-2   -1.446143007985064E-2    9.747897923970075E-1    1.273818850481908E-2
 8.593923605674774E5     9.749682905324278E-1    1.259321831059407E-2    2.532133327379471E-2   -1.437875736107482E-2    2.534391989742132E-2   -1.440487826629064E-2    9.748307138860095E-1    1.268131393465978E-2
 8.659494062381978E5     9.750047946791647E-1    1.253079090370048E-2    2.526128755086856E-2   -1.431543446573845E-2    2.528113846656642E-2   -1.434493368475605E-2    9.749216658241562E-1    1.258052924553478E-2
 8.725564812667536E5     9.750633846551615E-1    1.242171790419348E-2    2.520257752877154E-2   -1.425795953755940E-2    2.522493063971188E-2   -1.428244686666771E-2    9.749371747941038E-1    1.255688905759365E-2
 8.792139673702718E5     9.751111393536968E-1    1.237990238440116E-2    2.514194658859381E-2   -1.419735158457204E-2    2.516412302175510E-2   -1.422337439626240E-2    9.750049085947442E-1    1.248027554817694E-2
 8.859222491783336E5     9.751790216486232E-1    1.232705809933483E-2    2.508477534462040E-2   -1.413324800276489E-2    2.510542344212889E-2   -1.416370335359135E-2    9.750860427116869E-1    1.241631990612157E-2
 8.926817142551860E5     9.752469734359880E-1    1.225875875572332E-2    2.502746157731622E-2   -1.407886560859629E-2    2.504713838947798E-2   -1.410306940757325E-2    9.751157604367237E-1    1.233926018483730E-2
 8.994927531221397E5     9.752754708346136E-1    1.217685807510073E-2    2.496598856042221E-2   -1.401658269908208E-2    2.498611104981325E-2   -1.404420597138198E-2    9.752104520494793E-1    1.226104374188310E-2
 9.063557592801275E5     9.753239105219103E-1    1.212191023972974E-2    2.490674750798679E-2   -1.395475822123953E-2    2.493077712019841E-2   -1.398502672818543E-2    9.752466829211788E-1    1.218883485210820E-2
 9.132711292324457E5     9.753874837206806E-1    1.205187020769004E-2    2.484996915733727E-2   -1.389972935630530E-2    2.487378717004057E-2   -1.392465394304752E-2    9.753174168094561E-1    1.210706644546764E-2
 9.202392625076511E5     9.754248253841676E-1    1.197140096873114E-2    2.479266345432186E-2   -1.383651736032282E-2    2.481535666792440E-2   -1.386707416955801E-2    9.753926794318993E-1    1.207460602613221E-2
 9.272605616826499E5     9.754861732581513E-1    1.186808836222070E-2    2.473854151310262E-2   -1.377875369867968E-2    2.476077588585468E-2   -1.380658528417521E-2    9.754237017078092E-1    1.198288947305116E-2
 9.343354324059531E5     9.755790172484634E-1    1.178204719329522E-2    2.467855912843703E-2   -1.371960587702678E-2    2.469955619460906E-2   -1.374973524880956E-2    9.754839262247763E-1    1.189654969226602E-2
 9.414642834211199E5     9.756289355093446E-1    1.173790088165764E-2    2.462500167929621E-2   -1.366341695899223E-2    2.464739679944168E-2   -1.369278086642631E-2    9.755235252086425E-1    1.183511228275631E-2
 9.486475265903610E5     9.756639217802840E-1    1.166053938837125E-2    2.456954555566422E-2   -1.360216426974819E-2    2.458589439138935E-2   -1.363212770345891E-2    9.755775346120288E-1    1.175436872950259E-2
 9.558855769183410E5     9.757358408934346E-1    1.158835859829892E-2    2.450906762512678E-2   -1.354599603563979E-2    2.452976507328401E-2   -1.356948967616406E-2    9.756289481860443E-1    1.169334298777076E-2
 9.631788525761530E5     9.757953749286191E-1    1.151502957315209E-2    2.445696032915978E-2   -1.348719986107451E-2    2.447433350334134E-2   -1.351539346505709E-2    9.756845313590971E-1    1.163928338907075E-2
 9.705277749254764E5     9.758505788097392E-1    1.144258176314820E-2    2.439615024599872E-2   -1.342913888199083E-2    2.441920414356666E-2   -1.345697668171397E-2    9.757436836659700E-1    1.153569563653695E-2
 9.779327685429282E5     9.758615736855757E-1    1.137439284288590E-2    2.434639473088373E-2   -1.337324485746515E-2    2.436420942496329E-2   -1.339781919286984E-2    9.758124115147859E-1    1.150676788880599E-2
 9.853942612445805E5     9.759319804167963E-1    1.128213535637493E-2    2.429092441318470E-2   -1.331465227773468E-2    2.431245344239030E-2   -1.334415965246860E-2    9.758720333397374E-1    1.142014393574154E-2
 9.929126841106854E5     9.759978205021360E-1    1.122922930553387E-2    2.423574065571983E-2   -1.325618515703626E-2    2.425362064355589E-2   -1.328498521157130E-2    9.759251814706610E-1    1.133948782499619E-2
 1.000488471510578E6     9.760661434459600E-1    1.118597415989646E-2    2.418879823787501E-2   -1.320112461770971E-2    2.419943221895661E-2   -1.323057962412681E-2    9.759735371310285E-1    1.126550125877522E-2
 1.008122061127771E6     9.761141699505859E-1    1.107224698031220E-2    2.412687493332048E-2   -1.314754877761156E-2    2.414738630791780E-2   -1.317315770754437E-2    9.760573895930749E-1    1.118314005374081E-2
 1.015813893985245E6     9.761768688237865E-1    1.101309168576847E-2    2.407438840980045E-2   -1.309165356347081E-2    2.409417240076010E-2   -1.311685611321528E-2    9.760892585725313E-1    1.113187874922972E-2
 1.023564414470923E6     9.762234001163177E-1    1.091327650823385E-2    2.401991628642897E-2   -1.303781314017583E-2    2.403768301209792E-2   -1.306172776810044E-2    9.760883678133392E-1    1.106315627887527E-2
 1.031374070363347E6     9.762752933109284E-1    1.085233117616138E-2    2.396466252461424E-2   -1.298207419635231E-2    2.398307659116455E-2   -1.300573060818645E-2    9.761566582525401E-1    1.098674187464089E-2
 1.039243312857548E6     9.763078351123803E-1    1.077848346792676E-2    2.391468702332839E-2   -1.292197203199588E-2    2.393124185138865E-2   -1.295016634417620E-2    9.762150616808142E-1    1.090045282066843E-2
 1.047172596591111E6     9.763596627360448E-1    1.069173332403552E-2    2.385923948517812E-2   -1.287287138563293E-2    2.387621331332618E-2   -1.289610873346603E-2    9.762983230918646E-1    1.081868974677823E-2
 1.055162379670449E6     9.764184781330183E-1    1.062448846155689E-2    2.380233861155935E-2   -1.281378609146824E-2    2.382185563788229E-2   -1.284083063234944E-2    9.763545299990587E-1    1.074701704897722E-2
 1.063213123697260E6     9.764991391674700E-1    1.057401717998727E-2    2.375197036641609E-2   -1.276396437891920E-2    2.376915035527560E-2   -1.278692060958710E-2    9.763997268857498E-1    1.067159289275707E-2
 1.071325293795198E6     9.765448169436952E-1    1.051803942119783E-2    2.369827501887840E-2   -1.270492079669211E-2    2.371603386307646E-2   -1.273207409756065E-2    9.764618669153122E-1    1.061285030286568E-2
 1.079499358636750E6     9.765846735041346E-1    1.043876123998593E-2    2.364771729726631E-2   -1.265260483974194E-2    2.366277143448087E-2   -1.268130112132613E-2    9.765420928314481E-1    1.055449003978769E-2
 1.087735790470306E6     9.766170108491343E-1    1.038962055431224E-2    2.359283681782946E-2   -1.259684954681802E-2    2.360858055701469E-2   -1.262437164318398E-2    9.765679498803753E-1    1.047550354948864E-2
 1.096035065147453E6     9.766411046403735E-1    1.035041608566672E-2    2.353974005175997E-2   -1.254459499081268E-2    2.355354266403455E-2   -1.256935073842378E-2    9.766271103605060E-1    1.038682662391660E-2
 1.104397662150453E6     9.766707817846438E-1    1.026066615885193E-2    2.348567323040645E-2   -1.248936890280342E-2    2.350023294562313E-2   -1.251755751663317E-2    9.766668168220353E-1    1.030940727115321E-2
 1.112824064619953E6     9.767450659910499E-1    1.017967992972766E-2    2.343231781029479E-2   -1.243294269829258E-2    2.344646073315164E-2   -1.246340520896112E-2    9.767326460275173E-1    1.023740260044279E-2
 1.121314759382903E6     9.767995033340227E-1    1.010809325023842E-2    2.337777723768163E-2   -1.238268287790903E-2    2.339569195597731E-2   -1.240818107660738E-2    9.767750749379743E-1    1.016222086510452E-2
 1.129870236980669E6     9.768375988463818E-1    1.004172923200491E-2    2.332710152044918E-2   -1.232668002951768E-2    2.334111693073572E-2   -1.235350055024459E-2    9.768444467435238E-1    1.009974879944320E-2
 1.138490991697383E6     9.768928374542154E-1    9.989784954578973E-3    2.327274709450584E-2   -1.227625765330444E-2    2.328721269361850E-2   -1.230071066166668E-2    9.768848762788542E-1    1.001196761883889E-2
 1.147177521588496E6     9.769601096484133E-1    9.937104781975927E-3    2.321997775320806E-2   -1.222008113144845E-2    2.323455198758429E-2   -1.224680534819140E-2    9.769511953387989E-1    9.940933296129897E-3
 1.155930328509552E6     9.770297307534662E-1    9.874498502287733E-3    2.316754641796363E-2   -1.216880378524774E-2    2.318068758341250E-2   -1.219337840937709E-2    9.769633003194984E-1    9.920911390808626E-3
 1.164749918145190E6     9.770991566128829E-1    9.770143291432566E-3    2.311383483665806E-2   -1.211508044760837E-2    2.312683779535078E-2   -1.213715540936947E-2    9.770384746002886E-1    9.837886795033302E-3
 1.173636800038349E6     9.771248151331405E-1    9.696774283823619E-3    2.305640298734949E-2   -1.206057969376001E-2    2.307394592821805E-2   -1.208606793186324E-2    9.770773265265884E-1    9.738802497791372E-3
 1.182591487619709E6     9.771542293812610E-1    9.616556270681286E-3    2.300637385153841E-2   -1.200702428941177E-2    2.301875718875265E-2   -1.203095393095576E-2    9.771010582037877E-1    9.661409985507631E-3
 1.191614498237359E6     9.772272289156492E-1    9.548476452322058E-3    2.295483454620470E-2   -1.195437786409262E-2    2.296745173177112E-2   -1.198001797429630E-2    9.771776894427732E-1    9.599546159631427E-3
 1.200706353186678E6     9.772601436516560E-1    9.472318725012514E-3    2.290299174621080E-2   -1.189998016732655E-2    2.291096738811411E-2   -1.192428623762680E-2    9.772074136640996E-1    9.535388834812147E-3
 1.209867577740467E6     9.773156201276287E-1    9.403790293811770E-3    2.284928833763876E-2   -1.184568513216357E-2    2.286103905805380E-2   -1.186651356245497E-2    9.772403459309927E-1    9.483325794103383E-3
 1.219098701179276E6     9.773766395648354E-1    9.336287821511228E-3    2.279585264292334E-2   -1.179524500716925E-2    2.281188947088119E-2   -1.181523813424823E-2    9.773411160518306E-1    9.414452149567780E-3
 1.228400256821998E6     9.774109880677500E-1    9.288981340358479E-3    2.274463959837066E-2   -1.173797343208974E-2    2.275456722259593E-2   -1.176185535399852E-2    9.774030286027129E-1    9.350191847708510E-3
 1.237772782056674E6     9.774769204815880E-1    9.177464752891737E-3    2.269184009671170E-2   -1.168517424160253E-2    2.270247034314582E-2   -1.170722565361258E-2    9.774029692921929E-1    9.256921408515808E-3
 1.247216818371540E6     9.775193203109441E-1    9.099820876741646E-3    2.263942090178105E-2   -1.163002275238315E-2    2.265145124619105E-2   -1.165524317276764E-2    9.774803501916992E-1    9.214263662669361E-3
 1.256732911386322E6     9.775713033484505E-1    9.027876165333525E-3    2.259117014602891E-2   -1.157741621519072E-2    2.260159914745721E-2   -1.159581467276463E-2    9.775447250951447E-1    9.164708540607061E-3
 1.266321610883739E6     9.776303431091607E-1    8.965324599595649E-3    2.253739946281762E-2   -1.152126626190902E-2    2.255221530404190E-2   -1.154417737461381E-2    9.775873656384653E-1    9.074425677869357E-3
 1.275983470841281E6     9.776603420699556E-1    8.923676713144537E-3    2.248732779995529E-2   -1.146941248352243E-2    2.249991143422757E-2   -1.149158005447540E-2    9.776394418751337E-1    8.988292369633397E-3
 1.285719049463211E6     9.777093671946451E-1    8.827779145391903E-3    2.243434466844353E-2   -1.141577585803419E-2    2.244521967044668E-2   -1.143507855555936E-2    9.776773460325034E-1    8.927331247685820E-3
 1.295528909212810E6     9.777784517604031E-1    8.716653215090632E-3    2.238303993261088E-2   -1.136122481815346E-2    2.239602472289355E-2   -1.138170618272676E-2    9.777210923394225E-1    8.858435803159254E-3
 1.305413616844883E6     9.778242072119032E-1    8.668530592102645E-3    2.233447715453353E-2   -1.130486215219398E-2    2.234711999545408E-2   -1.132594354504770E-2    9.777492009485389E-1    8.815016708691076E-3
 1.315373743438491E6     9.778884970913478E-1    8.602598603504276E-3    2.228646396380022E-2   -1.125224107288010E-2    2.229451674433616E-2   -1.127120480963115E-2    9.778133702247636E-1    8.709973648035534E-3
 1.325409864429950E6     9.779289943264634E-1    8.593245291363610E-3    2.223338375032960E-2   -1.119949043891310E-2    2.224357444583628E-2   -1.121657671702652E-2    9.778048751383619E-1    8.615681656361158E-3
 1.335522559646084E6     9.779710157241880E-1    8.466643305238981E-3    2.218823982347677E-2   -1.114491606533626E-2    2.220051463915965E-2   -1.116240079630339E-2    9.778858686550151E-1    8.546332644515261E-3
 1.345712413337699E6     9.780114614913851E-1    8.411513562864802E-3    2.213921917112852E-2   -1.109413212284300E-2    2.214818446678099E-2   -1.110769039916250E-2    9.778991820211640E-1    8.474130281455616E-3
 1.355980014213373E6     9.780539737976215E-1    8.351492997327060E-3    2.208999252231782E-2   -1.103606747510956E-2    2.210014393332788E-2   -1.105371610671372E-2    9.779749720210946E-1    8.411868535036022E-3
 1.366325955473440E6     9.780900972488578E-1    8.264851711600088E-3    2.204300934150510E-2   -1.098487985082325E-2    2.204959411914792E-2   -1.100207953591836E-2    9.780399302054067E-1    8.369351245404002E-3
 1.376750834844268E6     9.781266223201373E-1    8.179586056773833E-3    2.199609909096565E-2   -1.092761654111814E-2    2.200403379382369E-2   -1.094760782543490E-2    9.780812631130358E-1    8.273429892712715E-3
 1.387255254612807E6     9.781737452285354E-1    8.105330514036441E-3    2.194625208883186E-2   -1.087548456778324E-2    2.195891320233102E-2   -1.089315045437677E-2    9.781497927251455E-1    8.195153122251161E-3
 1.397839821661363E6     9.782188817477576E-1    8.055081041929497E-3    2.189687217665934E-2   -1.082037198751476E-2    2.190884096094856E-2   -1.083998811278048E-2    9.781947904991835E-1    8.124933610026482E-3
 1.408505147502673E6     9.782989038252061E-1    7.980306810598702E-3    2.185131119422245E-2   -1.076845918408122E-2    2.186173746759469E-2   -1.078714434738938E-2    9.782263224399348E-1    8.056334099968856E-3
 1.419251848315235E6     9.783253395457530E-1    7.900224276172037E-3    2.180538390306613E-2   -1.071412364757186E-2    2.181579598506408E-2   -1.073059537636208E-2    9.782780583318388E-1    8.007923366715857E-3
 1.430080544978898E6     9.783704542315350E-1    7.826000547624730E-3    2.176109351444914E-2   -1.066490027998283E-2    2.176637340319796E-2   -1.068279225204673E-2    9.783287523360743E-1    7.908185371175189E-3
 1.440991863110751E6     9.783883494077422E-1    7.744622243159936E-3    2.171200736874565E-2   -1.061098958594190E-2    2.172563118788582E-2   -1.062964371207066E-2    9.783793471612540E-1    7.810409328092499E-3
 1.451986433101243E6     9.784343723089779E-1    7.668452168426758E-3    2.166793190493845E-2   -1.056263615319056E-2    2.167643313365768E-2   -1.057735720079656E-2    9.784381635940965E-1    7.764259848338266E-3
 1.463064890150622E6     9.784950176669606E-1    7.611040771988416E-3    2.161873948232280E-2   -1.050782656104588E-2    2.162912798107826E-2   -1.052491273599120E-2    9.784722426327291E-1    7.696749651873404E-3
 1.474227874305625E6     9.785438066987105E-1    7.544756516753228E-3    2.157441026551349E-2   -1.045528411994135E-2    2.158361028949215E-2   -1.046951100788118E-2    9.785176085570438E-1    7.633347688875021E-3
 1.485476030496454E6     9.785924925374310E-1    7.469523073278744E-3    2.152940994415717E-2   -1.040245868992847E-2    2.153857987460851E-2   -1.041809268488831E-2    9.785468938580165E-1    7.559407955164848E-3
 1.496810008574050E6     9.786320881351406E-1    7.421011958482526E-3    2.148298576093504E-2   -1.035050245961967E-2    2.149175395672612E-2   -1.037037409009294E-2    9.785731824203956E-1    7.491129100436660E-3
 1.508230463347619E6     9.786861508738915E-1    7.335197366081281E-3    2.143552937558934E-2   -1.030085352496477E-2    2.144981003849827E-2   -1.031879825598121E-2    9.786555902699163E-1    7.436312726879865E-3
 1.519738054622472E6     9.787524090383440E-1    7.275209568458671E-3    2.139295799271784E-2   -1.025308784338736E-2    2.140193504214364E-2   -1.026418296861024E-2    9.786743653580473E-1    7.350774725298236E-3
 1.531333447238147E6     9.787636336399895E-1    7.193226937185649E-3    2.134300115289330E-2   -1.019921190535633E-2    2.135324715978058E-2   -1.021379387606309E-2    9.787306976585949E-1    7.291976317011198E-3
 1.543017311106810E6     9.788109053165253E-1    7.115421094024225E-3    2.130178806096309E-2   -1.015056776613654E-2    2.131178592311974E-2   -1.016415576981219E-2    9.787826974890520E-1    7.213106895384180E-3
 1.554790321251977E6     9.788838410733040E-1    7.078194223887206E-3    2.125486989717974E-2   -1.009815960723788E-2    2.126221310211013E-2   -1.011286553848230E-2    9.788479318661871E-1    7.133239733047710E-3
 1.566653157847488E6     9.789469479105350E-1    6.984942028032228E-3    2.121005449401241E-2   -1.004689497882499E-2    2.121847468508543E-2   -1.005989056684184E-2    9.788558138116955E-1    7.071162064919145E-3
 1.578606506256824E6     9.789696385206436E-1    6.883811862009865E-3    2.116395020814415E-2   -1.000028668584857E-2    2.117465281848386E-2   -1.001226855630322E-2    9.789014925286664E-1    6.983359498768207E-3
 1.590651057072690E6     9.790363663596897E-1    6.837583223306363E-3    2.111797002646700E-2   -9.948801891418101E-3    2.112603154446630E-2   -9.960176807779162E-3    9.789420981171858E-1    6.923795953447150E-3
 1.602787506156919E6     9.790767238405510E-1    6.760585288961768E-3    2.107215223734074E-2   -9.897796367047067E-3    2.108011379507356E-2   -9.909109070751083E-3    9.789907084722075E-1    6.856137122777459E-3
 1.615016554680682E6     9.791072398079711E-1    6.682525139793464E-3    2.102347063914385E-2   -9.847851741771444E-3    2.103829263816672E-2   -9.859463190080364E-3    9.790573916091583E-1    6.791888801252774E-3
 1.627338909164981E6     9.791555328001773E-1    6.605520025053905E-3    2.097919075255568E-2   -9.797282801248997E-3    2.099071440803597E-2   -9.809686826692712E-3    9.790771542511257E-1    6.720123282614099E-3
 1.639755281521474E6     9.792103951737127E-1    6.546366662415914E-3    2.093475344245630E-2   -9.744091766885260E-3    2.094240735258044E-2   -9.760272806842300E-3    9.791716118116595E-1    6.647602672522250E-3
 1.652266389093622E6     9.792865142209115E-1    6.455870102161036E-3    2.089149964571106E-2   -9.695889551589121E-3    2.089838297654874E-2   -9.708659608172559E-3    9.792261426992936E-1    6.589457024616353E-3
 1.664872954698102E6     9.793027342715159E-1    6.386462394662556E-3    2.084665113732584E-2   -9.644861716911106E-3    2.085387132319461E-2   -9.655831464072612E-3    9.792420698814512E-1    6.498974175712264E-3
 1.677575706666590E6     9.793306412163501E-1    6.302096645984663E-3    2.080193121784479E-2   -9.594021448703968E-3    2.080487495169943E-2   -9.604844181680562E-3    9.792642211978926E-1    6.407030746864895E-3
 1.690375378887833E6     9.793715314378383E-1    6.213150956956482E-3    2.075255037276649E-2   -9.544004093070010E-3    2.076054781141931E-2   -9.553816863292158E-3    9.793065601855094E-1    6.339211632503829E-3
 1.703272710850043E6     9.794141579978287E-1    6.151501574757432E-3    2.070716834436287E-2   -9.492757564275759E-3    2.071566053319079E-2   -9.504160830653934E-3    9.793449254604115E-1    6.279828180549583E-3
 1.716268447683636E6     9.794932887810399E-1    6.094351286223729E-3    2.066557117268112E-2   -9.439658585213541E-3    2.066994649153181E-2   -9.453507759067861E-3    9.793724563807141E-1    6.181495781176393E-3
 1.729363340204262E6     9.795204741258388E-1    6.023791930778712E-3    2.061724762883841E-2   -9.390988412509963E-3    2.062761265570361E-2   -9.400165642818566E-3    9.794224315296924E-1    6.109626296340433E-3
 1.742558144956193E6     9.795669389525870E-1    5.947518876533534E-3    2.057261064134706E-2   -9.338159454377879E-3    2.058200721241420E-2   -9.350026992885981E-3    9.794795287503385E-1    6.043705819587951E-3
 1.755853624256030E6     9.795819699414601E-1    5.851428365347913E-3    2.052837426481302E-2   -9.284744213267058E-3    2.054113065818985E-2   -9.300406753384977E-3    9.795476116066180E-1    5.957635770309585E-3
 1.769250546236744E6     9.796404103755738E-1    5.783059446552575E-3    2.048810982481756E-2   -9.238039683629006E-3    2.049754645533443E-2   -9.245840974520855E-3    9.796027117935581E-1    5.895031548266298E-3
 1.782749684892061E6     9.796561769411294E-1    5.682754095601375E-3    2.044456095585656E-2   -9.186182463980654E-3    2.045081486888095E-2   -9.193604009012684E-3    9.796730225880481E-1    5.812558074036042E-3
 1.796351820121167E6     9.796863862478451E-1    5.610937884215189E-3    2.039916988339609E-2   -9.131556760820786E-3    2.040743270207608E-2   -9.142330115711179E-3    9.796897553174400E-1    5.737116057265313E-3
 1.810057737773773E6     9.797099132295837E-1    5.520981969408674E-3    2.035442587661397E-2   -9.083449311992469E-3    2.036275519616841E-2   -9.092830582297495E-3    9.797037869881863E-1    5.667862144052526E-3
 1.823868229695514E6     9.798127389121524E-1    5.460816175027490E-3    2.031167745025335E-2   -9.030015289626018E-3    2.032442468276192E-2   -9.039178284587595E-3    9.797384682519316E-1    5.591265805272807E-3
 1.837784093773698E6     9.798239477127425E-1    5.377125095577681E-3    2.026996584473009E-2   -8.977625657748295E-3    2.027774416625055E-2   -8.988359994314157E-3    9.797977036461271E-1    5.518015346530361E-3
 1.851806133983411E6     9.798437787756954E-1    5.301689051439772E-3    2.022855991469034E-2   -8.926909603753188E-3    2.023587727272439E-2   -8.935270345547029E-3    9.798640633573426E-1    5.447670515883892E-3
 1.865935160433950E6     9.798775302635325E-1    5.216330050670051E-3    2.018611596901361E-2   -8.875717796497151E-3    2.019350430213851E-2   -8.885857298657747E-3    9.798844842369479E-1    5.378882467317202E-3
 1.880171989415638E6     9.799191037671047E-1    5.152353956240186E-3    2.014541042217906E-2   -8.822575112553419E-3    2.015358042865550E-2   -8.830806205136793E-3    9.799059404053022E-1    5.297455825737043E-3
 1.894517443446981E6     9.799697737226375E-1    5.085238087689410E-3    2.010247526411774E-2   -8.771876934745204E-3    2.011064657407192E-2   -8.782157489534436E-3    9.799299272241475E-1    5.211223410773533E-3
 1.908972351322182E6     9.800127089199656E-1    4.999841190169429E-3    2.006286226689104E-2   -8.722347369383701E-3    2.006929267596165E-2   -8.729114847065476E-3    9.799754010095123E-1    5.136970298626568E-3
 1.923537548159045E6     9.800429964008160E-1    4.922430994169042E-3    2.002387901018779E-2   -8.670406071095994E-3    2.002936786143905E-2   -8.677909699952710E-3    9.799719438205110E-1    5.070549259391396E-3
 1.938213875447196E6     9.801037060865524E-1    4.837120872022922E-3    1.998258661865151E-2   -8.621170273622619E-3    1.998493062321489E-2   -8.629358670044334E-3    9.800077224599640E-1    4.975985999962860E-3
 1.953002181096708E6     9.801006227535785E-1    4.766594902590388E-3    1.993938048660431E-2   -8.569733168975725E-3    1.994749902311452E-2   -8.577129719824519E-3    9.800967946646594E-1    4.906946598955060E-3
 1.967903319487111E6     9.801445116113421E-1    4.685693447379962E-3    1.989953276114099E-2   -8.518777272731017E-3    1.990825482831922E-2   -8.525509650246389E-3    9.801191835867890E-1    4.818939547373752E-3
 1.982918151516703E6     9.801982600480207E-1    4.609597532047139E-3    1.985997890596369E-2   -8.466609803291447E-3    1.986798608072278E-2   -8.474923732008052E-3    9.801798568822575E-1    4.757329803888386E-3
 1.998047544652348E6     9.802486169638751E-1    4.531537943044671E-3    1.981877726654498E-2   -8.415735686093082E-3    1.982892337749266E-2   -8.428061255878925E-3    9.801907999707855E-1    4.678255755134325E-3
 2.013292372979546E6     9.802519102891045E-1    4.450919917034484E-3    1.977804046619907E-2   -8.365872600868835E-3    1.978651361525106E-2   -8.375638092278412E-3    9.802222297628238E-1    4.599802042875667E-3
 2.028653517252947E6     9.802971227580681E-1    4.367340799005943E-3    1.973697307311172E-2   -8.316033592812045E-3    1.974455874876347E-2   -8.323684862037233E-3    9.802875654818333E-1    4.523608876722937E-3
 2.044131864947255E6     9.803319253959925E-1    4.295294233549600E-3    1.970089533111153E-2   -8.267920304272017E-3    1.970564185646152E-2   -8.273907111085927E-3    9.803416602413011E-1    4.438778148616198E-3
 2.059728310308467E6     9.803461860573643E-1    4.226485271783121E-3    1.965806524066635E-2   -8.218973517597296E-3    1.966471342479399E-2   -8.225051353969717E-3    9.803700019224181E-1    4.373380610345473E-3
 2.075443754405562E6     9.804181173581770E-1    4.136791621005923E-3    1.961792292901101E-2   -8.165979606605860E-3    1.962949308427556E-2   -8.173531697818349E-3    9.804169668919656E-1    4.293641117905364E-3
 2.091279105182548E6     9.804364696022233E-1    4.058471306485854E-3    1.958149633640908E-2   -8.115963185784706E-3    1.958846896880349E-2   -8.122208075597328E-3    9.804604026428492E-1    4.223375464849805E-3
 2.107235277510921E6     9.804848611792244E-1    3.999054010880665E-3    1.953962006534249E-2   -8.067778227899976E-3    1.954550010173350E-2   -8.074721354011266E-3    9.804637095881452E-1    4.134193278697578E-3
 2.123313193242529E6     9.804812074102357E-1    3.906329310603798E-3    1.949959904132939E-2   -8.018393049018619E-3    1.950601681881065E-2   -8.024940986872103E-3    9.805125232064662E-1    4.048271714335787E-3
 2.139513781262815E6     9.805036443950492E-1    3.834384917766626E-3    1.946040252267099E-2   -7.967464993667772E-3    1.946729008116551E-2   -7.972834622838893E-3    9.805749544218406E-1    3.983950596284915E-3
 2.155837977544490E6     9.806068636218268E-1    3.751076663468115E-3    1.942121198027570E-2   -7.922439157791375E-3    1.942392183362298E-2   -7.922688651386499E-3    9.805722624627332E-1    3.905092749526930E-3
 2.172286725201612E6     9.806768761769805E-1    3.681646355924643E-3    1.938251579612280E-2   -7.868407172536198E-3    1.938539997053668E-2   -7.876312678505975E-3    9.805929258451117E-1    3.843494510112328E-3
 2.188860974544063E6     9.806902856441903E-1    3.605532597998729E-3    1.934297681895897E-2   -7.821695566936423E-3    1.934661367962230E-2   -7.823461099231727E-3    9.806680471025963E-1    3.740119793903496E-3
 2.205561683132472E6     9.807061639450058E-1    3.531889469181578E-3    1.929937424405614E-2   -7.770437773958546E-3    1.930510827188659E-2   -7.774823503320174E-3    9.807228297333743E-1    3.651779958666338E-3
 2.222389815833514E6     9.807408530036233E-1    3.447497566664814E-3    1.926115055851434E-2   -7.719826270392963E-3    1.926525852001235E-2   -7.724826217129670E-3    9.807949250558391E-1    3.577309442115483E-3
 2.239346344875663E6     9.807852357752992E-1    3.369667774007221E-3    1.922116912387259E-2   -7.668774611405060E-3    1.922695351369165E-2   -7.673527043028554E-3    9.808056777822156E-1    3.512220961028909E-3
 2.256432249905369E6     9.808206306904554E-1    3.295646405755107E-3    1.918246720696795E-2   -7.622391834341074E-3    1.918489675504225E-2   -7.622286024073564E-3    9.808262626553365E-1    3.429910316459699E-3
 2.273648518043640E6     9.808662383362799E-1    3.209691189929526E-3    1.914138482823265E-2   -7.568572950369864E-3    1.914526479678457E-2   -7.571989328412567E-3    9.808853373966900E-1    3.352987426254363E-3
 2.290996143943099E6     9.809134707637741E-1    3.131644654408906E-3    1.910202306543314E-2   -7.523167959363104E-3    1.910621343544132E-2   -7.517726978489037E-3    9.808942376258895E-1    3.254687022515231E-3
 2.308476129845417E6     9.809987486865953E-1    3.042650909492362E-3    1.906480177837002E-2   -7.469507426730779E-3    1.906687652005387E-2   -7.467849289193921E-3    9.809436233339730E-1    3.182342345535930E-3
 2.326089485639235E6     9.809827963295568E-1    2.961916837039020E-3    1.902374070823481E-2   -7.418059054259387E-3    1.903034075864224E-2   -7.418079971202050E-3    9.809841437791510E-1    3.105161217104941E-3
 2.343837228918507E6     9.810896585210603E-1    2.887951067294435E-3    1.898506997041288E-2   -7.367823937072334E-3    1.899240314881551E-2   -7.359701254002999E-3    9.809852600355609E-1    3.038649074896926E-3
 2.361720385041283E6     9.810713232330206E-1    2.793326415760990E-3    1.894496324503949E-2   -7.317855758230660E-3    1.895358288513755E-2   -7.311497283043640E-3    9.810516510086903E-1    2.937019708147265E-3
 2.379739987188969E6     9.811307576274902E-1    2.738319007536456E-3    1.891062362531170E-2   -7.264722811528351E-3    1.891554653228406E-2   -7.261406339228443E-3    9.810775468649735E-1    2.862317420410174E-3
 2.397897076425990E6     9.811881136311315E-1    2.635137911346736E-3    1.887175596458783E-2   -7.216347636724526E-3    1.888271168200675E-2   -7.210471175163278E-3    9.811187227490215E-1    2.758003544588637E-3
 2.416192701759947E6     9.811894393179489E-1    2.550810896776634E-3    1.883314324615779E-2   -7.160281988884749E-3    1.884287691600207E-2   -7.156783337371483E-3    9.811493644341474E-1    2.682482470162178E-3
 2.434627920202243E6     9.812095681521573E-1    2.446250312574551E-3    1.879360824230960E-2   -7.108928568325463E-3    1.880841769302580E-2   -7.106069321655345E-3    9.811648606234868E-1    2.578848020096488E-3
 2.453203796829114E6     9.812690160685014E-1    2.345208076663741E-3    1.875537310257004E-2   -7.058857243401308E-3    1.876977867961481E-2   -7.055651907623424E-3    9.811944578447367E-1    2.502150522618450E-3
 2.471921404843189E6     9.813335145532991E-1    2.265725646497371E-3    1.871994868800510E-2   -7.007154980087935E-3    1.873478258317728E-2   -7.002884143194574E-3    9.812402761537600E-1    2.427626455689360E-3
 2.490781825635486E6     9.813332105556941E-1    2.192307396259576E-3    1.868177136995056E-2   -6.956108349383609E-3    1.869654595571192E-2   -6.951559345069479E-3    9.812882514795886E-1    2.363253792343904E-3
 2.509786148847881E6     9.814456512182866E-1    1.555158728090007E-3    1.874700498309472E-2   -6.827512044934992E-3    1.868305987778162E-2   -7.035970777349946E-3    9.814003859914276E-1    2.246736746691406E-3
 2.528935472436085E6     9.815182707197126E-1    1.722343344297899E-3    1.871693162371460E-2   -6.752895944601759E-3    1.864506698012498E-2   -6.995300223517429E-3    9.815109119700537E-1    2.217112037206633E-3
 2.548230902733043E6     9.815649950520632E-1    1.756208102910437E-3    1.868703421014814E-2   -6.699950359921914E-3    1.860234528343615E-2   -6.943039657962690E-3    9.815041294289751E-1    2.119137255829839E-3
 2.567673554512876E6     9.816023716679328E-1    1.517941792282963E-3    1.864907816208106E-2   -6.646169169738363E-3    1.856630028120889E-2   -6.894377777580805E-3    9.815712012040907E-1    2.154762310071343E-3
 2.587264551055275E6     9.816552706683566E-1    1.419991925099002E-3    1.861765291090201E-2   -6.597954117187969E-3    1.852914382857295E-2   -6.840679969009515E-3    9.815678725227911E-1    1.867482850970248E-3
 2.607005024210399E6     9.816087528341733E-1    1.168577661239841E-3    1.858082833340859E-2   -6.544777988727531E-3    1.850618227023665E-2   -6.779735354081842E-3    9.816264540594534E-1    1.950700075009490E-3
 2.626896114464281E6     9.816830682963533E-1    1.070526101618256E-3    1.854254335141420E-2   -6.497578503602982E-3    1.847254447523913E-2   -6.727047259370420E-3    9.816431148083231E-1    1.892186977230019E-3
 2.646938971004693E6     9.816853256535489E-1    9.782329845992180E-4    1.850725169312593E-2   -6.439895269115577E-3    1.843679284218492E-2   -6.676172175585483E-3    9.816604688494275E-1    1.717320782963560E-3
 2.667134751787555E6     9.817193911465465E-1    9.161222697858862E-4    1.847240877131118E-2   -6.400411011952776E-3    1.840419810375084E-2   -6.619422125016480E-3    9.817090266910123E-1    1.768312625651455E-3
 2.687484623603833E6     9.817986415564963E-1    8.007457154372339E-4    1.843504637187045E-2   -6.341615498957599E-3    1.837352632924355E-2   -6.568539391849202E-3    9.818029895747747E-1    1.734248994932113E-3
 2.707989762146940E6     9.818070597977796E-1    6.967917993543353E-4    1.840221869319384E-2   -6.295807586751837E-3    1.834381145989969E-2   -6.508786427327298E-3    9.817761916747189E-1    1.453518039316576E-3
 2.728651352080688E6     9.817853733906587E-1    7.177665070738765E-4    1.836595006171076E-2   -6.244802339971474E-3    1.831022222462106E-2   -6.452861157308309E-3    9.818505241485261E-1    1.522792439858493E-3
 2.749470587107692E6     9.818195608306145E-1    5.117269998967602E-4    1.833603559706973E-2   -6.189763864174374E-3    1.827580186224891E-2   -6.404193933053151E-3    9.818090463319661E-1    1.117837148454416E-3
 2.770448670038360E6     9.818904075047148E-1    5.178088529808648E-4    1.829668952023236E-2   -6.144512347892065E-3    1.824812177036993E-2   -6.350970836046184E-3    9.818399821709353E-1    1.174218218102791E-3
 2.791586812860380E6     9.819028142239903E-1    2.808253015691124E-4    1.826068673409111E-2   -6.098978230993218E-3    1.821217824434200E-2   -6.299713381598479E-3    9.819034706846719E-1    1.017646368211007E-3
 2.812886236808732E6     9.820091170610736E-1    3.619112954847829E-4    1.822553087431172E-2   -6.038962911248877E-3    1.817347519113205E-2   -6.245840976355384E-3    9.819413304574736E-1    1.006999439726483E-3
 2.834348172436268E6     9.819584857116733E-1    1.818840983043368E-4    1.818838226228488E-2   -5.990358374672841E-3    1.814346303662185E-2   -6.195254594223553E-3    9.820170068326298E-1    1.001107757024681E-3
 2.855973859684773E6     9.819819819768653E-1    1.908376240238892E-4    1.815752333976403E-2   -5.938913623620938E-3    1.811038337496700E-2   -6.142365616421839E-3    9.819972643776995E-1    7.860334835704604E-4
 2.877764547956619E6     9.819525234650461E-1   -6.959905026511753E-5    1.812226450577405E-2   -5.884261201194895E-3    1.807669147612418E-2   -6.086582822578180E-3    9.820353262353453E-1    6.856387115469039E-4
 2.899721496186967E6     9.820094058386604E-1   -1.760013584690531E-4    1.808518980530970E-2   -5.842139002323201E-3    1.804553176358141E-2   -6.031099311955220E-3    9.820464778610618E-1    6.800433621528699E-4
 2.921845972916440E6     9.820921394789937E-1   -2.810523049761439E-4    1.804806851141178E-2   -5.789889600009122E-3    1.801123338127733E-2   -5.978414711944337E-3    9.821012713796423E-1    5.934093398646746E-4
 2.944139256364495E6     9.821181034967116E-1   -1.947393153220408E-4    1.801662875237739E-2   -5.736422987814583E-3    1.798384219983179E-2   -5.924393349791151E-3    9.822075723542063E-1    6.536556193675379E-4
 2.966602634503201E6     9.821311256794023E-1   -4.867394107886567E-4    1.798306915881043E-2   -5.683980091998710E-3    1.794794885776963E-2   -5.871195583010127E-3    9.822920031466912E-1    6.075029360240077E-4
 2.989237405131679E6     9.821594269604587E-1   -5.720497411765572E-4    1.794845632440386E-2   -5.634616128582593E-3    1.792024484444153E-2   -5.812459464377443E-3    9.823430354372269E-1    6.530999011133609E-4
 3.012044875951098E6     9.821448869689794E-1   -2.835134312329570E-4    1.792515545571671E-2   -5.611695464021594E-3    1.791003699737670E-2   -5.696209010126410E-3    9.823408565585643E-1    4.728927792359458E-4
 3.035026364640187E6     9.822014098233547E-1   -5.009860791086566E-4    1.788836098585246E-2   -5.558207946500981E-3    1.787219815430201E-2   -5.644706259822744E-3    9.823155060681286E-1    2.171090845852661E-4
 3.058183198931389E6     9.822308892525810E-1   -5.499765924719258E-4    1.786068010359525E-2   -5.510033206998282E-3    1.784529139810056E-2   -5.590072296583809E-3    9.823593529599286E-1    9.030172781786345E-5
 3.081516716687564E6     9.822059963987675E-1   -7.374356879888024E-4    1.782862210923981E-2   -5.452409525890755E-3    1.781038221066277E-2   -5.540474568725869E-3    9.823978367618632E-1    3.474878419459459E-5
 3.105028265979277E6     9.823458464511952E-1   -6.772720922334784E-4    1.779396685675796E-2   -5.399697856376568E-3    1.777817879011655E-2   -5.485260463758734E-3    9.823635008345285E-1   -2.360470758430401E-4
 3.128719205162701E6     9.823219298476834E-1   -7.854597837293472E-4    1.776458846494940E-2   -5.354679141502020E-3    1.774374826748880E-2   -5.435258595462823E-3    9.824482151511229E-1   -2.088989337504173E-4
 3.152590902958065E6     9.823323927691011E-1   -1.036925336986222E-3    1.772535693954379E-2   -5.300831339292804E-3    1.771705031815876E-2   -5.381560576430129E-3    9.824535108862319E-1   -3.226952992197755E-4
 3.176644738528751E6     9.823552494112738E-1   -1.071200831342311E-3    1.769739619549118E-2   -5.245173232629496E-3    1.768242119590896E-2   -5.333355806928952E-3    9.825516164687274E-1   -3.642226629031118E-4
 3.200882101560967E6     9.824318737266806E-1   -1.122676965886675E-3    1.766438718938430E-2   -5.190993641491014E-3    1.764566732537305E-2   -5.278309767259140E-3    9.825138121649970E-1   -4.837049409810733E-4
 3.225304392344028E6     9.825208146633803E-1   -1.076003358107111E-3    1.763196967640501E-2   -5.143104436910548E-3    1.761849495303198E-2   -5.226543003853502E-3    9.825706254015957E-1   -6.607398922162545E-4
 3.249913021851289E6     9.825531090278872E-1   -1.190101744450554E-3    1.759984272344201E-2   -5.087840090526880E-3    1.758661512149693E-2   -5.172346271297978E-3    9.826248528295273E-1   -6.598273984585805E-4
 3.274709411821612E6     9.824791835365743E-1   -1.539252565954205E-3    1.756626609189709E-2   -5.036641322955820E-3    1.755810942754324E-2   -5.117712925580067E-3    9.826264482100896E-1   -8.524775251742186E-4
 3.299694994841541E6     9.825560236444739E-1   -1.436523227506280E-3    1.753604329008331E-2   -4.984620552213762E-3    1.752242709407048E-2   -5.061957961011552E-3    9.826019481669335E-1   -1.014381447979251E-3
 3.324871214428060E6     9.826286663909066E-1   -1.566826228303734E-3    1.750049929204701E-2   -4.921355188949345E-3    1.748942031065597E-2   -5.028557658410955E-3    9.827082010972926E-1   -8.709365141582221E-4
 3.350239525111979E6     9.826152767359362E-1   -1.700279556581894E-3    1.747090579399073E-2   -4.870043767803614E-3    1.746152519963113E-2   -4.969155636502376E-3    9.827349265389949E-1   -1.006202282862270E-3
 3.375801392522001E6     9.826985969709989E-1   -1.648998322580672E-3    1.744259954129386E-2   -4.820147873690376E-3    1.742831402892488E-2   -4.914948611104619E-3    9.827983708206868E-1   -1.032505894450091E-3
 3.401558293469354E6     9.827465468298773E-1   -1.799514644797759E-3    1.741206757724710E-2   -4.776022881216203E-3    1.740588843259950E-2   -4.856116128138527E-3    9.827604661851208E-1   -1.278437559909234E-3
 3.427511716033138E6     9.827520424178000E-1   -1.994128839478936E-3    1.738321947794895E-2   -4.719457186017681E-3    1.737252617911246E-2   -4.800516882088186E-3    9.827711465648490E-1   -1.398427079882040E-3
 3.453663159646295E6     9.827831417599621E-1   -2.171620072684040E-3    1.734893786248664E-2   -4.669978510210972E-3    1.734690909131470E-2   -4.748081303489082E-3    9.828289908999200E-1   -1.471529859083969E-3
 3.480014135182226E6     9.827916243941818E-1   -2.151809207642628E-3    1.732172619148867E-2   -4.615311843248267E-3    1.731343851253639E-2   -4.694240746751027E-3    9.828780134607645E-1   -1.537415074154407E-3
 3.506566165042107E6     9.828612106931309E-1   -2.031268895804615E-3    1.729198823669804E-2   -4.568966544932332E-3    1.728554426141518E-2   -4.629549634371122E-3    9.829537695039329E-1   -1.549229538863300E-3
 3.533320783242811E6     9.828983003806123E-1   -2.233479374649778E-3    1.726570907739127E-2   -4.519698997701268E-3    1.726106857826498E-2   -4.579997312798351E-3    9.830485085141976E-1   -1.467333932252998E-3
 3.560279535505542E6     9.829025457350162E-1   -2.367555931573493E-3    1.723369744416040E-2   -4.458548582961643E-3    1.722413507151124E-2   -4.529078813898060E-3    9.829379092129843E-1   -1.827134762047045E-3
 3.587443979345170E6     9.829330503793497E-1   -2.509281818711235E-3    1.719944098268840E-2   -4.414114656223642E-3    1.719316922611976E-2   -4.472154613226131E-3    9.829770691111245E-1   -1.869927059398610E-3
 3.614815684160168E6     9.829394715698412E-1   -2.727283822403841E-3    1.717016066068705E-2   -4.358248737750566E-3    1.716657582707042E-2   -4.416631084352043E-3    9.829939315490236E-1   -2.120027019289650E-3
 3.642396231323309E6     9.829695701203166E-1   -2.726094366099141E-3    1.713501705924737E-2   -4.301658538897864E-3    1.713518019370466E-2   -4.365783813841785E-3    9.829935730997492E-1   -2.296691181233388E-3
 3.670187214273024E6     9.830187315190215E-1   -3.021525582923231E-3    1.709196434912187E-2   -4.215896518973108E-3    1.708424458778792E-2   -4.383486319622784E-3    9.829368379903396E-1   -2.411343094840004E-3
 3.698190238605455E6     9.830218876080077E-1   -3.258613480465462E-3    1.706451515110482E-2   -4.158506826917318E-3    1.705431263991751E-2   -4.323771582993284E-3    9.830409422220092E-1   -2.505537510892579E-3
 3.726406922167240E6     9.830947225247698E-1   -3.355418618280866E-3    1.703221360976193E-2   -4.105956240713700E-3    1.702607994608755E-2   -4.274781676213950E-3    9.830563715780045E-1   -2.579176651898621E-3
 3.754838895148946E6     9.830866639942019E-1   -3.405302934824157E-3    1.700400706060172E-2   -4.051941598775620E-3    1.699733880260807E-2   -4.218091424409903E-3    9.831478372115062E-1   -2.693677071062927E-3
 3.783487800179276E6     9.831191652056100E-1   -3.519830697120857E-3    1.697872889887233E-2   -4.010472783888331E-3    1.696936413364859E-2   -4.139886802791886E-3    9.831159334313961E-1   -2.863836899194251E-3
 3.812355292419964E6     9.832051787582555E-1   -3.471633346872424E-3    1.695293341674788E-2   -3.946679239102632E-3    1.693825645260760E-2   -4.086557034655364E-3    9.832423943297504E-1   -2.799195348374008E-3
 3.841443039661395E6     9.832369191304998E-1   -3.609823303044663E-3    1.691866875908726E-2   -3.893200882633706E-3    1.691118757343239E-2   -4.033954930607003E-3    9.832660332840728E-1   -2.906157979846140E-3
 3.870752722418987E6     9.832075360792530E-1   -3.681740916568190E-3    1.688994280082500E-2   -3.838547087274095E-3    1.688699139314082E-2   -3.969528005152577E-3    9.833512541125071E-1   -2.725439635400179E-3
 3.900286034030236E6     9.832543151489933E-1   -3.622772654007248E-3    1.686594744538691E-2   -3.786033384419921E-3    1.685596089604499E-2   -3.922648197820707E-3    9.833923639824295E-1   -2.877685112979224E-3
 3.930044680752580E6     9.832552941608247E-1   -3.780860864109428E-3    1.683248446271567E-2   -3.729482247683163E-3    1.682150014717091E-2   -3.869878030611573E-3    9.832782280982881E-1   -3.322312816655555E-3
 3.960030381861967E6     9.832696375898463E-1   -3.972526677663682E-3    1.680200205263474E-2   -3.675626441113022E-3    1.680120605997785E-2   -3.812804029607065E-3    9.834054674320872E-1   -3.336343455947598E-3
 3.990244869752173E6     9.832789430245416E-1   -4.189128528815238E-3    1.677543009400609E-2   -3.621925329043364E-3    1.676492123457439E-2   -3.758643996827119E-3    9.833616130141662E-1   -3.480483181462545E-3
 4.020689890034929E6     9.833400584635830E-1   -4.239902340603553E-3    1.675488244686885E-2   -3.585045561392988E-3    1.675594941310812E-2   -3.664717519881438E-3    9.833871189018192E-1   -3.646071218489741E-3
 4.051367201640718E6     9.834178117958952E-1   -4.096496077691538E-3    1.672757451165216E-2   -3.532099681286837E-3    1.672388575683818E-2   -3.609450094819507E-3    9.833839781093481E-1   -3.769162801478013E-3
 4.082278576920427E6     9.834320686720159E-1   -4.236333364836270E-3    1.669946977479399E-2   -3.476502269475166E-3    1.669762159838238E-2   -3.555382327396119E-3    9.833774007909104E-1   -3.892121813297260E-3
 4.113425801747740E6     9.834557203854671E-1   -4.429592556160863E-3    1.666935216480229E-2   -3.425970707950424E-3    1.666537334235183E-2   -3.505370654890985E-3    9.834580260058224E-1   -3.921706553049058E-3
 4.144810675622302E6     9.834387479711613E-1   -4.543831957263727E-3    1.664234076654426E-2   -3.364292087491642E-3    1.664353919155065E-2   -3.445448272563083E-3    9.835639107009154E-1   -3.858228844096267E-3
 4.176435011773718E6     9.834656317187738E-1   -4.710153997489379E-3    1.661254090510223E-2   -3.312774797374733E-3    1.661924152101464E-2   -3.384386271839308E-3    9.835524961583185E-1   -4.070446608349817E-3
 4.208300637266261E6     9.834797674981282E-1   -4.938010508260184E-3    1.658523204879633E-2   -3.260519681653785E-3    1.658904559197719E-2   -3.328997214848846E-3    9.835594835071515E-1   -4.146976858056939E-3
 4.240409393104453E6     9.834919512567134E-1   -4.921815210563096E-3    1.656133598220875E-2   -3.201754191707422E-3    1.656265026061227E-2   -3.270270124456684E-3    9.836468392242715E-1   -4.158967656740086E-3
 4.272763134339464E6     9.835297525376517E-1   -5.051200635887760E-3    1.653144817383729E-2   -3.146020001885353E-3    1.653514065785925E-2   -3.211319344165604E-3    9.837301497505109E-1   -4.187198454257831E-3
 4.305363730176185E6     9.835482291723693E-1   -5.239571676329879E-3    1.650293021169169E-2   -3.095269150865882E-3    1.650575844065476E-2   -3.161501847566938E-3    9.836884040404593E-1   -4.367658411807526E-3
 4.338213064081349E6     9.835741136487525E-1   -5.381041891881185E-3    1.647336157976246E-2   -3.031176950804571E-3    1.647474277065684E-2   -3.112420548509662E-3    9.836961282840569E-1   -4.496377774912719E-3
 4.371313033892244E6     9.835543732051732E-1   -5.574015231224134E-3    1.644258369854156E-2   -2.968627098588074E-3    1.644254988648234E-2   -3.059907228789319E-3    9.837454619500970E-1   -4.614564350873988E-3
 4.404665551926396E6     9.836668067017069E-1   -5.502485167857092E-3    1.641889538186280E-2   -2.916691180062629E-3    1.641673655622995E-2   -2.999018693568080E-3    9.837653355975488E-1   -4.673509344986478E-3
 4.438272545092077E6     9.837007706622786E-1   -5.669579326930159E-3    1.639125745394305E-2   -2.855618604295554E-3    1.639136793650037E-2   -2.945327371611862E-3    9.839339731010676E-1   -4.543436372352845E-3
 4.472135954999580E6     9.837303704471723E-1   -5.784435485502167E-3    1.636471864523983E-2   -2.801315153252228E-3    1.636484150055876E-2   -2.884137078036611E-3    9.838203287980761E-1   -4.949602889536334E-3
 4.506257738073424E6     9.837131385776106E-1   -5.887300510513481E-3    1.633411318985698E-2   -2.745133705755077E-3    1.633416989419562E-2   -2.829844949626443E-3    9.838086856310130E-1   -5.132600969210626E-3
 4.540639865665382E6     9.837375146971350E-1   -6.010098822389920E-3    1.630888283190687E-2   -2.696004819733274E-3    1.631902205266285E-2   -2.754232048310983E-3    9.838893396996198E-1   -5.190813017612572E-3
 4.575284324168356E6     9.838087770019937E-1   -6.085254103607780E-3    1.628291112476178E-2   -2.643756218419629E-3    1.629142393893589E-2   -2.699381058454207E-3    9.840053960126908E-1   -5.150392525722281E-3
 4.610193115131186E6     9.838060264641814E-1   -6.322053065346010E-3    1.624762458587022E-2   -2.570125497399379E-3    1.625225545543403E-2   -2.686738873913561E-3    9.839727964131921E-1   -5.243264177918114E-3
 4.645368255374223E6     9.838048066534627E-1   -6.475949394610690E-3    1.621603319211468E-2   -2.509396150373387E-3    1.622435344886512E-2   -2.622912823593547E-3    9.839685884985616E-1   -5.267108011175914E-3
 4.680811777105891E6     9.838052559919541E-1   -6.577321756296432E-3    1.619533119623113E-2   -2.448937647324331E-3    1.619752363565128E-2   -2.566805973438559E-3    9.840332302325399E-1   -5.435862563343796E-3
 4.716525728040087E6     9.838276992592118E-1   -6.819907181929518E-3    1.616988201224416E-2   -2.399009635229952E-3    1.617170360160163E-2   -2.511003544401435E-3    9.839698350517909E-1   -5.738395291192444E-3
 4.752512171514469E6     9.839222234159444E-1   -6.891782851630585E-3    1.614524632007150E-2   -2.333041952302387E-3    1.614353331561590E-2   -2.451297653351006E-3    9.839989811084079E-1   -5.773702913160274E-3
 4.788773186609713E6     9.839023565089923E-1   -7.067017967026216E-3    1.611825231495457E-2   -2.283555737352545E-3    1.611863008440746E-2   -2.394428003449823E-3    9.840068574942640E-1   -5.964305615922235E-3
 4.825310868269563E6     9.839739308550466E-1   -7.213075377832401E-3    1.608281897741520E-2   -2.217589992992851E-3    1.609400191532102E-2   -2.366695741065605E-3    9.839613595524380E-1   -6.158092847849181E-3
 4.862127327421905E6     9.839621308500536E-1   -7.320109963824738E-3    1.605450279793053E-2   -2.156726584415405E-3    1.607067275784011E-2   -2.306558607975886E-3    9.840329238852734E-1   -6.258440046285834E-3
 4.899224691100715E6     9.840081061762487E-1   -7.457161637744377E-3    1.603214394978255E-2   -2.101117736271449E-3    1.604471030769741E-2   -2.244592425478356E-3    9.841082045593742E-1   -6.350140560959488E-3
 4.936605102568937E6     9.839967953651000E-1   -7.589543391885317E-3    1.600789548190870E-2   -2.039234421724591E-3    1.601838511532807E-2   -2.181731169297859E-3    9.840700235124940E-1   -6.420339556420890E-3
 4.974270721442348E6     9.840294664998029E-1   -7.653190218631784E-3    1.598740326350420E-2   -1.977143031936851E-3    1.599491500988775E-2   -2.123409506363990E-3    9.841044584008781E-1   -6.535259992927102E-3
 5.012223723814265E6     9.840696919547653E-1   -7.780201671984999E-3    1.595799518012179E-2   -1.920846539560139E-3    1.596603590765370E-2   -2.066882405158454E-3    9.841179818345392E-1   -6.809370132496917E-3
 5.050466302381308E6     9.840731730970224E-1   -7.928969451145042E-3    1.593587149411305E-2   -1.858126118850649E-3    1.593968960038061E-2   -2.010401799335378E-3    9.841366665514176E-1   -6.924679667574632E-3
 5.089000666570071E6     9.840705012241356E-1   -8.069970758573101E-3    1.590983966303618E-2   -1.797633780559194E-3    1.591705196937034E-2   -1.950030117377396E-3    9.841655666132774E-1   -6.970500028776075E-3
 5.127829042664761E6     9.841105252225633E-1   -8.163815652294364E-3    1.588550002065092E-2   -1.736678548313709E-3    1.589377733853738E-2   -1.892927212862216E-3    9.841980148092448E-1   -7.182180752727372E-3
 5.166953673935857E6     9.841364809539810E-1   -8.308239978716006E-3    1.586347912979302E-2   -1.672502686754400E-3    1.586917385139908E-2   -1.831116367202330E-3    9.842187020601808E-1   -7.103957031760894E-3
 5.206376820769652E6     9.841872643478864E-1   -8.432790348906524E-3    1.584070586856830E-2   -1.611125273788094E-3    1.584573278484794E-2   -1.773140632911373E-3    9.841715636286207E-1   -7.631409888681741E-3
 5.246100760798878E6     9.841957668928958E-1   -8.554993466008503E-3    1.581254442415134E-2   -1.556009915772569E-3    1.582160861926260E-2   -1.716818018768050E-3    9.842128862714411E-1   -7.626710562083147E-3
 5.286127789034322E6     9.842492824774368E-1   -8.678860356456413E-3    1.578755055658577E-2   -1.497883756826412E-3    1.579487873656300E-2   -1.652777986827629E-3    9.842518265844267E-1   -7.447295528375375E-3
 5.326460217997355E6     9.842163461587061E-1   -8.589380335081897E-3    1.577780396555510E-2   -1.472686572131956E-3    1.579442228370909E-2   -1.500366334063878E-3    9.844207012057929E-1   -7.419873970354234E-3
 5.367100377853584E6     9.842306574377955E-1   -8.745162712318072E-3    1.576019589129244E-2   -1.411935468137324E-3    1.576930267102858E-2   -1.436432370752508E-3    9.844426332770934E-1   -7.705368844917943E-3
 5.408050616547454E6     9.842472473903404E-1   -8.866599436682871E-3    1.573618326805022E-2   -1.350137723509250E-3    1.574676855942159E-2   -1.382195277752860E-3    9.844338396530097E-1   -7.839410034108065E-3
 5.449313299937895E6     9.842493078245436E-1   -9.038647860146645E-3    1.570600849429547E-2   -1.290217758569748E-3    1.572529288712597E-2   -1.314423696706728E-3    9.844411158113954E-1   -7.826914009874682E-3
 5.490890811935049E6     9.842750981715848E-1   -9.340086287481789E-3    1.566686240522911E-2   -1.190444760352193E-3    1.567652159987649E-2   -1.345330531366499E-3    9.843746356111436E-1   -8.197369764652570E-3
 5.532785554637930E6     9.843091063000721E-1   -9.508680598859514E-3    1.564296613026852E-2   -1.127740833003591E-3    1.565403514261553E-2   -1.281378114095089E-3    9.844171565760166E-1   -8.295869552061531E-3
 5.574999948473252E6     9.843176876011256E-1   -9.438855533643263E-3    1.563890224149901E-2   -1.102870612121374E-3    1.565025097757391E-2   -1.132069178875149E-3    9.844418237698793E-1   -8.679718078150588E-3
 5.617536432335250E6     9.843151377290965E-1   -9.589820065175106E-3    1.562189289872761E-2   -1.040224597325015E-3    1.562486499555754E-2   -1.071814738221414E-3    9.843977692809107E-1   -9.003349667978363E-3
 5.660397463726575E6     9.843476728041355E-1   -9.786424530217363E-3    1.559242567245779E-2   -9.776845023329592E-4    1.560419172061321E-2   -1.010674771206082E-3    9.844535566143953E-1   -9.070256724664702E-3
 5.703585518900323E6     9.844377585710000E-1   -1.010534165470715E-2    1.555128771274375E-2   -8.772439274413990E-4    1.556178732706516E-2   -1.032444404058489E-3    9.844692116579523E-1   -9.196834983730300E-3
 5.747103093003022E6     9.844884505047546E-1   -1.022022588177403E-2    1.552164974947175E-2   -8.141393559992689E-4    1.553750866187812E-2   -9.769805461673727E-4    9.844974702116254E-1   -9.585634230386712E-3
 5.790952700218840E6     9.844985609889938E-1   -1.036816720815445E-2    1.550237237737858E-2   -7.536860539491279E-4    1.551334455675256E-2   -9.117895215963256E-4    9.844852860285042E-1   -9.871240171693907E-3
 5.835136873914825E6     9.844851083510595E-1   -1.026888313947040E-2    1.550092976630504E-2   -7.277342661639600E-4    1.550873652150939E-2   -7.596459254725223E-4    9.845606004643673E-1   -9.819195485789087E-3
 5.879658166787256E6     9.845228942055175E-1   -1.044554288652982E-2    1.548099093611045E-2   -6.674677269199425E-4    1.548388514422058E-2   -6.897740079742499E-4    9.845310681222608E-1   -9.885221804568864E-3
 5.924519151009166E6     9.845103881942074E-1   -1.056540280928761E-2    1.545788890911163E-2   -6.026702196645239E-4    1.546292367789105E-2   -6.247188208658715E-4    9.845897739348523E-1   -9.902717008110138E-3
 5.969722418378883E6     9.845469048832791E-1   -1.069554492591564E-2    1.543372613514673E-2   -5.377155690756798E-4    1.544106714066261E-2   -5.645043895389670E-4    9.846426969396940E-1   -1.004780924867112E-2
 6.015270580469812E6     9.845952150527564E-1   -1.086432935756541E-2    1.541561220729622E-2   -4.727562279039284E-4    1.541711376617755E-2   -4.988391168360469E-4    9.845495652831864E-1   -1.053646312514331E-2
 6.061166268781302E6     9.845940709419908E-1   -1.100056207877319E-2    1.539123833532041E-2   -4.078004709231301E-4    1.539766202201951E-2   -4.312525186001622E-4    9.846680931720987E-1   -1.052082061362098E-2
 6.107412134890671E6     9.845834784845445E-1   -1.120165793683214E-2    1.536483598251166E-2   -3.354072799179994E-4    1.536819905344251E-2   -3.782618638108764E-4    9.846702419644151E-1   -1.090454371307214E-2
 6.154010850606443E6     9.846269556820572E-1   -1.133725633932683E-2    1.534365107499793E-2   -2.725822641378948E-4    1.534681185002823E-2   -3.115174740616167E-4    9.846985920334447E-1   -1.103534275681630E-2
 6.200965108122637E6     9.846728938116397E-1   -1.148523007135500E-2    1.532299728026814E-2   -2.093292646453549E-4    1.532340164331430E-2   -2.458916844207784E-4    9.846904945438862E-1   -1.119805959868857E-2
 6.248277620174343E6     9.846836814791710E-1   -1.165769781504993E-2    1.530232909896864E-2   -1.451893873559489E-4    1.529970298977544E-2   -1.758448464589461E-4    9.847318632629337E-1   -1.150058584283649E-2
 6.295951120194497E6     9.847312924239431E-1   -1.179178329932962E-2    1.527804937429855E-2   -7.547157926359477E-5    1.528075013037687E-2   -1.144223119755280E-4    9.847491698610196E-1   -1.140556552413593E-2
 6.343988362471664E6     9.847092246217339E-1   -1.191032939660204E-2    1.525875037849514E-2   -1.448803453206034E-5    1.526608145790521E-2   -3.754246180400799E-5    9.847556394960183E-1   -1.160707437901825E-2
 6.392392122309345E6     9.847562169061215E-1   -1.211589572424118E-2    1.523601650878413E-2    5.201939993748541E-5    1.524633030068952E-2    2.848005723296432E-5    9.847603141309046E-1   -1.167882150568014E-2
 6.441165196186168E6     9.847637321434823E-1   -1.226662178163505E-2    1.521596063095526E-2    1.215436988816344E-4    1.522077681575399E-2    9.999682635460970E-5    9.848128176333512E-1   -1.163497479486430E-2
 6.490310401917514E6     9.847412006648958E-1   -1.240934767199238E-2    1.519832755446509E-2    1.866716859114437E-4    1.520089405580636E-2    1.639194814553675E-4    9.848148866920942E-1   -1.184109684182792E-2
 6.539830578818345E6     9.847502320444543E-1   -1.252935247434317E-2    1.517462677426459E-2    2.557867732787214E-4    1.517923132332749E-2    2.350451632616964E-4    9.848644923041400E-1   -1.200304259440065E-2
 6.589728587867169E6     9.847401025008174E-1   -1.269623560660747E-2    1.515311343590294E-2    3.217437718855870E-4    1.515866368680836E-2    3.008524392715319E-4    9.848894225989732E-1   -1.217607993154256E-2
 6.640007311871376E6     9.848220139876338E-1   -1.286626196538184E-2    1.513208941519625E-2    3.875279891501470E-4    1.513846116182980E-2    3.680407042212183E-4    9.848907956438647E-1   -1.236455780778424E-2
 6.690669655633785E6     9.848438085124743E-1   -1.303348338755622E-2    1.511286921334169E-2    4.606219796772597E-4    1.511848857303750E-2    4.360550923826181E-4    9.849120099549415E-1   -1.256617021742218E-2
 6.741718546120445E6     9.848299023169067E-1   -1.316175682878380E-2    1.508977012658118E-2    5.308958075646185E-4    1.509608806360169E-2    5.030992724222456E-4    9.849622560286577E-1   -1.271777319350628E-2
 6.793156932629797E6     9.848300688331674E-1   -1.335219124093360E-2    1.506920428079403E-2    5.964882397628121E-4    1.507260801278281E-2    5.723275193563859E-4    9.849794921407272E-1   -1.274662212468964E-2
 6.844987786962981E6     9.847947662051491E-1   -1.347575910534828E-2    1.504684699376173E-2    6.654240061022610E-4    1.505654272277008E-2    6.416815994063736E-4    9.849874276853232E-1   -1.286627886184806E-2
 6.897214103595586E6     9.848212253170655E-1   -1.373074360369272E-2    1.502408186470274E-2    7.477039785625111E-4    1.502391890814904E-2    6.875666207982135E-4    9.850102064970225E-1   -1.321969969561478E-2
 6.949838899850640E6     9.847925983774608E-1   -1.389568496447568E-2    1.500460922212414E-2    8.215131211171431E-4    1.500249272777487E-2    7.599114665350112E-4    9.850595210596889E-1   -1.332636480683035E-2
 7.002865216072913E6     9.848722176252657E-1   -1.419946668595911E-2    1.496864305219835E-2    9.121825176049179E-4    1.497949270799787E-2    7.779599456890461E-4    9.851104460740764E-1   -1.352423485654240E-2
 7.056296115804635E6     9.848762658219196E-1   -1.435733660961039E-2    1.494806392619813E-2    9.834855062198103E-4    1.496066292746074E-2    8.442176529569790E-4    9.850928733271936E-1   -1.367074163363198E-2
 7.110134685962399E6     9.849924299531214E-1   -1.455409674771468E-2    1.492972015706963E-2    1.051600686137599E-3    1.494269596822494E-2    9.147059667113318E-4    9.850679120231409E-1   -1.388617304990160E-2
 7.164384037015557E6     9.850592438228617E-1   -1.470997218574896E-2    1.490861812010274E-2    1.124338556870268E-3    1.492154155826688E-2    9.855321903553007E-4    9.851238105904195E-1   -1.405463105496680E-2
 7.219047303165923E6     9.850207986714588E-1   -1.490468567304123E-2    1.488897074604478E-2    1.194359215867874E-3    1.490088123557166E-2    1.055635061022237E-3    9.851299123218442E-1   -1.422051937667840E-2
 7.274127642528819E6     9.850580966962023E-1   -1.505776699042616E-2    1.486643909742809E-2    1.270054122575303E-3    1.488117331280785E-2    1.125947420908908E-3    9.851648780893645E-1   -1.439135394320433E-2
 7.329628237315600E6     9.850554504646805E-1   -1.527869392251094E-2    1.484193185901000E-2    1.346287319365524E-3    1.487153669822839E-2    1.166002920362077E-3    9.852230631662191E-1   -1.455943629970748E-2
 7.385552294017412E6     9.850386155653066E-1   -1.544290310075967E-2    1.481865772244234E-2    1.419284388445499E-3    1.485130747846943E-2    1.236289111440075E-3    9.852424856776689E-1   -1.471843953156008E-2
 7.441903043590503E6     9.850506622170038E-1   -1.545806810619491E-2    1.483172961765702E-2    1.457338398134463E-3    1.483274549073844E-2    1.408460506343752E-3    9.852769924273882E-1   -1.491232601843741E-2
 7.498683741642874E6     9.850941083147299E-1   -1.561651985934602E-2    1.481083440715932E-2    1.534054528903815E-3    1.481178350891975E-2    1.481209478876425E-3    9.852603628247808E-1   -1.509720097739763E-2
 7.555897668622349E6     9.850722796614004E-1   -1.592172343911114E-2    1.477095321489676E-2    1.635816812247266E-3    1.478710397286381E-2    1.488434756388824E-3    9.853013757874489E-1   -1.521028400781533E-2
 7.613548130006171E6     9.851241831750647E-1   -1.611267064179775E-2    1.475073758705232E-2    1.711443718201780E-3    1.476752210162055E-2    1.563252249623210E-3    9.853207198998416E-1   -1.540487790779817E-2
 7.671638456491867E6     9.851988712908127E-1   -1.637070050080997E-2    1.470920118116089E-2    1.796870628747995E-3    1.478829329334513E-2    1.560554818861707E-3    9.853901195369680E-1   -1.553607169143098E-2
 7.730172004189732E6     9.851930867426576E-1   -1.656958824877434E-2    1.469083717325426E-2    1.873295598736426E-3    1.477044062319264E-2    1.634125711413333E-3    9.853665376483599E-1   -1.572883321766283E-2
 7.789152154816771E6     9.853022289595287E-1   -1.676708538763577E-2    1.467360490384374E-2    1.948748032780063E-3    1.475369554651203E-2    1.709515763660147E-3    9.853598939491688E-1   -1.592011358322762E-2
 7.848582315891974E6     9.852272508094048E-1   -1.687594159227213E-2    1.467451372190220E-2    2.010377796575769E-3    1.469982736755045E-2    1.857716113516032E-3    9.854660724184420E-1   -1.610239230075869E-2
 7.908465920933248E6     9.852088436881573E-1   -1.703884795452179E-2    1.465288945520692E-2    2.084990161150022E-3    1.467708585236391E-2    1.935250215601838E-3    9.854419054257232E-1   -1.627876280881878E-2
 7.968806429655775E6     9.852472877527241E-1   -1.721321755110428E-2    1.463634515634177E-2    2.161755693278962E-3    1.466303940529552E-2    2.010578436276755E-3    9.854537158748489E-1   -1.646602969413043E-2
 8.029607328171868E6     9.852726981974167E-1   -1.739894928459170E-2    1.461913359171914E-2    2.241459200857394E-3    1.464611343488675E-2    2.085004177857475E-3    9.854403379498771E-1   -1.664249478910240E-2
 8.090872129192449E6     9.852867747580691E-1   -1.758661381392502E-2    1.460046763372551E-2    2.315642219740869E-3    1.463021242383268E-2    2.162736896176497E-3    9.854748014072260E-1   -1.683927624182061E-2
 8.152604372229892E6     9.852852722490122E-1   -1.778046157198899E-2    1.458149375332956E-2    2.391634327182010E-3    1.461045672210702E-2    2.237255174157183E-3    9.854836086022039E-1   -1.703868636318727E-2
 8.214807623802581E6     9.852783372733223E-1   -1.798748923501124E-2    1.456451393810666E-2    2.470800687204589E-3    1.459617806101251E-2    2.317030594473616E-3    9.854559556965313E-1   -1.720528213219283E-2
 8.277485477640945E6     9.852963859605746E-1   -1.814788914066685E-2    1.454822701047951E-2    2.549759304593230E-3    1.457822944960332E-2    2.391504803199414E-3    9.854405499659907E-1   -1.738221737240719E-2
 8.340641554895067E6     9.853117806694905E-1   -1.835741768745168E-2    1.453321241076024E-2    2.622863601207595E-3    1.456079190309650E-2    2.467963465797684E-3    9.854931777389419E-1   -1.759351876425768E-2
 8.404279504343957E6     9.853155998120740E-1   -1.856415899170436E-2    1.451266483101231E-2    2.703263804529528E-3    1.454138567709599E-2    2.547258045178858E-3    9.855068072573143E-1   -1.777863036499738E-2
 8.468403002606256E6     9.853012816384628E-1   -1.874968001272097E-2    1.449579465511853E-2    2.782253352920332E-3    1.453023751850283E-2    2.629190068334255E-3    9.855368125615722E-1   -1.798508770290846E-2
 8.533015754352720E6     9.853299439933823E-1   -1.891236256955302E-2    1.448960990150427E-2    2.853856952770586E-3    1.450610419971728E-2    2.739635847903671E-3    9.855301132473731E-1   -1.819736480572400E-2
 8.598121492520234E6     9.853368214115171E-1   -1.911041470790039E-2    1.447249284453762E-2    2.934403761696954E-3    1.448983173234229E-2    2.817366900721938E-3    9.855249936656257E-1   -1.835974499410498E-2
 8.663723978527457E6     9.854701893906337E-1   -1.946757528565563E-2    1.442042711942729E-2    3.030778097959270E-3    1.452801750118530E-2    2.786818736361421E-3    9.855351282372642E-1   -1.853193760969737E-2
 8.729827002492212E6     9.855006272184565E-1   -1.968312738207671E-2    1.440638155121497E-2    3.109663846584083E-3    1.451152908889571E-2    2.865137237827349E-3    9.855280127640226E-1   -1.872655334461858E-2
 8.796434383450346E6     9.854904177676004E-1   -1.989923546857967E-2    1.438766923724934E-2    3.189909643999856E-3    1.449566898522234E-2    2.946512429691369E-3    9.855991330776437E-1   -1.895110305998976E-2
 8.863549969576446E6     9.854560255395920E-1   -2.002999609477087E-2    1.438606153067182E-2    3.266729757133168E-3    1.444683270731641E-2    3.070463475255120E-3    9.855550940875886E-1   -1.914042494583517E-2
 8.931177638406139E6     9.854535331991463E-1   -2.024318466563969E-2    1.436660858877987E-2    3.349099607536881E-3    1.442985769457389E-2    3.151853838212411E-3    9.856075300836491E-1   -1.935868265722001E-2
 8.999321297060097E6     9.854930374699967E-1   -2.044478649311618E-2    1.435054793106305E-2    3.431029014559758E-3    1.441525685801957E-2    3.231924840007835E-3    9.855777573602142E-1   -1.957181383214543E-2
 9.067984882469844E6     9.855032235523579E-1   -2.066627155117289E-2    1.433522580353505E-2    3.514797194685140E-3    1.440126760448180E-2    3.314160652209956E-3    9.856334037421433E-1   -1.975565779987071E-2
 9.137172361605095E6     9.855544156871257E-1   -2.089890279306626E-2    1.431859470081938E-2    3.596745071533272E-3    1.438574844944600E-2    3.397228048793530E-3    9.856631268496240E-1   -1.996598616029638E-2
 9.206887731702998E6     9.855228939397535E-1   -2.094379871102842E-2    1.433191400674139E-2    3.661189830026152E-3    1.434697140136850E-2    3.572858924619408E-3    9.856827198630799E-1   -2.017106130254339E-2
 9.277135020499127E6     9.855090504198841E-1   -2.119025727210146E-2    1.431700453651922E-2    3.744438715786999E-3    1.433120476754950E-2    3.655300182620946E-3    9.856982722977158E-1   -2.040810295616599E-2
 9.347918286460072E6     9.855845910074333E-1   -2.136731270807903E-2    1.430192500290722E-2    3.829284562287465E-3    1.431679327769762E-2    3.738839649480595E-3    9.857486165329800E-1   -2.061743530779994E-2
 9.419241619017981E6     9.856217458743884E-1   -2.159697138373186E-2    1.428662699387121E-2    3.913254156572729E-3    1.430100151149357E-2    3.822329599964387E-3    9.857903115311515E-1   -2.083902614192354E-2
 9.491109138806809E6     9.855416545087233E-1   -2.182495558253630E-2    1.427024139699600E-2    3.998622514165814E-3    1.428584434110394E-2    3.909627243984718E-3    9.857392703395240E-1   -2.102700707137092E-2
 9.563524997900363E6     9.855838086627529E-1   -2.208994149842526E-2    1.425564474902717E-2    4.085410566957301E-3    1.427031854733550E-2    3.995037562300750E-3    9.857004848126665E-1   -2.124294700141281E-2
 9.636493380052259E6     9.855715571867780E-1   -2.224464002525771E-2    1.424019632074258E-2    4.171084223686561E-3    1.425673155463569E-2    4.078620607922400E-3    9.857590773798531E-1   -2.147825565699089E-2
 9.710018500937525E6     9.855743476248623E-1   -2.245355344990766E-2    1.422302043922321E-2    4.255450273225089E-3    1.424342772278002E-2    4.164762327937869E-3    9.857495835187626E-1   -2.168134467493789E-2
 9.784104608396223E6     9.855865088102131E-1   -2.278233959289629E-2    1.418880069779771E-2    4.359629889779399E-3    1.424157560778273E-2    4.190294808234882E-3    9.857690913465802E-1   -2.187218563818609E-2
 9.858755982678859E6     9.856406945328358E-1   -2.301088070997580E-2    1.417262059845270E-2    4.443885225269670E-3    1.422578852739909E-2    4.275313669976733E-3    9.857290496359506E-1   -2.210300822969979E-2
 9.933976936693633E6     9.856301151935948E-1   -2.325027162969963E-2    1.415815494871756E-2    4.531623497838323E-3    1.421339951437196E-2    4.364300004282115E-3    9.857649841138448E-1   -2.230051834443094E-2
 1.000977181625571E7     9.856829812841581E-1   -2.351549497523265E-2    1.414529611375271E-2    4.619710584591086E-3    1.420112909514807E-2    4.451374827371362E-3    9.857973085030852E-1   -2.251091068543768E-2
 1.008614500033817E7     9.856762705512950E-1   -2.371239417499952E-2    1.412673413262568E-2    4.708226221624316E-3    1.418637908147821E-2    4.537068131272824E-3    9.858085130112161E-1   -2.273189273006540E-2
 1.016310090132507E7     9.857439413656462E-1   -2.393314407020702E-2    1.411515646268640E-2    4.797007776919294E-3    1.417448610626396E-2    4.626980240579841E-3    9.858284227406786E-1   -2.299050045391193E-2
 1.024064396526634E7     9.856700439878264E-1   -2.408994659603029E-2    1.412028765339663E-2    4.875160235556537E-3    1.414678685578729E-2    4.784366546031306E-3    9.858096518539892E-1   -2.324948160782427E-2
 1.031877867213467E7     9.856995705247270E-1   -2.432516053350379E-2    1.410525587278420E-2    4.966097380305351E-3    1.412923403178333E-2    4.876745116995233E-3    9.858350607822658E-1   -2.348345972531656E-2
 1.039750953608436E7     9.857601624663982E-1   -2.454124215108808E-2    1.409093429336092E-2    5.056689362015380E-3    1.411893645490159E-2    4.967596855880506E-3    9.858529951525560E-1   -2.367366669278723E-2
 1.047684110571204E7     9.857283416065952E-1   -2.474829498936943E-2    1.407769708316220E-2    5.151035040297148E-3    1.410404396761864E-2    5.056817155931024E-3    9.858290330864093E-1   -2.391708477119444E-2
 1.055677796431950E7     9.857379427414656E-1   -2.503401116640449E-2    1.406305678519933E-2    5.240199188848927E-3    1.409072550548921E-2    5.149874148281807E-3    9.858424886148478E-1   -2.413423820745316E-2
 1.063732473017859E7     9.858311497542739E-1   -2.546389663280994E-2    1.400618861146763E-2    5.348510938220752E-3    1.415955662064705E-2    5.095150646420223E-3    9.858220671570471E-1   -2.438000413649221E-2
 1.071848605679777E7     9.858631979304894E-1   -2.572252810929259E-2    1.399309800253735E-2    5.440461276987264E-3    1.415210827384547E-2    5.186062737266319E-3    9.858361052066698E-1   -2.464273954522535E-2
 1.080026663319129E7     9.858339061213571E-1   -2.587899237403181E-2    1.399174665042321E-2    5.536461343939281E-3    1.409300307496092E-2    5.324340088245544E-3    9.858589888491104E-1   -2.486932071556910E-2
 1.088267118414987E7     9.858632183068342E-1   -2.614784003446753E-2    1.397983869324285E-2    5.628424314966038E-3    1.408240559501624E-2    5.418113149433010E-3    9.858839530287408E-1   -2.510250174317409E-2
 1.096570447051370E7     9.859139707520644E-1   -2.646503556587242E-2    1.395442178698868E-2    5.722285788400952E-3    1.411725363408149E-2    5.466432378511489E-3    9.858964226017449E-1   -2.534785768603058E-2
 1.104937128944762E7     9.858707544312801E-1   -2.670560049391883E-2    1.394065408337735E-2    5.815704117017670E-3    1.410884789491519E-2    5.558423777411191E-3    9.859249485823504E-1   -2.557981081307779E-2
 1.113367647471805E7     9.858803587820635E-1   -2.692934877064406E-2    1.392910819184520E-2    5.912511276859268E-3    1.409560128868444E-2    5.655462724048193E-3    9.859285054235268E-1   -2.582810482768225E-2
 1.121862489697252E7     9.857916134751505E-1   -2.693873301794657E-2    1.398247569356320E-2    5.978821043773386E-3    1.400217549353072E-2    5.938241941463713E-3    9.859560934124535E-1   -2.608417292469845E-2
 1.130422146402085E7     9.858192270742778E-1   -2.717658412581194E-2    1.396975339318098E-2    6.078869399912800E-3    1.398945598777192E-2    6.033353538410788E-3    9.859234274366758E-1   -2.638538213267828E-2
 1.139047112111875E7     9.858158189259174E-1   -2.744597030784713E-2    1.395717742159893E-2    6.173120413160729E-3    1.397546781738716E-2    6.134587149790816E-3    9.859477449888393E-1   -2.661182864408269E-2
 1.147737885125368E7     9.858358056151808E-1   -2.769042734380933E-2    1.394724694132466E-2    6.274709942973336E-3    1.396480625752700E-2    6.231191624734985E-3    9.860281451299282E-1   -2.685245372239479E-2
 1.156494967543242E7     9.858771798305070E-1   -2.797697091256082E-2    1.393516715291386E-2    6.371435068586523E-3    1.395334717178637E-2    6.328733884728687E-3    9.859696239037747E-1   -2.708998144414337E-2
 1.165318865297152E7     9.858402480559584E-1   -2.826545268954117E-2    1.391926670531702E-2    6.474965307587397E-3    1.393931097289062E-2    6.420024802867231E-3    9.859540777280560E-1   -2.734924565524645E-2
 1.174210088178934E7     9.859839297693436E-1   -2.872895011566678E-2    1.384443727163633E-2    6.594294906659251E-3    1.402810573863064E-2    6.338153425058625E-3    9.859682618718216E-1   -2.759128625099252E-2
 1.183169149870061E7     9.859809002836589E-1   -2.903329286655356E-2    1.383499031078964E-2    6.691742661448307E-3    1.402134023649630E-2    6.437201583191201E-3    9.860240275008749E-1   -2.783084562361439E-2
 1.192196567971337E7     9.859822061656653E-1   -2.928266196448789E-2    1.382443707929287E-2    6.794446108536375E-3    1.401421637811149E-2    6.536191197677383E-3    9.860378006803863E-1   -2.808562709181852E-2
 1.201292864032780E7     9.859712864286482E-1   -2.955462309467469E-2    1.381061376703610E-2    6.891780666332968E-3    1.400477160876003E-2    6.637214389573791E-3    9.860555377623634E-1   -2.833848660943280E-2
 1.210458563583766E7     9.859610094392416E-1   -2.979382319139798E-2    1.380083393247953E-2    6.995094918973212E-3    1.399614872038521E-2    6.735023580901071E-3    9.860261809364080E-1   -2.864387124482121E-2
 1.219694196163385E7     9.859455093335960E-1   -3.007173496365759E-2    1.378854417163353E-2    7.093932080268792E-3    1.398671808987363E-2    6.837970058874944E-3    9.860221445299875E-1   -2.890197050955506E-2
 1.229000295351040E7     9.858698528544528E-1   -3.023598476066352E-2    1.381666787460853E-2    7.196910806729911E-3    1.387476043076667E-2    7.063763381747713E-3    9.860566341242941E-1   -2.921360699204997E-2
 1.238377398797275E7     9.859404368316165E-1   -3.050959736470372E-2    1.380722218658185E-2    7.299886061422708E-3    1.386632623285799E-2    7.168675272664772E-3    9.860694035195302E-1   -2.946566939869052E-2
 1.247826048254829E7     9.859195045848558E-1   -3.079351337498250E-2    1.379624823517200E-2    7.403539052285163E-3    1.385513562894843E-2    7.270923724538357E-3    9.860353860029868E-1   -2.973716312660047E-2
 1.257346789609938E7     9.859782279456661E-1   -3.093421434930801E-2    1.382547894538725E-2    7.485185755889812E-3    1.384469919997713E-2    7.456682740786250E-3    9.860916550245561E-1   -3.002706117061801E-2
 1.266940172913885E7     9.859700442293903E-1   -3.121361103686112E-2    1.381512617627265E-2    7.591919952523460E-3    1.383390373361018E-2    7.562029342990184E-3    9.860572765547101E-1   -3.030555764498879E-2
 1.276606752414753E7     9.859507468815584E-1   -3.150193855656473E-2    1.380627071559098E-2    7.698030959384724E-3    1.382660521337225E-2    7.667290773916963E-3    9.860777610049752E-1   -3.060313245893389E-2
 1.286347086589479E7     9.859651466273377E-1   -3.179893044767741E-2    1.379714610711773E-2    7.804509897098324E-3    1.381745557923798E-2    7.774734269857146E-3    9.860503620622242E-1   -3.089753087454586E-2
 1.296161738176090E7     9.859612174984591E-1   -3.208898404964600E-2    1.378868458698108E-2    7.911892846452174E-3    1.380705195290001E-2    7.882630531971987E-3    9.860243213000967E-1   -3.116398045813634E-2
 1.306051274206230E7     9.859537162675407E-1   -3.239545563684761E-2    1.377842442638174E-2    8.018422469938537E-3    1.380145121281938E-2    7.989491130843948E-3    9.860277878683277E-1   -3.145133421339569E-2
 1.316016266037924E7     9.859349570447785E-1   -3.265278305497934E-2    1.376991741161263E-2    8.128989118140466E-3    1.379395969823602E-2    8.096142235937390E-3    9.860594718140251E-1   -3.172030605020072E-2
 1.326057289388563E7     9.859754093440669E-1   -3.300560417283949E-2    1.375011670808827E-2    8.247795363532052E-3    1.378056529027726E-2    8.187458861579160E-3    9.860770870626530E-1   -3.198878768868282E-2
 1.336174924368203E7     9.859394967147531E-1   -3.330908149728359E-2    1.374195274488513E-2    8.357127526541096E-3    1.377056097353894E-2    8.299253539165243E-3    9.860579279021371E-1   -3.230378317888910E-2
 1.346369755513046E7     9.859364633450745E-1   -3.356526954493414E-2    1.374705184377688E-2    8.457365978836930E-3    1.376739493875981E-2    8.429004817886554E-3    9.860744585064124E-1   -3.258396502119380E-2
 1.356642371819227E7     9.859104614241474E-1   -3.387672392112977E-2    1.373854363407357E-2    8.568287886546715E-3    1.376141290397968E-2    8.538628572060059E-3    9.860983190974677E-1   -3.287660061460013E-2
 1.366993366776852E7     9.859443472652211E-1   -3.416978827634219E-2    1.373140237301096E-2    8.680968771698352E-3    1.375323251036686E-2    8.648741223349537E-3    9.861116182221892E-1   -3.319315106057238E-2
 1.377423338404255E7     9.859360139534067E-1   -3.447994720197084E-2    1.372514802084929E-2    8.792850630605359E-3    1.374565141057047E-2    8.763206383631416E-3    9.860603228405204E-1   -3.349674734521006E-2
 1.387932889282586E7     9.859645528139886E-1   -3.493808246943161E-2    1.365939374408329E-2    8.930035638388296E-3    1.377826919116626E-2    8.742396083100883E-3    9.860939863076250E-1   -3.375511406805719E-2
 1.398522626590596E7     9.860285574507944E-1   -3.535742236309788E-2    1.362833145497979E-2    9.035717674936430E-3    1.387591617167581E-2    8.777085194012307E-3    9.861155646977589E-1   -3.404959315464624E-2
 1.409193162139728E7     9.860589186850863E-1   -3.567084970553952E-2    1.362206211178372E-2    9.149465270865780E-3    1.387248236597706E-2    8.889545760770969E-3    9.861203803947776E-1   -3.434528319453003E-2
 1.419945112409473E7     9.860045961295628E-1   -3.592894580346343E-2    1.363821299086842E-2    9.269039128490668E-3    1.376332433857135E-2    9.082486550014307E-3    9.861400467243622E-1   -3.463197323895388E-2
 1.430779098582953E7     9.859658130157776E-1   -3.622787580174997E-2    1.363039842670183E-2    9.383569015258714E-3    1.375932044749533E-2    9.198485463594719E-3    9.861505152126612E-1   -3.496643090920082E-2
 1.441695746582855E7     9.859692094832735E-1   -3.656206790567754E-2    1.362485701409723E-2    9.501571749244458E-3    1.375250598685294E-2    9.313860096935429E-3    9.861446625166028E-1   -3.527896655337997E-2
 1.452695687107559E7     9.860033544441353E-1   -3.687283533329971E-2    1.361803059842189E-2    9.619301879492141E-3    1.374877141777097E-2    9.432157977675819E-3    9.861445436498036E-1   -3.558315229996870E-2
 1.463779555667585E7     9.859912474520421E-1   -3.717393282042483E-2    1.361180522260261E-2    9.736222241833653E-3    1.374497738909574E-2    9.549184540438004E-3    9.861600969037216E-1   -3.590183685278084E-2
 1.474947992622320E7     9.859923069341027E-1   -3.750467390546768E-2    1.360461097736084E-2    9.854614070612965E-3    1.373996803587873E-2    9.666661771720701E-3    9.861303530782294E-1   -3.622581418480641E-2
 1.486201643216998E7     9.859651919732959E-1   -3.777752221068771E-2    1.362610560033479E-2    9.972937083518015E-3    1.368874595075049E-2    9.864868781684983E-3    9.861872860608157E-1   -3.653957729673393E-2
 1.497541157619987E7     9.859477220601345E-1   -3.820256117821932E-2    1.359497901304859E-2    1.009553583405924E-2    1.373177143196820E-2    9.905695373494649E-3    9.861327365182603E-1   -3.684913916671399E-2
 1.508967190960350E7     9.859482288016966E-1   -3.853499743129758E-2    1.358849805339603E-2    1.021546059257185E-2    1.372864014696787E-2    1.002569863862492E-2    9.861583980410208E-1   -3.719670175494934E-2
 1.520480403365694E7     9.859594624424757E-1   -3.885103291429200E-2    1.358257450318445E-2    1.033738173231066E-2    1.372570932828866E-2    1.014793409152247E-2    9.861442974433260E-1   -3.749985615157411E-2
 1.532081460000315E7     9.859364267098621E-1   -3.918865282207801E-2    1.357631548288466E-2    1.045800954265084E-2    1.372136260662459E-2    1.026688650562540E-2    9.861081530846293E-1   -3.784611064606457E-2
 1.543771031103615E7     9.860038020830265E-1   -3.952221138685464E-2    1.357250348400768E-2    1.058340913036698E-2    1.371898487318032E-2    1.039170368170423E-2    9.861406617986735E-1   -3.818886411536588E-2
 1.555549792028828E7     9.859722374311034E-1   -3.986237596247993E-2    1.356955357012084E-2    1.070686046581723E-2    1.371624046823399E-2    1.051506640060294E-2    9.861680462715975E-1   -3.851436741578501E-2
 1.567418423282054E7     9.859340512556882E-1   -4.013728519095082E-2    1.359149872173947E-2    1.083244353118343E-2    1.366129133392176E-2    1.071919111293334E-2    9.861230209367017E-1   -3.886559484733876E-2
 1.579377610561541E7     9.859623357416893E-1   -4.048197030124592E-2    1.358843026363271E-2    1.095716634409456E-2    1.365799760576879E-2    1.084701650136288E-2    9.861085918115063E-1   -3.920435554087869E-2
 1.591428044797338E7     9.859635469943073E-1   -4.082403383272108E-2    1.358415135534292E-2    1.108476813265034E-2    1.365512840590504E-2    1.097069346880800E-2    9.860684901221385E-1   -3.957756178233197E-2
 1.603570422191187E7     9.859405625623321E-1   -4.117719096777008E-2    1.358122645396788E-2    1.121071830220899E-2    1.365150186129729E-2    1.109915526616654E-2    9.860762745301601E-1   -3.989113017319842E-2
 1.615805444256752E7     9.859639761888418E-1   -4.151659357115373E-2    1.357698837899395E-2    1.134001264967203E-2    1.365068508366222E-2    1.122652356128470E-2    9.861011731853523E-1   -4.021418736416033E-2
 1.628133817860163E7     9.859186795205089E-1   -4.189241163275540E-2    1.357423219437657E-2    1.146813171433472E-2    1.364730764758850E-2    1.135610677088326E-2    9.861269361619740E-1   -4.056412900686505E-2
 1.640556255260818E7     9.859306803766834E-1   -4.228782587101188E-2    1.355933735622466E-2    1.159911970161623E-2    1.366338350788233E-2    1.145104181164080E-2    9.861145858078690E-1   -4.092429515314711E-2
 1.653073474152580E7     9.859431671147473E-1   -4.264420187873009E-2    1.355661261722513E-2    1.172981787397303E-2    1.366167068612780E-2    1.158249879055597E-2    9.861052591811366E-1   -4.129824387794927E-2
 1.665686197705204E7     9.859364841094721E-1   -4.303443770070100E-2    1.355334992016956E-2    1.186002059318581E-2    1.366250041798022E-2    1.171207232819168E-2    9.861092349668793E-1   -4.163441181701356E-2
 1.678395154606132E7     9.859263773384350E-1   -4.337912567429873E-2    1.355124062752698E-2    1.199266647390098E-2    1.366150292528895E-2    1.184295727885017E-2    9.860763287239922E-1   -4.200244745996195E-2
 1.691201079102603E7     9.859357801333468E-1   -4.381302106121764E-2    1.353297849869252E-2    1.212308846367241E-2    1.370204841316565E-2    1.192676067172248E-2    9.860872559206998E-1   -4.233478947837602E-2
 1.704104711044038E7     9.859146517174553E-1   -4.416272994822514E-2    1.353285843184583E-2    1.225634400084683E-2    1.370168511002949E-2    1.205948888546867E-2    9.860615747927907E-1   -4.272899181528423E-2
 1.717106795924834E7     9.859132594913388E-1   -4.453270347730050E-2    1.352965645329841E-2    1.239240041997689E-2    1.370243105380613E-2    1.219400059950827E-2    9.860812148675856E-1   -4.306640233989849E-2
 1.730208084927390E7     9.859717411874062E-1   -4.498419062513303E-2    1.350504926502895E-2    1.251402728726904E-2    1.384550546686581E-2    1.225367911695691E-2    9.860673592311621E-1   -4.345092784868382E-2
 1.743409334965526E7     9.858945248700046E-1   -4.529327907775782E-2    1.352764368952398E-2    1.266371280262188E-2    1.370617086456828E-2    1.246503321572280E-2    9.860444929354416E-1   -4.382990418390580E-2
 1.756711308728221E7     9.858930808515350E-1   -4.569524579601313E-2    1.352854235145958E-2    1.279962956446506E-2    1.370745264731028E-2    1.260058223394083E-2    9.860227127170382E-1   -4.420179849951620E-2
 1.770114774723655E7     9.858878852090447E-1   -4.607599870511453E-2    1.352591468870291E-2    1.293997014956839E-2    1.370986721591002E-2    1.273940200895351E-2    9.860571088233805E-1   -4.456347272271449E-2
 1.783620507323623E7     9.858723099754115E-1   -4.631064380030921E-2    1.359362065006110E-2    1.307542817437187E-2    1.362456442397735E-2    1.303807147211061E-2    9.860409917062750E-1   -4.498547107327453E-2
 1.797229286808272E7     9.858144801562273E-1   -4.675815501982726E-2    1.357667534996522E-2    1.322042232876961E-2    1.362554383231028E-2    1.315031737345059E-2    9.860380609797910E-1   -4.536211490790625E-2
 1.810941899411174E7     9.857943431138654E-1   -4.709546630322213E-2    1.359552669093855E-2    1.335515763342510E-2    1.362604835151518E-2    1.332011245136271E-2    9.860199779584603E-1   -4.571581232831387E-2
 1.824759137364766E7     9.858181367918417E-1   -4.752301579145124E-2    1.359561722859890E-2    1.349826517566520E-2    1.362769695151636E-2    1.346032782024027E-2    9.860049335093578E-1   -4.613969166904119E-2
 1.838681798946100E7     9.857969390009153E-1   -4.790935231601061E-2    1.359758685145209E-2    1.364315727362336E-2    1.362786445903939E-2    1.360436221623915E-2    9.859879046526062E-1   -4.650025195673052E-2
 1.852710688522972E7     9.857997561019202E-1   -4.850824064089675E-2    1.351816023138869E-2    1.378160245136025E-2    1.378158056141483E-2    1.354773189462912E-2    9.859900827714337E-1   -4.687423662031758E-2
 1.866846616600409E7     9.857414422225611E-1   -4.885677918395222E-2    1.353022139243881E-2    1.393243718406518E-2    1.372830205336101E-2    1.372781639038713E-2    9.859604701307281E-1   -4.728257259289894E-2
 1.881090399867451E7     9.857541622890955E-1   -4.914529129365658E-2    1.359325477048599E-2    1.407849858961108E-2    1.363455770256353E-2    1.402932026469108E-2    9.859718759350244E-1   -4.770596159884621E-2
 1.895442861244394E7     9.856892215236031E-1   -4.958335462045104E-2    1.359603170543230E-2    1.422717999736999E-2    1.363724761409259E-2    1.417581828814050E-2    9.859513641956492E-1   -4.811060044687016E-2
 1.909904829930285E7     9.857125973417078E-1   -4.998326378112601E-2    1.359839249091951E-2    1.437421848952717E-2    1.364078517683255E-2    1.432388094888152E-2    9.859475522460869E-1   -4.851321282786684E-2
 1.924477141450845E7     9.856945794953600E-1   -5.040594781223162E-2    1.360245076281845E-2    1.452409136075716E-2    1.364371558403013E-2    1.447238317187986E-2    9.859246456459398E-1   -4.891783352195255E-2
 1.939160637706759E7     9.856848521510290E-1   -5.080435987790869E-2    1.360580489554589E-2    1.467544849721644E-2    1.364677182220504E-2    1.462278859950774E-2    9.859012519843438E-1   -4.933659265375261E-2
 1.953956167022271E7     9.856697862867443E-1   -5.124634611846136E-2    1.360816290110268E-2    1.482520868104862E-2    1.365252389500462E-2    1.477330558227068E-2    9.858940655428937E-1   -4.975824230690806E-2
 1.968864584194249E7     9.856455539446953E-1   -5.170970444173211E-2    1.360227183911217E-2    1.498016617213255E-2    1.365777944701945E-2    1.490796639279922E-2    9.858773079866597E-1   -5.016083119305141E-2
 1.983886750541528E7     9.856209360458371E-1   -5.227811907024688E-2    1.354181615571102E-2    1.511572368257096E-2    1.383085581238268E-2    1.487762957123905E-2    9.858556221525940E-1   -5.056668995987022E-2
 1.999023533954688E7     9.856357597715402E-1   -5.270130388121558E-2    1.354621637707943E-2    1.526836425672174E-2    1.383699952414122E-2    1.503023165199585E-2    9.858377299571275E-1   -5.100642013452903E-2
 2.014275808946211E7     9.855897164603574E-1   -5.312011939613236E-2    1.354942915800171E-2    1.542375981401246E-2    1.384535249108575E-2    1.518385493214995E-2    9.858373571353037E-1   -5.144712033743418E-2
 2.029644456700960E7     9.856021708480818E-1   -5.359099730366580E-2    1.355547974230486E-2    1.557868706822307E-2    1.385377757706660E-2    1.533932616116227E-2    9.858307050847076E-1   -5.185217379945557E-2
 2.045130365127147E7     9.855934010404003E-1   -5.402594614554323E-2    1.356077763348008E-2    1.573650156214795E-2    1.386184523524346E-2    1.549607590297223E-2    9.858215107264329E-1   -5.226838419057526E-2
 2.060734428907584E7     9.856001614655974E-1   -5.445467957224610E-2    1.356618494895499E-2    1.589367261912986E-2    1.387008404385784E-2    1.565267932684992E-2    9.857760729429603E-1   -5.268708577316122E-2
 2.076457549551392E7     9.855334020256525E-1   -5.495270018581831E-2    1.357135113635532E-2    1.604998310523222E-2    1.387719456874180E-2    1.581090530873795E-2    9.857554631997292E-1   -5.316102995886621E-2
 2.092300635446098E7     9.855221529868805E-1   -5.536362509194022E-2    1.357744430181230E-2    1.621072952134887E-2    1.388979013171956E-2    1.597047924947681E-2    9.857403008721832E-1   -5.361521564978938E-2
 2.108264601910070E7     9.855009524935563E-1   -5.584072887690689E-2    1.358358776195240E-2    1.637140095562086E-2    1.389822807846050E-2    1.612945620041257E-2    9.857420862948633E-1   -5.402140010698464E-2
 2.124350371245464E7     9.855265937279848E-1   -5.614071554824190E-2    1.367552082176485E-2    1.655336866532262E-2    1.371398126297348E-2    1.651375783879207E-2    9.856941745914943E-1   -5.453742424106654E-2
 2.140558872791451E7     9.854838442959843E-1   -5.659673596129767E-2    1.368435736446794E-2    1.671649351693666E-2    1.372059185218039E-2    1.667768486318194E-2    9.857064628219369E-1   -5.494893142782400E-2
 2.156891042977939E7     9.854163904817317E-1   -5.715128650759111E-2    1.363105317216113E-2    1.687707206071600E-2    1.379340169027943E-2    1.671335206374184E-2    9.856829905875703E-1   -5.538905549574729E-2
 2.173347825379676E7     9.854005116004646E-1   -5.764717641128820E-2    1.363866743684125E-2    1.704389782826149E-2    1.380396437733861E-2    1.687866723137278E-2    9.856517676496108E-1   -5.587463009702014E-2
 2.189930170770744E7     9.853671361532094E-1   -5.811237199060346E-2    1.364633849891795E-2    1.720933820634517E-2    1.381528666621697E-2    1.704294742395756E-2    9.856393992484356E-1   -5.630868869197442E-2
 2.206639037179505E7     9.853344299181500E-1   -5.862323859917851E-2    1.365663417397190E-2    1.737651094157974E-2    1.382368785433343E-2    1.721039138634027E-2    9.855706043293854E-1   -5.679065553079229E-2
 2.223475389943947E7     9.853459449745025E-1   -5.896433233718613E-2    1.372621275956293E-2    1.754899760386026E-2    1.376687626328477E-2    1.750930943770357E-2    9.855822809319701E-1   -5.727838859386934E-2
 2.240440201767448E7     9.853563665553451E-1   -5.946657048097280E-2    1.373554837892870E-2    1.772095603677772E-2    1.377615787391638E-2    1.767899558992507E-2    9.855638713991361E-1   -5.776076790825580E-2
 2.257534452774993E7     9.852970317820503E-1   -5.996918327116513E-2    1.374452426569943E-2    1.789309511227061E-2    1.378653702868683E-2    1.784969805227379E-2    9.855363873487875E-1   -5.823370248284763E-2
 2.274759130569773E7     9.852882106935780E-1   -6.045733433186385E-2    1.375516936811761E-2    1.806594689908590E-2    1.379808411921937E-2    1.802422068141861E-2    9.854930457589908E-1   -5.870502271971745E-2
 2.292115230290256E7     9.852319436206767E-1   -6.098908001367086E-2    1.376629654973891E-2    1.823812499298250E-2    1.380906988339361E-2    1.819766695931265E-2    9.854830327065894E-1   -5.918302456235202E-2
 2.309603754667697E7     9.852131079562289E-1   -6.146931720073762E-2    1.377874424155219E-2    1.841311718617055E-2    1.382001856162913E-2    1.837166519573379E-2    9.854533228249445E-1   -5.968898478715131E-2
 2.327225714084021E7     9.851854843545680E-1   -6.199072976240046E-2    1.378889524606709E-2    1.859018224919242E-2    1.383051560864107E-2    1.854712603675269E-2    9.854202458106914E-1   -6.018267782700006E-2
 2.344982126630262E7     9.851237659572429E-1   -6.255580340417650E-2    1.375214120135221E-2    1.876458599328302E-2    1.388409839189919E-2    1.863099128764132E-2    9.854245393746232E-1   -6.060853996754598E-2
 2.362874018165328E7     9.850744891542134E-1   -6.309057567183178E-2    1.376367112546569E-2    1.894277025492702E-2    1.389698064611705E-2    1.880799513948990E-2    9.853776128921821E-1   -6.112449597072095E-2
 2.380902422375290E7     9.850447522196490E-1   -6.365054655925320E-2    1.374755628568733E-2    1.910552924688254E-2    1.402360936193598E-2    1.888508400847851E-2    9.853469866688197E-1   -6.161952532604121E-2
 2.399068380833123E7     9.850113991861543E-1   -6.418953115278475E-2    1.376091039838935E-2    1.928671386272239E-2    1.403974648393735E-2    1.906326432996593E-2    9.853171088389175E-1   -6.213263549886452E-2
 2.417372943058824E7     9.850317171420195E-1   -6.463664390253680E-2    1.380058200680177E-2    1.948455526891549E-2    1.393773906318805E-2    1.934770881626443E-2    9.852959095668711E-1   -6.263213280376924E-2
 2.435817166580120E7     9.849655777133621E-1   -6.515836026184289E-2    1.381311093352592E-2    1.966674137264703E-2    1.395213984781045E-2    1.953015587626932E-2    9.852732146317131E-1   -6.315229906121757E-2
 2.454402116993507E7     9.849314110766376E-1   -6.575217131816362E-2    1.379778534139673E-2    1.983527568320089E-2    1.408638788809262E-2    1.960913022046527E-2    9.852319893984520E-1   -6.367242906242390E-2
 2.473128868025839E7     9.848894722426378E-1   -6.627931550506101E-2    1.381316269003013E-2    2.001981246249899E-2    1.410278198467145E-2    1.979318229876994E-2    9.851899905357172E-1   -6.419750511086483E-2
 2.491998501596375E7     9.848453387331069E-1   -6.683927723529949E-2    1.382549557567897E-2    2.020579639085596E-2    1.411871689557772E-2    1.997977175317396E-2    9.851847828103486E-1   -6.470822954074737E-2
 2.511012107879237E7     9.848384222455000E-1   -6.727128429620456E-2    1.391775622857100E-2    2.041797035067944E-2    1.396290018444962E-2    2.037138768698138E-2    9.851081272662211E-1   -6.529204013335749E-2
 2.530170785366461E7     9.847838362278806E-1   -6.777632380103818E-2    1.393113755198603E-2    2.060748830514688E-2    1.397657421731972E-2    2.056240435366328E-2    9.850880242328244E-1   -6.580802721277690E-2
 2.549475640931404E7     9.847847411956491E-1   -6.831597575864250E-2    1.394368254405944E-2    2.080109082435352E-2    1.398956470214951E-2    2.075429338975726E-2    9.850319783567967E-1   -6.635121887563879E-2
 2.568927789892715E7     9.847581673330122E-1   -6.890811031791180E-2    1.395888883779932E-2    2.099599319170982E-2    1.400147505217426E-2    2.095045159004914E-2    9.850005224668092E-1   -6.688194112174732E-2
 2.588528356078789E7     9.846771246225050E-1   -6.946276651547059E-2    1.394568962945648E-2    2.119534102098728E-2    1.402722988595574E-2    2.111020550201310E-2    9.849596467183104E-1   -6.741584022156226E-2
 2.608278471892660E7     9.846534157456233E-1   -7.001101580675798E-2    1.398663235861361E-2    2.139826600206835E-2    1.403258055880913E-2    2.135436831140247E-2    9.849205676587734E-1   -6.797785175814232E-2
 2.628179278377446E7     9.846198360695565E-1   -7.056866684098957E-2    1.400943080686574E-2    2.160465555324084E-2    1.405668475388638E-2    2.155835673825219E-2    9.848641451249116E-1   -6.854411002164497E-2
 2.648231925282269E7     9.845550018500413E-1   -7.119250252551269E-2    1.398236840862310E-2    2.179867647875898E-2    1.413753500887968E-2    2.165563889409254E-2    9.848670983607901E-1   -6.903382086435370E-2
 2.668437571128672E7     9.845128674745393E-1   -7.175811543541677E-2    1.400724022857292E-2    2.199841848071699E-2    1.416215309880294E-2    2.185250303740791E-2    9.848287128011232E-1   -6.960870748846330E-2
 2.688797383277575E7     9.844835573157596E-1   -7.233845666343691E-2    1.402937331879398E-2    2.219902833777161E-2    1.418564343364649E-2    2.205125691599602E-2    9.847722503036104E-1   -7.016388158580177E-2
 2.709312537996687E7     9.844271621334210E-1   -7.292208198492185E-2    1.407900353478196E-2    2.240832398072734E-2    1.416587652481640E-2    2.232180728828523E-2    9.847538992369314E-1   -7.075844986321890E-2
 2.729984220528475E7     9.843874072942302E-1   -7.347769814426318E-2    1.410272542100732E-2    2.261304138477092E-2    1.418977557185947E-2    2.252531532205266E-2    9.847108262785079E-1   -7.132883710288165E-2
 2.750813625158667E7     9.843859134381115E-1   -7.406023754044859E-2    1.412593771157595E-2    2.282045553951748E-2    1.421442431591389E-2    2.273202091290836E-2    9.846795918411733E-1   -7.192190563588451E-2
 2.771801955285188E7     9.842721349454766E-1   -7.479944296431919E-2    1.409191991922007E-2    2.298481935994515E-2    1.452936208219490E-2    2.271806383373355E-2    9.846393273760128E-1   -7.246205938616999E-2
 2.792950423487763E7     9.842272527600866E-1   -7.533885161577976E-2    1.413609538195363E-2    2.321532814609815E-2    1.436130053669944E-2    2.302609302908487E-2    9.845965019328839E-1   -7.304894093522751E-2
 2.814260251597910E7     9.842171202028163E-1   -7.596772685591535E-2    1.416090131624806E-2    2.342431840321214E-2    1.438787409038038E-2    2.323325235069128E-2    9.845509184414791E-1   -7.363678897821140E-2
 2.835732670769557E7     9.841582836339972E-1   -7.657588882524263E-2    1.418638552908661E-2    2.363505977449155E-2    1.441590660757876E-2    2.344396980944175E-2    9.845340340617350E-1   -7.421070721523010E-2
 2.857368921550186E7     9.841284802270011E-1   -7.708391947022775E-2    1.427881575000914E-2    2.386519132490518E-2    1.432939802045039E-2    2.381662933066468E-2    9.844783507765806E-1   -7.484523266431482E-2
 2.879170253952448E7     9.840730119322842E-1   -7.771772165310130E-2    1.430377161608232E-2    2.408013584635330E-2    1.435615959935005E-2    2.402806849825480E-2    9.843899292422585E-1   -7.545583930741939E-2
 2.901137927526460E7     9.840451485624875E-1   -7.834358989670488E-2    1.433236537890576E-2    2.429312427016235E-2    1.438503812450922E-2    2.424344897762152E-2    9.843672291938594E-1   -7.606638764770493E-2
 2.923273211432508E7     9.839825406199056E-1   -7.901798459033567E-2    1.435920171431544E-2    2.451014413156513E-2    1.441062783190629E-2    2.445835506771877E-2    9.843067430548200E-1   -7.668880895357696E-2
 2.945577384514398E7     9.839352596068929E-1   -7.964142098141808E-2    1.438674244756009E-2    2.472682068067115E-2    1.444050999157535E-2    2.467599860311449E-2    9.842522771077156E-1   -7.729164684478747E-2
 2.968051735373363E7     9.838974527966962E-1   -8.027526795162264E-2    1.441521803328694E-2    2.494684072024472E-2    1.446668223005712E-2    2.489538831875299E-2    9.841971256569028E-1   -7.792956444945516E-2
 2.990697562442441E7     9.837981748460615E-1   -8.098726186241412E-2    1.440277970327858E-2    2.516404427471675E-2    1.453128634486238E-2    2.503637795771386E-2    9.841534353195834E-1   -7.855654675672838E-2
 3.013516174061584E7     9.837559318330993E-1   -8.157213831407341E-2    1.444615482006092E-2    2.539039331774095E-2    1.454003070248927E-2    2.529330631011793E-2    9.841119950550736E-1   -7.917092037338362E-2
 3.036508888553168E7     9.836663087817695E-1   -8.226145699142676E-2    1.446134376844641E-2    2.561153246186716E-2    1.459308442917868E-2    2.548528514634287E-2    9.840426494590360E-1   -7.981141342640843E-2
 3.059677034298190E7     9.836223062197897E-1   -8.290815811347753E-2    1.449157606458571E-2    2.583531000420450E-2    1.462429891598941E-2    2.570968660519933E-2    9.840096343148236E-1   -8.044783184517636E-2
 3.083021949813037E7     9.835045883475322E-1   -8.378174724232378E-2    1.448915158935291E-2    2.600527519471518E-2    1.516107587242696E-2    2.571877729866402E-2    9.839433751883827E-1   -8.108026039572090E-2
 3.106544983826748E7     9.834567923499753E-1   -8.442120325933600E-2    1.451997112964367E-2    2.623620314369812E-2    1.519963411159875E-2    2.594573780955706E-2    9.838804891951803E-1   -8.171474932912255E-2
 3.130247495359022E7     9.834873120824403E-1   -8.488337451220204E-2    1.462868146640407E-2    2.653200586546919E-2    1.468271245607972E-2    2.647191773120616E-2    9.838148638137394E-1   -8.239213822038466E-2
 3.154130853798668E7     9.834107924456233E-1   -8.558452193417257E-2    1.466202227206936E-2    2.676313933705709E-2    1.471822245448874E-2    2.670524852167639E-2    9.837366692205447E-1   -8.307786524358983E-2
 3.178196438982744E7     9.833395981960361E-1   -8.628849764982637E-2    1.469667470396060E-2    2.699731235509539E-2    1.475149946218315E-2    2.693927981953431E-2    9.836825277311422E-1   -8.374049924893585E-2
 3.202445641276293E7     9.832660747823099E-1   -8.697706272974133E-2    1.470241907203440E-2    2.722989051259821E-2    1.480525536248697E-2    2.712458542608270E-2    9.836284858367190E-1   -8.439256502538671E-2
 3.226879861652631E7     9.832175683577666E-1   -8.764601232707145E-2    1.476408922578874E-2    2.746850643859204E-2    1.482213052223921E-2    2.740937038667753E-2    9.835617449841801E-1   -8.509143565490786E-2
 3.251500511774320E7     9.830325848275576E-1   -8.853114068755352E-2    1.472306317347327E-2    2.765284211509973E-2    1.523706374191439E-2    2.735937643263484E-2    9.835290586312171E-1   -8.572197941913393E-2
 3.276309014074709E7     9.829538886926917E-1   -8.925330728864263E-2    1.475812022065314E-2    2.789256236913261E-2    1.527760525138664E-2    2.759676495074048E-2    9.834506153639646E-1   -8.639325452637710E-2
 3.301306801840112E7     9.828812564259098E-1   -8.998694471321100E-2    1.479646291176914E-2    2.813167518507961E-2    1.531815830155061E-2    2.783588409467291E-2    9.833954528361348E-1   -8.706757930903740E-2
 3.326495319292643E7     9.828389764104846E-1   -9.068908173880567E-2    1.483179282670245E-2    2.837591488249323E-2    1.536146234119446E-2    2.807536154319038E-2    9.833289533258136E-1   -8.778841272761391E-2
 3.351876021673609E7     9.828740551227538E-1   -9.124618063510952E-2    1.494627818845465E-2    2.867628059129756E-2    1.500563891158643E-2    2.861589048012909E-2    9.832294620495121E-1   -8.851683812084082E-2
 3.377450375327612E7     9.827988969265367E-1   -9.195685197021723E-2    1.498575859893271E-2    2.892432072995149E-2    1.504044137182578E-2    2.886179046504962E-2    9.831559109553740E-1   -8.921912090981263E-2
 3.403219857787284E7     9.826801325903932E-1   -9.274214692436900E-2    1.497676890190362E-2    2.915964172883988E-2    1.512213954055961E-2    2.901872580798640E-2    9.831002013461739E-1   -8.993559789438658E-2
 3.429185957858586E7     9.825876518709930E-1   -9.348020965721437E-2    1.501573798994156E-2    2.940647461968207E-2    1.515906572540127E-2    2.926774782852574E-2    9.830310373132966E-1   -9.065355137745933E-2
 3.455350175706909E7     9.825154471569991E-1   -9.422415739009207E-2    1.505127112682817E-2    2.965789208691895E-2    1.519564488708374E-2    2.951757519630786E-2    9.829467917941521E-1   -9.137498599771700E-2
 3.481714022943672E7     9.823381450710027E-1   -9.511785645542656E-2    1.505488669023014E-2    2.986235055161898E-2    1.560076686948753E-2    2.955481353127092E-2    9.828849067548222E-1   -9.208902026092824E-2
 3.508279022713681E7     9.822302108613385E-1   -9.590500418874513E-2    1.508508149593112E-2    3.011666457085325E-2    1.563524580001344E-2    2.980980407334378E-2    9.827947231033265E-1   -9.279768050840687E-2
 3.535046709783159E7     9.821582558899605E-1   -9.667652470260447E-2    1.511539070396787E-2    3.037794110010692E-2    1.566830205239433E-2    3.006933198193106E-2    9.827059946328890E-1   -9.354442251585651E-2
 3.562018630628331E7     9.820368717509321E-1   -9.741328526113509E-2    1.513859210716907E-2    3.064898983036679E-2    1.569501493125325E-2    3.034113786340535E-2    9.826059735204475E-1   -9.428706779045186E-2
 3.589196343524875E7     9.819079447338858E-1   -9.815554846949678E-2    1.516520257124725E-2    3.094133636487122E-2    1.572883190523246E-2    3.063258007450907E-2    9.825064932082913E-1   -9.499462384379516E-2
 3.616581418637872E7     9.818314314355319E-1   -9.888850420087718E-2    1.521448929489170E-2    3.124585926493122E-2    1.578788537284925E-2    3.093650930684642E-2    9.824327385527695E-1   -9.571051643168016E-2
 3.644175438112541E7     9.817843876761529E-1   -9.967436113395815E-2    1.528982278915759E-2    3.154094765885859E-2    1.586865266904581E-2    3.122648731316065E-2    9.823700242276107E-1   -9.645192682468251E-2
 3.671979996165685E7     9.817885917895607E-1   -1.003296741480068E-1    1.536941082665536E-2    3.184275978648159E-2    1.566997912297766E-2    3.161151985179174E-2    9.823124275398750E-1   -9.723884246223671E-2
 3.699996699177712E7     9.816987122524435E-1   -1.011199151904040E-1    1.543907884403792E-2    3.210965166275623E-2    1.573810388648535E-2    3.187684903017447E-2    9.822504723896122E-1   -9.799770566342872E-2
 3.728227165785540E7     9.816260100591385E-1   -1.019411281705758E-1    1.549872330149341E-2    3.237881697334527E-2    1.580305382145617E-2    3.214249855440375E-2    9.821729924932702E-1   -9.878113931157495E-2
 3.756673026976037E7     9.815394041773577E-1   -1.027616933711183E-1    1.555788202019432E-2    3.264608704442858E-2    1.586498294318236E-2    3.240833807288365E-2    9.820814436540447E-1   -9.957642305349199E-2
 3.785335926180276E7     9.815475960850774E-1   -1.034582027281568E-1    1.568274785206425E-2    3.295805756709058E-2    1.574417256821480E-2    3.288815833600390E-2    9.819622237947354E-1   -1.004234490008387E-1
 3.814217519368506E7     9.814797034039349E-1   -1.042860952019168E-1    1.573760557882241E-2    3.323343643913022E-2    1.580404083461587E-2    3.316458253000006E-2    9.818899986659601E-1   -1.011988187177950E-1
 3.843319475145779E7     9.813697007229689E-1   -1.051303998136333E-1    1.579663073520421E-2    3.351253602813218E-2    1.586096283677233E-2    3.344300354266738E-2    9.817870729849905E-1   -1.019868515682235E-1
 3.872643474848381E7     9.812840771019542E-1   -1.059574021922045E-1    1.585401546894780E-2    3.379465659678102E-2    1.591994372995225E-2    3.372567406885408E-2    9.816978896682734E-1   -1.027996777382534E-1
 3.902191212640966E7     9.811966251587131E-1   -1.067908056980725E-1    1.591224798217784E-2    3.407794597974542E-2    1.597948930708791E-2    3.400726434742841E-2    9.816094150835875E-1   -1.036085453394763E-1
 3.931964395614420E7     9.811053499495436E-1   -1.076403825169547E-1    1.597256424651774E-2    3.436310754131654E-2    1.604000920075981E-2    3.429325083810764E-2    9.815256996281616E-1   -1.044078266225517E-1
 3.961964743884522E7     9.809610806980629E-1   -1.085145838308167E-1    1.600086408895481E-2    3.464158478830173E-2    1.612884068192632E-2    3.451963337721296E-2    9.814379045585546E-1   -1.052536218392214E-1
 3.992193990691278E7     9.808539005773449E-1   -1.093862835792682E-1    1.606306507855309E-2    3.492983851906605E-2    1.619094570048019E-2    3.480793034802428E-2    9.813286212602800E-1   -1.060606379101146E-1
 4.022653882499073E7     9.806634886672519E-1   -1.103338455577027E-1    1.609164152499909E-2    3.518940050525941E-2    1.641728532407489E-2    3.494168106689018E-2    9.812520393395560E-1   -1.068561342477262E-1
 4.053346179097611E7     9.805613086608245E-1   -1.112102323310748E-1    1.615275076901043E-2    3.548368460305489E-2    1.648480606483414E-2    3.523269796666284E-2    9.811509985193134E-1   -1.077430663896219E-1
 4.084272653703488E7     9.804686086617513E-1   -1.120743497235785E-1    1.621577933777862E-2    3.577986503347920E-2    1.655174465180841E-2    3.552577625863639E-2    9.810583496045934E-1   -1.085875429329229E-1
 4.115435093062763E7     9.803102286531733E-1   -1.130550845345354E-1    1.628019018105921E-2    3.606022439243274E-2    1.678218990111030E-2    3.574197687846536E-2    9.809512965134102E-1   -1.094291694737540E-1
 4.146835297554084E7     9.801929937318712E-1   -1.139586966721554E-1    1.634630381659126E-2    3.636077208101719E-2    1.685146419929252E-2    3.604103854956618E-2    9.808408071433481E-1   -1.103020377767936E-1
 4.178475081292742E7     9.800491587041018E-1   -1.150478251619613E-1    1.643488588616355E-2    3.665135135340319E-2    1.735330529839874E-2    3.629707205723668E-2    9.807430591506960E-1   -1.111586387085506E-1
 4.210356272235513E7     9.799236183276109E-1   -1.159501799320389E-1    1.650435335067303E-2    3.695366228890868E-2    1.742900774092500E-2    3.660060454027790E-2    9.806192113316241E-1   -1.120345378267720E-1
 4.242480712286174E7     9.798161492747822E-1   -1.168662361791730E-1    1.657316020986752E-2    3.726439158973860E-2    1.750715061932490E-2    3.690459167737568E-2    9.805141653299934E-1   -1.129267184515837E-1
 4.274850257402029E7     9.797004337234732E-1   -1.177885926685353E-1    1.664508845281655E-2    3.757459521903402E-2    1.758518349206829E-2    3.721431927074190E-2    9.803960621942110E-1   -1.138231187672885E-1
 4.307466777701053E7     9.798044438184027E-1   -1.183103904654725E-1    1.675790698451910E-2    3.796317273683709E-2    1.683737232785893E-2    3.788455766873641E-2    9.802424397799999E-1   -1.147676308508178E-1
 4.340332157569963E7     9.794553441262799E-1   -1.196678052968700E-1    1.679159391212415E-2    3.820416519713513E-2    1.774334045088379E-2    3.783853921491176E-2    9.801724120405547E-1   -1.156004103225158E-1
 4.373448295773120E7     9.793166467950308E-1   -1.205876656710802E-1    1.686282136432673E-2    3.851984391129149E-2    1.782690913037183E-2    3.815334049763866E-2    9.800478008701523E-1   -1.165094656147786E-1
 4.406817105562137E7     9.792272473489798E-1   -1.213440315213595E-1    1.691066420978601E-2    3.885072899199157E-2    1.745581226063492E-2    3.851160355847054E-2    9.799202466261113E-1   -1.174349976548044E-1
 4.440440514786536E7     9.790949235167037E-1   -1.222935295576414E-1    1.698911104068518E-2    3.917380162197456E-2    1.753501082749224E-2    3.883065775320062E-2    9.797927244020211E-1   -1.183759524605327E-1
 4.474320466005030E7     9.789562542257249E-1   -1.232518601326691E-1    1.706493335605983E-2    3.949695681923839E-2    1.761470095677085E-2    3.915399464229954E-2    9.796628346766825E-1   -1.192884663115701E-1
 4.508458916597787E7     9.789042986829987E-1   -1.240804232776538E-1    1.715164652900854E-2    3.985540313908705E-2    1.742522413713866E-2    3.963364547545604E-2    9.795314922089940E-1   -1.202500081027263E-1
 4.542857838879555E7     9.787797731138982E-1   -1.250690850936877E-1    1.723398161978297E-2    4.018661904231177E-2    1.750646449075346E-2    3.996227819018151E-2    9.793987350073350E-1   -1.211905010812252E-1
 4.577519220213508E7     9.786494571322226E-1   -1.260864721797573E-1    1.731482501872969E-2    4.051662749830792E-2    1.758997249485354E-2    4.029277611729110E-2    9.792736519051457E-1   -1.221198415994002E-1
 4.612445063126191E7     9.785155658224047E-1   -1.270632414853993E-1    1.739572460114593E-2    4.085367708244217E-2    1.767528862972183E-2    4.062610949815528E-2    9.791387856327505E-1   -1.231098773077521E-1
 4.647637385423118E7     9.783592531230969E-1   -1.280103289946232E-1    1.747758026543599E-2    4.118872192842839E-2    1.775928005250712E-2    4.096198663282906E-2    9.790022634811295E-1   -1.240533061360227E-1
 4.683098220305377E7     9.781913951455605E-1   -1.290222413246546E-1    1.756143180713577E-2    4.152793366348576E-2    1.784673079113397E-2    4.130076782264278E-2    9.788500805897574E-1   -1.250418726524457E-1
 4.718829616487134E7     9.780535852205678E-1   -1.300575865825937E-1    1.764842867518880E-2    4.187233408916386E-2    1.793482072650039E-2    4.164160354453660E-2    9.787173009483653E-1   -1.260415621484869E-1
 4.754833638313931E7     9.778072928413706E-1   -1.312311112062195E-1    1.772697061825210E-2    4.218790850021619E-2    1.831478917007840E-2    4.182532492454984E-2    9.785827647715709E-1   -1.270047491076126E-1
 4.791112365881994E7     9.776489718793079E-1   -1.322462649067295E-1    1.781396904936812E-2    4.253393837080970E-2    1.840768156157603E-2    4.217316915959989E-2    9.784189474793779E-1   -1.279675443399508E-1
 4.827667895158397E7     9.774762333377868E-1   -1.332884162157583E-1    1.790339346747248E-2    4.288885802056885E-2    1.850288168066457E-2    4.252413155055598E-2    9.782621001699378E-1   -1.289936234847971E-1
 4.864502338102144E7     9.773290047272006E-1   -1.343043597354556E-1    1.799282525977933E-2    4.324551861309945E-2    1.860085507951354E-2    4.287748121390903E-2    9.781159805758900E-1   -1.300099996327698E-1
 4.901617822786229E7     9.771714520404045E-1   -1.353598443454989E-1    1.808836239640818E-2    4.360685591848854E-2    1.870128173113528E-2    4.323650847703633E-2    9.779648833053960E-1   -1.309993801723399E-1
 4.939016493520518E7     9.770062911703379E-1   -1.364160266910929E-1    1.818540216887366E-2    4.396764101861251E-2    1.880619556172050E-2    4.359266340607369E-2    9.778067156004874E-1   -1.320361577530461E-1
 4.976700510975666E7     9.768219643173844E-1   -1.374669955479392E-1    1.828263760413163E-2    4.433196892030798E-2    1.890694083904008E-2    4.395293138986441E-2    9.776431296662069E-1   -1.330512138186901E-1
 5.014672052307993E7     9.766630606066197E-1   -1.385453659877333E-1    1.838383394147284E-2    4.469811845216331E-2    1.901571749144662E-2    4.432014369976656E-2    9.774854519460828E-1   -1.340904755933290E-1
 5.052933311285146E7     9.764925788784273E-1   -1.396327775176583E-1    1.848739476573169E-2    4.506850257306291E-2    1.912300630518180E-2    4.468692991523129E-2    9.773239056812769E-1   -1.351466728613403E-1
 5.091486498412994E7     9.763170442542520E-1   -1.407165481565325E-1    1.859593278953152E-2    4.544178442580696E-2    1.923765350865912E-2    4.505768784909079E-2    9.771521672481982E-1   -1.361859854318475E-1
 5.130333841063219E7     9.761444556871479E-1   -1.418146225220838E-1    1.870397089956766E-2    4.581658701805789E-2    1.935930382657546E-2    4.543014594810606E-2    9.769846543308676E-1   -1.372639691480358E-1
 5.169477583602042E7     9.759726154828173E-1   -1.429139778413120E-1    1.881227030909486E-2    4.619267605745060E-2    1.947619675695332E-2    4.580430172517905E-2    9.768100466092542E-1   -1.383598426490867E-1
 5.208919987519933E7     9.758051223059796E-1   -1.440391848010638E-1    1.892564612941531E-2    4.657391266640754E-2    1.959312709512680E-2    4.618158326985012E-2    9.766361882821346E-1   -1.394386876950457E-1
 5.248663331562151E7     9.756065746560603E-1   -1.451562058465379E-1    1.903794545464086E-2    4.695363806292396E-2    1.971124323715445E-2    4.655733645538356E-2    9.764706501433488E-1   -1.404917014940866E-1
 5.288709911860541E7     9.754293901213836E-1   -1.462810419023491E-1    1.915084380027948E-2    4.733637613180981E-2    1.983549955155754E-2    4.693372829981048E-2    9.762763882527185E-1   -1.415926723790643E-1
 5.329062042066076E7     9.752271440519996E-1   -1.474004822004651E-1    1.926847279563854E-2    4.771992846479788E-2    1.995996611949493E-2    4.731969524260635E-2    9.760948656061481E-1   -1.426951588157157E-1
 5.369722053482568E7     9.750397347115889E-1   -1.485936265665331E-1    1.938966116520504E-2    4.811242327624479E-2    2.008461086838761E-2    4.770853340984375E-2    9.759021909259205E-1   -1.438297379400377E-1
 5.410692295201402E7     9.748476361552878E-1   -1.497241606808351E-1    1.950484836431277E-2    4.850167604504130E-2    2.020833814751404E-2    4.809398237705682E-2    9.757343280415928E-1   -1.449505864421127E-1
 5.451975134237129E7     9.746260571966733E-1   -1.508974006196298E-1    1.962703123700050E-2    4.889424252104808E-2    2.033674707255098E-2    4.848524779245440E-2    9.755067775981091E-1   -1.460800260327929E-1
 5.493572955664375E7     9.744167175420893E-1   -1.520902129665364E-1    1.974901955246682E-2    4.929172761256455E-2    2.046670057473451E-2    4.887909740969953E-2    9.753215963887562E-1   -1.471950474757008E-1
 5.535488162755510E7     9.742364448878411E-1   -1.532763356582220E-1    1.987198968567929E-2    4.969375175680003E-2    2.059953215128914E-2    4.927853331441057E-2    9.751220566679955E-1   -1.483459709867037E-1
 5.577723177119546E7     9.739951994626448E-1   -1.544470065054334E-1    1.999746660812307E-2    5.009642964629480E-2    2.073406802082401E-2    4.967757659184958E-2    9.749046311796523E-1   -1.495021366917239E-1
 5.620280438842070E7     9.737687019716540E-1   -1.556549243819941E-1    2.012731543558849E-2    5.050485483261894E-2    2.086978139638859E-2    5.008337553626872E-2    9.746909625208875E-1   -1.506665635480867E-1
 5.663162406626155E7     9.735567088258446E-1   -1.568542012159072E-1    2.025494807811574E-2    5.091573239181228E-2    2.101004250012706E-2    5.048957142939654E-2    9.744812415119787E-1   -1.518548191344651E-1
 5.706371557934452E7     9.733400575838984E-1   -1.581059675309343E-1    2.039091192214387E-2    5.132867132869191E-2    2.115136219354393E-2    5.090008458302130E-2    9.742607528728188E-1   -1.530277989735591E-1
 5.749910389132310E7     9.731031063226223E-1   -1.593304006291462E-1    2.052405424676419E-2    5.174758510880877E-2    2.129448203933724E-2    5.131547665959980E-2    9.740444487151073E-1   -1.542279838344097E-1
 5.793781415631992E7     9.728768030379377E-1   -1.605645401570175E-1    2.065798455967070E-2    5.216842691617832E-2    2.143967207236253E-2    5.173204213615114E-2    9.738056721609237E-1   -1.554264103767296E-1
 5.837987172038046E7     9.728408920156135E-1   -1.614193109529586E-1    2.090610496561761E-2    5.265235048062076E-2    2.104020246747423E-2    5.256769242476837E-2    9.735533128496316E-1   -1.566768055581608E-1
 5.882530212293670E7     9.725946761804048E-1   -1.627004335218821E-1    2.105025645224820E-2    5.307582643049751E-2    2.118610014863493E-2    5.299767885539390E-2    9.733111455635147E-1   -1.579142330147952E-1
 5.927413109828297E7     9.723423104593433E-1   -1.639422678073352E-1    2.119443825711347E-2    5.350795560739346E-2    2.133473830428275E-2    5.342595855722716E-2    9.730841033166469E-1   -1.591361877956068E-1
 5.972638457706322E7     9.721091689766129E-1   -1.651998009784272E-1    2.134495134278218E-2    5.394140374716880E-2    2.148510731184521E-2    5.386078875346226E-2    9.728502854929844E-1   -1.603628703059885E-1
 6.018208868776779E7     9.718547674754527E-1   -1.664769669417404E-1    2.149685268451984E-2    5.437782133603616E-2    2.163855694049407E-2    5.430141053776179E-2    9.726163689748395E-1   -1.616123560005887E-1
 6.064126975824468E7     9.715813760530232E-1   -1.677601234876101E-1    2.165118431708275E-2    5.481769517111364E-2    2.179754302352157E-2    5.473936052317082E-2    9.723611050933078E-1   -1.628768081908144E-1
 6.110395431721926E7     9.713369375082116E-1   -1.690409921127871E-1    2.180799508206221E-2    5.526237452009953E-2    2.195772487751088E-2    5.518401821403163E-2    9.720976808236156E-1   -1.641452382766418E-1
 6.157016909582742E7     9.710543946319000E-1   -1.703686454464981E-1    2.196870365967474E-2    5.570799490434777E-2    2.211914264643097E-2    5.562861225463750E-2    9.718425175310782E-1   -1.654240259079284E-1
 6.203994102916045E7     9.707888120122259E-1   -1.716991508405853E-1    2.213204599981044E-2    5.615474364248641E-2    2.228314209359346E-2    5.607852909382018E-2    9.715782769464367E-1   -1.667015755614821E-1
 6.251329725781982E7     9.704876992816396E-1   -1.730109258203244E-1    2.229484321328824E-2    5.660563152349312E-2    2.244958919886503E-2    5.653224530335008E-2    9.712941742680082E-1   -1.680079205392529E-1
 6.299026512948693E7     9.701932744253373E-1   -1.743698347765140E-1    2.246055340070015E-2    5.705943530465073E-2    2.261870688552186E-2    5.698798136553417E-2    9.710488349205486E-1   -1.692825153497845E-1
 6.347087220050172E7     9.699140384689967E-1   -1.757055986107163E-1    2.263121763499479E-2    5.751515658247931E-2    2.279118917849228E-2    5.744693861002113E-2    9.707690935761688E-1   -1.705967857712080E-1
 6.395514623745525E7     9.696261795897051E-1   -1.770628465988322E-1    2.280032196761980E-2    5.798050615342104E-2    2.296423989199170E-2    5.790811436931555E-2    9.704909792478844E-1   -1.719259265587421E-1
 6.444311521879433E7     9.693353943125743E-1   -1.784396592104358E-1    2.297326025519673E-2    5.844917786321651E-2    2.314081691013077E-2    5.837509545878609E-2    9.702060209255011E-1   -1.732674932508571E-1
 6.493480733643661E7     9.690269142132765E-1   -1.798268261709551E-1    2.315164773780401E-2    5.891620201227984E-2    2.331843239734682E-2    5.884482386043757E-2    9.698895234420183E-1   -1.746400174932271E-1
 6.543025099740107E7     9.687136422545547E-1   -1.812369235608438E-1    2.332842932907663E-2    5.938920417384808E-2    2.349823865661830E-2    5.931798911885520E-2    9.696061766817116E-1   -1.760019849413427E-1
 6.592947482544785E7     9.683295866605482E-1   -1.834003835280096E-1    2.328446221774041E-2    5.982365135344336E-2    2.492830582906803E-2    5.928518841298301E-2    9.693569064072859E-1   -1.772654768893193E-1
 6.643250766273243E7     9.680393154776242E-1   -1.848498557572608E-1    2.346566102476469E-2    6.031239522227660E-2    2.514714507201284E-2    5.976483471804672E-2    9.690650718702466E-1   -1.786634232595938E-1
 6.693937857147253E7     9.677155472043617E-1   -1.862635726561990E-1    2.363998880607148E-2    6.080061677593838E-2    2.535103132649365E-2    6.024616351705336E-2    9.687462928853364E-1   -1.800493665797100E-1
 6.745011683562562E7     9.673896375795551E-1   -1.876980852767040E-1    2.381681446460242E-2    6.129783197125897E-2    2.555220193774445E-2    6.074010523051293E-2    9.684045154653868E-1   -1.814273198780579E-1
 6.796475196258274E7     9.670560901674692E-1   -1.891499602303696E-1    2.400007529057186E-2    6.180972108238351E-2    2.576154575973699E-2    6.124507273208429E-2    9.680993228915729E-1   -1.828665405455941E-1
 6.848331368487169E7     9.667205742547982E-1   -1.906040459370714E-1    2.419042290861090E-2    6.232813809232404E-2    2.598146140065308E-2    6.175814856604862E-2    9.677627763402067E-1   -1.842849362813218E-1
 6.900583196187538E7     9.662582903624821E-1   -1.916894626543859E-1    2.444729711790697E-2    6.284426903682694E-2    2.548462464459854E-2    6.230475777945670E-2    9.674408780808974E-1   -1.856875570795151E-1
 6.953233698156311E7     9.658881789749738E-1   -1.931799590432594E-1    2.465024063571623E-2    6.335558127627390E-2    2.570240993722683E-2    6.281326820847430E-2    9.671262405828194E-1   -1.871013589151166E-1
 7.006285916223384E7     9.655447571101833E-1   -1.946507237294477E-1    2.486108553343888E-2    6.386509591678832E-2    2.593372173382583E-2    6.331382682582007E-2    9.667727080553523E-1   -1.885836721990868E-1
 7.059742915427396E7     9.651918712225401E-1   -1.961519540174962E-1    2.507864837144258E-2    6.438145256304424E-2    2.616300486841780E-2    6.382897985514127E-2    9.664090338589817E-1   -1.900418170160929E-1
 7.113607784192866E7     9.648421323147945E-1   -1.976406415665251E-1    2.529668986662659E-2    6.490029744725279E-2    2.639211870316568E-2    6.434582102525556E-2    9.660586547922626E-1   -1.915415659594433E-1
 7.167883634508467E7     9.644615047428104E-1   -1.991658623646888E-1    2.551771037802102E-2    6.542340931426503E-2    2.663076161674414E-2    6.486089227418432E-2    9.656873748410111E-1   -1.930378497033456E-1
 7.222573602107021E7     9.640886425938910E-1   -2.007611801645929E-1    2.573850045024790E-2    6.594873332284425E-2    2.686830596123044E-2    6.538359769218036E-2    9.653224051895621E-1   -1.945608654256327E-1
 7.277680846646504E7     9.636611673872749E-1   -2.022945849316307E-1    2.594919043891778E-2    6.648313306467712E-2    2.709769436823296E-2    6.591199902732073E-2    9.649395020420798E-1   -1.960510168843149E-1
 7.333208551892644E7     9.632661675342312E-1   -2.038800688566757E-1    2.616480892103688E-2    6.702786992294456E-2    2.733594311595389E-2    6.644991930653137E-2    9.645590537257568E-1   -1.975916917998056E-1
 7.389159925902925E7     9.628905336715993E-1   -2.054583726662262E-1    2.640440089175437E-2    6.757588837930277E-2    2.757752449364946E-2    6.700087023882385E-2    9.641965674393956E-1   -1.990951820251133E-1
 7.445538201211768E7     9.625096142381764E-1   -2.070321298639941E-1    2.665105258500048E-2    6.812682796376526E-2    2.783562752332466E-2    6.754466175130698E-2    9.637914657582074E-1   -2.006348348243839E-1
 7.502346635017487E7     9.621207117477231E-1   -2.086066264602105E-1    2.690121227002742E-2    6.867524636563421E-2    2.809602031591806E-2    6.809469847490431E-2    9.633859877480992E-1   -2.022014129589215E-1
 7.559588509370317E7     9.616982748248143E-1   -2.102490364687495E-1    2.714766389077307E-2    6.922875362328214E-2    2.836312992816584E-2    6.864405241732539E-2    9.629746692523750E-1   -2.038038423871966E-1
 7.617267131362079E7     9.612764016639108E-1   -2.118954509501693E-1    2.739807014093832E-2    6.978781804009121E-2    2.862835927473449E-2    6.919255076082630E-2    9.625744476148085E-1   -2.054073022276837E-1
 7.675385833317320E7     9.608354636122464E-1   -2.135389482053046E-1    2.763708861375707E-2    7.035263453654095E-2    2.889411002087255E-2    6.975524533874429E-2    9.621414809686301E-1   -2.069962007578036E-1
 7.733947972985649E7     9.603800598611878E-1   -2.151962407777318E-1    2.788532160568879E-2    7.092198451977830E-2    2.916487446094806E-2    7.032414090227197E-2    9.617342825134361E-1   -2.085873450976450E-1
 7.792956933735959E7     9.599366083166261E-1   -2.168515627390449E-1    2.814632728633878E-2    7.149659086251535E-2    2.944126406731487E-2    7.089620421451298E-2    9.612980994754985E-1   -2.102208350151673E-1
 7.852416124751715E7     9.594745139168382E-1   -2.185067426906052E-1    2.841346163183455E-2    7.207622084203576E-2    2.972108639052904E-2    7.147491602211058E-2    9.608498809784268E-1   -2.118691767345648E-1
 7.912328981227988E7     9.590228939158687E-1   -2.201239260295751E-1    2.867912373362569E-2    7.266576416454565E-2    3.000690915478957E-2    7.205733930814383E-2    9.603757302278435E-1   -2.134970088037488E-1
 7.972698964569975E7     9.585517341865674E-1   -2.218475609485821E-1    2.895361572265194E-2    7.326078583668176E-2    3.029667534100912E-2    7.264605645245852E-2    9.599062615195318E-1   -2.151570798777099E-1
 8.033529562592810E7     9.580812170021963E-1   -2.235829323016580E-1    2.923490088902801E-2    7.386286999360882E-2    3.059620446012053E-2    7.324372584358640E-2    9.594469625663152E-1   -2.168098079897186E-1
 8.094824289723292E7     9.575948546376684E-1   -2.253122593085129E-1    2.952866590800932E-2    7.447069919252121E-2    3.090487095118592E-2    7.384645592850879E-2    9.589830140042741E-1   -2.184847430352403E-1
 8.156586687202743E7     9.571171746790291E-1   -2.270300659546355E-1    2.982507824667753E-2    7.508163769994035E-2    3.121408654048990E-2    7.445241472889383E-2    9.584973937144770E-1   -2.201696906282681E-1
 8.218820323291673E7     9.565955353686545E-1   -2.287788303291665E-1    3.013199574735959E-2    7.569486695567997E-2    3.153007675672161E-2    7.506203595147856E-2    9.580431759523159E-1   -2.218991821580692E-1
 8.281528793475981E7     9.560663280015738E-1   -2.305296942159946E-1    3.044165002003221E-2    7.631538321878642E-2    3.185215383859896E-2    7.567567439643168E-2    9.575601604251434E-1   -2.236141862967023E-1
 8.344715720674579E7     9.556162905505871E-1   -2.323486198287618E-1    3.075580829019738E-2    7.694133118499796E-2    3.218632746284909E-2    7.629557657610929E-2    9.570404028535792E-1   -2.253537440885494E-1
 8.408384755448765E7     9.550991927649660E-1   -2.341210068181205E-1    3.107523130520857E-2    7.756933421625804E-2    3.251797881320453E-2    7.691685722788584E-2    9.565462773749505E-1   -2.271141049745583E-1
 8.472539576213124E7     9.545523017075679E-1   -2.359233225873203E-1    3.139168004739191E-2    7.819849888076887E-2    3.285025698877447E-2    7.754406755503165E-2    9.560391639296937E-1   -2.289009008005158E-1
 8.537183889448020E7     9.539800435015843E-1   -2.377224959422218E-1    3.171334065675954E-2    7.884779912670148E-2    3.318370364470732E-2    7.819083431697983E-2    9.555133205563126E-1   -2.306746575887625E-1
 8.602321429913802E7     9.534302847826296E-1   -2.395396670438088E-1    3.205806685041807E-2    7.950849110026821E-2    3.354638385130638E-2    7.884887022782865E-2    9.550044396697687E-1   -2.324619548662478E-1
 8.667955960866481E7     9.528671792313991E-1   -2.413681751391112E-1    3.240821323165967E-2    8.016047995315381E-2    3.391363103734520E-2    7.949681273047168E-2    9.544940754653131E-1   -2.342603603167512E-1
 8.734091274275188E7     9.522953770557269E-1   -2.432310388436423E-1    3.275546048941970E-2    8.081510152530391E-2    3.427499093142321E-2    8.015140569844481E-2    9.539517776463086E-1   -2.360840203180531E-1
 8.800731191041334E7     9.517257506517680E-1   -2.451012006895729E-1    3.311226587667954E-2    8.148917343060180E-2    3.464707093516232E-2    8.081950655089512E-2    9.533809982077240E-1   -2.379198125121786E-1
 8.867879561219153E7     9.511348592959449E-1   -2.469540570763494E-1    3.348273631455739E-2    8.216988336080776E-2    3.503277926555853E-2    8.149873481998060E-2    9.528497890771469E-1   -2.397654082957857E-1
 8.935540264238395E7     9.505726052520326E-1   -2.488588080897594E-1    3.387698510537212E-2    8.285753643572266E-2    3.543930888763214E-2    8.217488486019088E-2    9.522699291992545E-1   -2.416024436763307E-1
 9.003717209128250E7     9.499704538302728E-1   -2.507489710775782E-1    3.425771252234494E-2    8.351712991418922E-2    3.582317843002573E-2    8.283212038716382E-2    9.517125653066599E-1   -2.434651615421665E-1
 9.072414334743266E7     9.493742866082335E-1   -2.526781837612595E-1    3.466075987770820E-2    8.419701988054204E-2    3.624201579379410E-2    8.350716509390328E-2    9.511544808396059E-1   -2.453628044967693E-1
 9.141635609990983E7     9.487392349066923E-1   -2.546525021066759E-1    3.506659664119924E-2    8.488368159438606E-2    3.666194039561002E-2    8.418947604908186E-2    9.505494760267926E-1   -2.472667568049775E-1
 9.211385034061028E7     9.481184307299937E-1   -2.566126981778346E-1    3.548203622651565E-2    8.558068661650223E-2    3.709438545758156E-2    8.488237763577400E-2    9.499551785811392E-1   -2.492007767777572E-1
 9.281666636656430E7     9.474711122292729E-1   -2.585813325418214E-1    3.591744424189136E-2    8.627699032845722E-2    3.754032246010796E-2    8.557408335376904E-2    9.493605212275044E-1   -2.511629730235115E-1
 9.352484478226222E7     9.468427792558295E-1   -2.606016841973082E-1    3.635586066841921E-2    8.696464837969355E-2    3.798434557893587E-2    8.625394945702233E-2    9.487462841199209E-1   -2.531106180478305E-1
 9.423842650200106E7     9.461727360449718E-1   -2.626362105506443E-1    3.679418147745524E-2    8.765595504816047E-2    3.843618104397256E-2    8.693953451946979E-2    9.481046770206810E-1   -2.551049084238499E-1
 9.495745275224906E7     9.454842790742282E-1   -2.646596378378545E-1    3.723605206883953E-2    8.835050158908080E-2    3.889154357903576E-2    8.763317265520856E-2    9.474708192364906E-1   -2.571121307183036E-1
 9.568196507402541E7     9.447795084298424E-1   -2.667207732900210E-1    3.768519645907004E-2    8.906009011898523E-2    3.935088861584667E-2    8.833073802044351E-2    9.467702540866476E-1   -2.591074026778662E-1
 9.641200532530291E7     9.440064740105736E-1   -2.688013468541129E-1    3.813998295892339E-2    8.977268508026562E-2    3.981411519970651E-2    8.903589522306032E-2    9.460867568153368E-1   -2.611442548644511E-1
 9.714761568342420E7     9.432776311149085E-1   -2.708874357160420E-1    3.859919327121084E-2    9.049394103708044E-2    4.027826149775167E-2    8.975148853018070E-2    9.453580720204746E-1   -2.631612544627982E-1
 9.788883864753923E7     9.424896641532533E-1   -2.729803281486970E-1    3.907016804897998E-2    9.122416058779033E-2    4.076007572570725E-2    9.047662886020502E-2    9.446376817978590E-1   -2.652108420647535E-1
 9.863571704106140E7     9.417209920708840E-1   -2.751224130551281E-1    3.955038410246703E-2    9.196184696933496E-2    4.124728516987015E-2    9.120312691167912E-2    9.438993066662742E-1   -2.672688996071256E-1
 9.938829401413949E7     9.409125315742314E-1   -2.772394917430022E-1    4.003322299345390E-2    9.270390157003992E-2    4.173881375355045E-2    9.194130374376593E-2    9.431467849342126E-1   -2.693518655795960E-1
 1.001466130461536E8     9.401017803792782E-1   -2.794131206581921E-1    4.052935127680277E-2    9.346910030707012E-2    4.224013121617119E-2    9.269710044330395E-2    9.423597880163155E-1   -2.714062595218739E-1
 1.009107179482240E8     9.392518675394459E-1   -2.815678310183429E-1    4.104125605413115E-2    9.423769856862654E-2    4.276170759656676E-2    9.346672885788113E-2    9.415811119310259E-1   -2.735046964102988E-1
 1.016806528657447E8     9.383655469917593E-1   -2.837558963934496E-1    4.157573430375697E-2    9.501859342068388E-2    4.330628700992368E-2    9.423781519055015E-2    9.408153386903634E-1   -2.756116420364965E-1
 1.024564622809335E8     9.374787615735312E-1   -2.859657929176775E-1    4.212824087821259E-2    9.580302756215553E-2    4.386491749474042E-2    9.501411619120186E-2    9.400212753184588E-1   -2.777503713188168E-1
 1.032381910153997E8     9.365714372661618E-1   -2.881865741422709E-1    4.270279656665354E-2    9.659305230703016E-2    4.444638496045246E-2    9.579004331377737E-2    9.391885254923142E-1   -2.798903098953542E-1
 1.040258842327368E8     9.356318818225544E-1   -2.904196717749738E-1    4.330592763968671E-2    9.736802150879707E-2    4.505057178969375E-2    9.655464541704155E-2    9.383691791769038E-1   -2.820403862654249E-1
 1.048195874411304E8     9.346824685111133E-1   -2.926614247498842E-1    4.391171856056457E-2    9.812695134192079E-2    4.565601897442795E-2    9.730557429659216E-2    9.374929327694003E-1   -2.841953787088151E-1
 1.056193464959857E8     9.336825303563130E-1   -2.948883333144625E-1    4.451440043886262E-2    9.887895381960196E-2    4.625847389090114E-2    9.805157335744993E-2    9.366312678206485E-1   -2.863750669360122E-1
 1.064252076025801E8     9.326895469619398E-1   -2.971213391812793E-1    4.510223528926503E-2    9.963319752920903E-2    4.685398149338530E-2    9.879713746174233E-2    9.358018287707707E-1   -2.885574199560593E-1
 1.072372173187304E8     9.316776881861215E-1   -2.993681779977627E-1    4.568994721556766E-2    1.004193312745514E-1    4.744039033627313E-2    9.958292291714926E-2    9.349143200192129E-1   -2.907936327177776E-1
 1.080554225574824E8     9.306181655722545E-1   -3.016873500432735E-1    4.631690908087842E-2    1.012142884744868E-1    4.806630447282597E-2    1.003742864980753E-1    9.340360722571961E-1   -2.930218349848034E-1
 1.088798705898232E8     9.295639866003252E-1   -3.039547271060254E-1    4.695144717542363E-2    1.020194239339646E-1    4.870641818505010E-2    1.011708991519815E-1    9.331592036275869E-1   -2.952840624030446E-1
 1.097106090474096E8     9.284766302500704E-1   -3.062209872140707E-1    4.761862457514673E-2    1.028262191445011E-1    4.936624639931689E-2    1.019714597059608E-1    9.322203332134291E-1   -2.975844650387882E-1
 1.105476859253232E8     9.273968071848856E-1   -3.084944497821528E-1    4.831086333684287E-2    1.036108148804701E-1    5.005381863897836E-2    1.027550137731685E-1    9.312678508633181E-1   -2.998930333670138E-1
 1.113911495848395E8     9.263576463662981E-1   -3.107756891575411E-1    4.899341331808124E-2    1.043821261525073E-1    5.073811271984050E-2    1.035256152863218E-1    9.302723065506019E-1   -3.022220410756811E-1
 1.122410487562254E8     9.252981683181769E-1   -3.131244393618587E-1    4.965968424438630E-2    1.051624675990912E-1    5.141651140031344E-2    1.042997432568985E-1    9.292690561778083E-1   -3.045643512139788E-1
 1.130974325415529E8     9.242440860870237E-1   -3.155214262260193E-1    5.033050344091108E-2    1.059643156552556E-1    5.209422115185804E-2    1.050912284109002E-1    9.282590955277993E-1   -3.069322541089162E-1
 1.139603504175348E8     9.231700048151656E-1   -3.179581631119499E-1    5.102111226698468E-2    1.067819456057555E-1    5.279052140456193E-2    1.058984296516649E-1    9.272346330629231E-1   -3.092940537077092E-1
 1.148298522383858E8     9.220263027921912E-1   -3.204028202400708E-1    5.172659851974683E-2    1.075986418980550E-1    5.349606938119415E-2    1.067049514162173E-1    9.261960465321194E-1   -3.116898709292337E-1
 1.157059882387014E8     9.208916523668286E-1   -3.228728110783424E-1    5.243806961883558E-2    1.084279699382062E-1    5.420936224112811E-2    1.075233711042588E-1    9.251056000705190E-1   -3.140934120725035E-1
 1.165888090363587E8     9.196974571915647E-1   -3.253979035870410E-1    5.317220180774448E-2    1.092605841765850E-1    5.494081962607703E-2    1.083483731928191E-1    9.240204624381545E-1   -3.165521814145353E-1
 1.174783656354443E8     9.184452695923383E-1   -3.278963052973153E-1    5.392840675612019E-2    1.100810501673060E-1    5.569417833192847E-2    1.091636889422584E-1    9.228829964670403E-1   -3.189971072308502E-1
 1.183747094291968E8     9.172049833884578E-1   -3.303559357055302E-1    5.467512665722491E-2    1.108894755976144E-1    5.644296041486448E-2    1.099728059857023E-1    9.217689541861576E-1   -3.214590780370652E-1
 1.192778922029803E8     9.160626104314605E-1   -3.328828395219074E-1    5.539813396937629E-2    1.117373733511186E-1    5.717911739452980E-2    1.108115163207583E-1    9.206294467769484E-1   -3.239603135464128E-1
 1.201879661372721E8     9.148532676577430E-1   -3.354992910061166E-1    5.617215861668536E-2    1.126218855895562E-1    5.796208996537614E-2    1.116839307272455E-1    9.194476173865136E-1   -3.264910019587489E-1
 1.211049838106809E8     9.135864142872573E-1   -3.381013602644689E-1    5.698611291982126E-2    1.134717340634199E-1    5.879681836957600E-2    1.125095234566190E-1    9.181961298305297E-1   -3.289996296051939E-1
 1.220289982029829E8     9.123830415679838E-1   -3.407246918112400E-1    5.776382364360096E-2    1.143050409872392E-1    5.957691904523336E-2    1.133084938314230E-1    9.170108032169645E-1   -3.314871798259706E-1
 1.229600626981811E8     9.111305925975508E-1   -3.434282774146337E-1    5.852873831554346E-2    1.151884030536496E-1    6.033914090158787E-2    1.141619005122306E-1    9.158088230105035E-1   -3.340501397446899E-1
 1.238982310875929E8     9.098409128359207E-1   -3.461902391153792E-1    5.932531308844248E-2    1.161069581886684E-1    6.112322866679790E-2    1.150636910124851E-1    9.145798233129885E-1   -3.366526869310722E-1
 1.248435575729559E8     9.084663656314994E-1   -3.490020645942684E-1    6.017782239215615E-2    1.170457681907703E-1    6.196833633792795E-2    1.159860347513472E-1    9.132831882301650E-1   -3.392871382639464E-1
 1.257960967695579E8     9.070225589071931E-1   -3.517837678102163E-1    6.105955854727045E-2    1.179321664772217E-1    6.283537794789530E-2    1.168554911299687E-1    9.119297998303557E-1   -3.418722577828915E-1
 1.267559037093956E8     9.055812436206371E-1   -3.545570960323045E-1    6.192874160987447E-2    1.187869637456597E-1    6.369565521369128E-2    1.176807171735526E-1    9.106469844378378E-1   -3.444168803418907E-1
 1.277230338443520E8     9.041698908176513E-1   -3.574031163529017E-1    6.274102902136869E-2    1.197084611917683E-1    6.449947309940923E-2    1.185881752837616E-1    9.094209006334747E-1   -3.470708133949313E-1
 1.286975430493991E8     9.026984625656080E-1   -3.603058669031555E-1    6.360777456667357E-2    1.206979690826653E-1    6.536476509753807E-2    1.195672073530434E-1    9.081148437826604E-1   -3.498357421220963E-1
 1.296794876258291E8     9.011518289506967E-1   -3.632086967516353E-1    6.454922203776989E-2    1.216758471111695E-1    6.630319826163444E-2    1.205321001452146E-1    9.067082112889882E-1   -3.525917859125009E-1
 1.306689243045034E8     8.995797112870593E-1   -3.660720240045906E-1    6.550148474754101E-2    1.226326234346118E-1    6.725319387302887E-2    1.214647809600079E-1    9.052932967369954E-1   -3.553164147317188E-1
 1.316659102491341E8     8.980094366283856E-1   -3.689645086203426E-1    6.646255357905016E-2    1.235988137796594E-1    6.820272377176746E-2    1.224075379381565E-1    9.038790021839938E-1   -3.580748120604695E-1
 1.326705030595824E8     8.964478013709111E-1   -3.718854739532233E-1    6.744092105845745E-2    1.245802038120869E-1    6.916477824385696E-2    1.233687235472806E-1    9.024313875524828E-1   -3.608637761675100E-1
 1.336827607751903E8     8.948435294246616E-1   -3.748415567921430E-1    6.844698254669850E-2    1.255655742924998E-1    7.016785117577461E-2    1.243462065225717E-1    9.009633734839472E-1   -3.636836236324980E-1
 1.347027418781318E8     8.932091064311826E-1   -3.778386773224392E-1    6.947163414654482E-2    1.265420636879548E-1    7.118428541051494E-2    1.253121641249840E-1    8.994781116863455E-1   -3.665259070656944E-1
 1.357305052967905E8     8.915340576351535E-1   -3.808591623294442E-1    7.051911245336454E-2    1.275273457931214E-1    7.221816353007954E-2    1.262859429722518E-1    8.979193754372425E-1   -3.693835855162358E-1
 1.367661104091667E8     8.898392276610889E-1   -3.838972634705504E-1    7.157702183410060E-2    1.285047065768706E-1    7.327864259318494E-2    1.272586698834760E-1    8.962979080367349E-1   -3.722367312631825E-1
 1.378096170463071E8     8.880926178841955E-1   -3.869773558388357E-1    7.264997040300145E-2    1.294778336538565E-1    7.434790395508167E-2    1.282262280046253E-1    8.946909721593703E-1   -3.750810241412005E-1
 1.388610854957592E8     8.863259600731349E-1   -3.900821152248062E-1    7.371129712043512E-2    1.304641852068091E-1    7.541294605842257E-2    1.292064973448116E-1    8.931159258316461E-1   -3.779252182410615E-1
 1.399205765050585E8     8.844971487519626E-1   -3.931802314025865E-1    7.478204035292889E-2    1.314713850504093E-1    7.648952802696486E-2    1.302153183234459E-1    8.915360960886662E-1   -3.808400873620081E-1
 1.409881512852336E8     8.826639931832432E-1   -3.963207351971961E-1    7.586930916225076E-2    1.325131707562281E-1    7.759833570088202E-2    1.312467295594038E-1    8.898930912034285E-1   -3.838349075664539E-1
 1.420638715143470E8     8.808053334337147E-1   -3.994763929585630E-1    7.698621987810576E-2    1.335794824499595E-1    7.873239741137346E-2    1.322992191902715E-1    8.882013399770701E-1   -3.868322055583281E-1
 1.431477993410541E8     8.789128404701575E-1   -4.026434555811530E-1    7.813431492275021E-2    1.346518428610397E-1    7.989703816119026E-2    1.333631633867492E-1    8.864977209194180E-1   -3.898390346941676E-1
 1.442399973881980E8     8.769733085166688E-1   -4.058621578287649E-1    7.930465362048222E-2    1.357508697508663E-1    8.108954932313581E-2    1.344483798796717E-1    8.847483710094136E-1   -3.929300817974651E-1
 1.453405287564251E8     8.749813579591369E-1   -4.091166643590611E-1    8.052775605214194E-2    1.368756434620532E-1    8.233129620927851E-2    1.355574706482814E-1    8.829025360798675E-1   -3.960298247824973E-1
 1.464494570278296E8     8.729352136755905E-1   -4.123873733301600E-1    8.179960412288935E-2    1.379906215577831E-1    8.362249546032038E-2    1.366495285787385E-1    8.810087699698810E-1   -3.990870537716914E-1
 1.475668462696298E8     8.708360023616620E-1   -4.156827978094705E-1    8.309416888953268E-2    1.390907910819639E-1    8.493527977055727E-2    1.377276930041269E-1    8.790919843856377E-1   -4.021554436208612E-1
 1.486927610378684E8     8.686475709739705E-1   -4.190001096942004E-1    8.442752991762040E-2    1.401973873310159E-1    8.628057989197795E-2    1.388105466144062E-1    8.771288289714854E-1   -4.052735185065541E-1
 1.498272663811400E8     8.664375089448139E-1   -4.223098112395817E-1    8.578024656515219E-2    1.412956722801974E-1    8.765064304808684E-2    1.398875783448217E-1    8.751143349684137E-1   -4.084105680132975E-1
 1.509704278443526E8     8.641882594589707E-1   -4.256227966673932E-1    8.714808781619506E-2    1.423891005690409E-1    8.903099459426490E-2    1.409592056651310E-1    8.730425986732144E-1   -4.115384381018897E-1
 1.521223114725131E8     8.619086907356971E-1   -4.289420507432169E-1    8.850622302498092E-2    1.434962516859725E-1    9.041449105259623E-2    1.420372141585002E-1    8.709444793855059E-1   -4.146000084720904E-1
 1.532829838145407E8     8.595772526702646E-1   -4.323297562823322E-1    8.989529056189557E-2    1.446261506671199E-1    9.181477225515410E-2    1.431561902111063E-1    8.689231976504244E-1   -4.177120846199974E-1
 1.544525119271165E8     8.571578043751982E-1   -4.357080430503320E-1    9.131660226681315E-2    1.457964454571022E-1    9.326285539801317E-2    1.442978506786571E-1    8.668758952181014E-1   -4.209051379716182E-1
 1.556309633785520E8     8.546908133566299E-1   -4.391051773603195E-1    9.278393233874754E-2    1.469557379205724E-1    9.476219587440021E-2    1.454395284929835E-1    8.647784938042083E-1   -4.241952128073572E-1
 1.568184062526983E8     8.522205877634431E-1   -4.425234009135933E-1    9.426040654745307E-2    1.481403950359677E-1    9.628832615465029E-2    1.465912619690352E-1    8.626019803565775E-1   -4.275139166640772E-1
 1.580149091528745E8     8.496648877614056E-1   -4.460045258095248E-1    9.578178228931060E-2    1.493742862646891E-1    9.785546845908707E-2    1.477792121477464E-1    8.603574701158253E-1   -4.308472753153995E-1
 1.592205412058353E8     8.470197841543680E-1   -4.494624663287305E-1    9.738951539764107E-2    1.505905013427972E-1    9.950907869740697E-2    1.489633096271837E-1    8.580579041128812E-1   -4.342004763524041E-1
 1.604353720657634E8     8.442928498445791E-1   -4.528951580921166E-1    9.903823695879661E-2    1.517917131913601E-1    1.012159059967354E-1    1.501278800379888E-1    8.556606452842641E-1   -4.376191621861023E-1
 1.616594719182909E8     8.415325477833956E-1   -4.563615499876977E-1    1.007273596880529E-1    1.529736169844061E-1    1.029543313502794E-1    1.512662946393495E-1    8.531990138003483E-1   -4.410450246344373E-1
 1.628929114845590E8     8.387249200825279E-1   -4.597774717009295E-1    1.024389162786385E-1    1.541344968680756E-1    1.047131504240393E-1    1.523963703212959E-1    8.506543623999221E-1   -4.444826218058230E-1
 1.641357620253014E8     8.359203020428114E-1   -4.631438031624574E-1    1.041548852845998E-1    1.552831052322004E-1    1.064805452867448E-1    1.535091882363638E-1    8.480511327888588E-1   -4.479306092297228E-1
 1.653880953449593E8     8.330324232903186E-1   -4.666409827854252E-1    1.058964069122479E-1    1.564367972334628E-1    1.082559222731479E-1    1.546364676835484E-1    8.454213688123796E-1   -4.513796827458533E-1
 1.666499837958347E8     8.300666322347608E-1   -4.701536688926130E-1    1.076803339594534E-1    1.575884789922793E-1    1.100667364367353E-1    1.557626266719725E-1    8.427095598441106E-1   -4.548604595162196E-1
 1.679215002822650E8     8.270952577442808E-1   -4.737314667917856E-1    1.094869444577689E-1    1.587782747723326E-1    1.118833176105247E-1    1.569264752623986E-1    8.399525535597003E-1   -4.583791898196373E-1
 1.692027182648404E8     8.239975958621597E-1   -4.773528380522686E-1    1.113568594997112E-1    1.599779735830216E-1    1.137766522201215E-1    1.581126137492054E-1    8.370997724304151E-1   -4.619379340877302E-1
 1.704937117646426E8     8.207587145598330E-1   -4.809577952439272E-1    1.132677653494497E-1    1.611885122129668E-1    1.157263425829324E-1    1.592904161552376E-1    8.342139398009181E-1   -4.654946849606579E-1
 1.717945553675260E8     8.175054230497270E-1   -4.845549568006284E-1    1.152249288213471E-1    1.623767063756942E-1    1.177286622059856E-1    1.604456897312631E-1    8.312138215193183E-1   -4.690746687886909E-1
 1.731053242284249E8     8.141568380523834E-1   -4.881892137760493E-1    1.171834321485217E-1    1.635492966158719E-1    1.197262391256775E-1    1.615954812562710E-1    8.281611442966011E-1   -4.726263657279034E-1
 1.744260940756933E8     8.107429417962075E-1   -4.918699140162723E-1    1.191909740140680E-1    1.647687752328929E-1    1.217641419034514E-1    1.627771402985841E-1    8.249996324784105E-1   -4.762482966124573E-1
 1.757569412154842E8     8.072211619974748E-1   -4.955559163471421E-1    1.211938448311638E-1    1.659655616730980E-1    1.237918990666534E-1    1.639389727178290E-1    8.217187681326702E-1   -4.797804404096745E-1
 1.770979425361561E8     8.035361396528530E-1   -4.992992293910469E-1    1.232086687469613E-1    1.672264115098876E-1    1.258375802554554E-1    1.651684870275827E-1    8.184660973080510E-1   -4.833117218074471E-1
 1.784491755127131E8     7.996969851371707E-1   -5.030133822865849E-1    1.252948401553043E-1    1.685585727683749E-1    1.279532760420699E-1    1.664664224346078E-1    8.151840587717378E-1   -4.869342067532479E-1
 1.798107182112848E8     7.957456876372492E-1   -5.066388801540973E-1    1.274861264650865E-1    1.699164518103351E-1    1.301603858020014E-1    1.677846755214687E-1    8.117539928869733E-1   -4.905845790253679E-1
 1.811826492936349E8     7.916852081336891E-1   -5.102229701172587E-1    1.297348171317310E-1    1.712669969259536E-1    1.324174167870232E-1    1.691063244195896E-1    8.082134068847118E-1   -4.942339262641306E-1
 1.825650480217040E8     7.875339242152053E-1   -5.137704336090353E-1    1.320918311451395E-1    1.726063726828399E-1    1.348091091684611E-1    1.704078919480486E-1    8.045679592134168E-1   -4.979424704254077E-1
 1.839579942621904E8     7.832754868633066E-1   -5.172869240168538E-1    1.345153425942586E-1    1.739369902664361E-1    1.372444257145281E-1    1.716940254508739E-1    8.008198139662293E-1   -5.015996207100447E-1
 1.853615684911660E8     7.789380827800345E-1   -5.207441464516190E-1    1.369960730693993E-1    1.752386563453373E-1    1.397333272334422E-1    1.729534985211412E-1    7.970268872928089E-1   -5.052493923937668E-1
 1.867758517987237E8     7.745236872779117E-1   -5.242068522870441E-1    1.394776226284825E-1    1.765268576110042E-1    1.422172813562129E-1    1.741994749228945E-1    7.930920854831955E-1   -5.089827935672565E-1
 1.882009258936609E8     7.700087899528221E-1   -5.276631142939838E-1    1.420281797701846E-1    1.778664333666270E-1    1.447646891299308E-1    1.755094099453435E-1    7.890645802846926E-1   -5.126229964243486E-1
 1.896368731082037E8     7.653537341743943E-1   -5.310671889760609E-1    1.446290974911267E-1    1.791930428129602E-1    1.473643914162336E-1    1.768088080951117E-1    7.848881160448604E-1   -5.163311623742765E-1
 1.910837764027621E8     7.605770862290960E-1   -5.345087632744565E-1    1.472776724366926E-1    1.805393583552865E-1    1.500046012614471E-1    1.781273672291112E-1    7.806646519313721E-1   -5.199414651228043E-1
 1.925417193707203E8     7.556218227061909E-1   -5.379379919282130E-1    1.499507108441245E-1    1.819041196849605E-1    1.526706374592360E-1    1.794672555356983E-1    7.762872172968935E-1   -5.235735766506882E-1
 1.940107862432706E8     7.504332846908064E-1   -5.413073797863992E-1    1.526353770371105E-1    1.833216928048213E-1    1.553494513807862E-1    1.808693248130246E-1    7.717842587128106E-1   -5.271997712343858E-1
 1.954910618942780E8     7.449874871918541E-1   -5.445519935493822E-1    1.553516972072995E-1    1.849023421047335E-1    1.580652051339521E-1    1.824392471359515E-1    7.671551911939082E-1   -5.307193884285455E-1
 1.969826318451810E8     7.394239549886135E-1   -5.476346893769468E-1    1.583196624607261E-1    1.866169144324761E-1    1.610266159704207E-1    1.841307869345389E-1    7.626061972324835E-1   -5.342184670460428E-1
 1.984855822699381E8     7.337504811888922E-1   -5.503826604554722E-1    1.614191089937235E-1    1.883117643830838E-1    1.641163812873161E-1    1.858156945026771E-1    7.578804819202364E-1   -5.378405993000075E-1
 2.000000000000000E8     7.281443442611861E-1   -5.529902938924817E-1    1.646663149082297E-1    1.900962502450474E-1    1.673575123827583E-1    1.875821845108619E-1    7.529714699385406E-1   -5.414465360440514E-1
