#  HZ   S   RI   R     50.00 
! Rohde & Schwarz Vector Network Analyzer 
! Rohde-Schwarz,ZNLE6-2Port,1323001256200024,1.71.1.10-23.02.1.238
! Created: UTC 4/11/2025, 5:20:13 AM
! freq[Hz]                re:S11                  im:S11                  re:S21                  im:S21                  re:S12                  im:S12                  re:S22                  im:S22
 1.000000000000000E5     9.550310930328507E-1    3.657317780848843E-2    4.562190228370955E-2   -3.681033380786428E-2    4.567955629705688E-2   -3.685534079987177E-2    9.548330645612736E-1    3.639197745773993E-2
 1.007629862646662E5     9.551058398688167E-1    3.640294536141740E-2    4.552489845641650E-2   -3.666338709540426E-2    4.558444682443893E-2   -3.671352157229531E-2    9.549327585759074E-1    3.625864700327663E-2
 1.015317940097331E5     9.552052824466842E-1    3.625029688829025E-2    4.543660666041393E-2   -3.651674550381279E-2    4.549824338700912E-2   -3.656230887746582E-2    9.549968403202392E-1    3.611956536456114E-2
 1.023064676522963E5     9.552500917683017E-1    3.610860600435112E-2    4.534614316270830E-2   -3.637245065532105E-2    4.540555575783453E-2   -3.642251276533272E-2    9.550906414775309E-1    3.596990354977977E-2
 1.030870519483485E5     9.553178712581892E-1    3.594351996603947E-2    4.525556516755863E-2   -3.623235692190554E-2    4.531418465236332E-2   -3.627586153628926E-2    9.551697243867308E-1    3.582674911977089E-2
 1.038735919953636E5     9.554010864366523E-1    3.579060751603225E-2    4.516178287930679E-2   -3.608902671931910E-2    4.522455506697715E-2   -3.613787942943120E-2    9.552702607208798E-1    3.566740518937534E-2
 1.046661332349037E5     9.554731007683017E-1    3.564570009700655E-2    4.507006593183840E-2   -3.594863602155195E-2    4.513359739595518E-2   -3.599799568383560E-2    9.553837184720607E-1    3.553456427714740E-2
 1.054647214552430E5     9.555908889401460E-1    3.550116137596183E-2    4.497962611876678E-2   -3.581102460323092E-2    4.504208023256334E-2   -3.585573917181518E-2    9.554474620148534E-1    3.539294521142034E-2
 1.062694027940149E5     9.556870915178660E-1    3.535963322999394E-2    4.489029105679571E-2   -3.567364759551019E-2    4.495020127182140E-2   -3.572108203624411E-2    9.555364077596357E-1    3.524980447786563E-2
 1.070802237408760E5     9.557798880547160E-1    3.523586322694063E-2    4.480048684372517E-2   -3.553320490908501E-2    4.485970558855774E-2   -3.558136340558418E-2    9.556096708108009E-1    3.511176781006359E-2
 1.078972311401927E5     9.558658562504956E-1    3.509468655050701E-2    4.470843626389553E-2   -3.539466804187976E-2    4.476717090094709E-2   -3.544459014090052E-2    9.556871099268601E-1    3.499448148978279E-2
 1.087204721937475E5     9.559998979719976E-1    3.493188749021563E-2    4.461930788332825E-2   -3.526460607727905E-2    4.467426708447203E-2   -3.531389103378092E-2    9.557940482755337E-1    3.483468131531953E-2
 1.095499944634658E5     9.560419623139627E-1    3.481011847521874E-2    4.452666487575541E-2   -3.513053569112215E-2    4.458704399651039E-2   -3.517300137002762E-2    9.558882558039343E-1    3.472347115036821E-2
 1.103858458741646E5     9.561339609783585E-1    3.468347224743963E-2    4.442886735401398E-2   -3.499642264917615E-2    4.449528587919467E-2   -3.504449560270061E-2    9.559554999720852E-1    3.455782701514903E-2
 1.112280747163201E5     9.561889690845878E-1    3.454210966813965E-2    4.434222802828938E-2   -3.486190841098460E-2    4.440241230696539E-2   -3.491111567336706E-2    9.560441192298034E-1    3.443616212798156E-2
 1.120767296488583E5     9.562589317725128E-1    3.438763999577798E-2    4.424904043188934E-2   -3.472865402877854E-2    4.430789785164353E-2   -3.478005897071024E-2    9.561190363642940E-1    3.428225554157993E-2
 1.129318597019661E5     9.563511636293542E-1    3.426716978078136E-2    4.415296016432495E-2   -3.459809268826780E-2    4.421793360805824E-2   -3.464553114082521E-2    9.562110089874231E-1    3.415949207306102E-2
 1.137935142799240E5     9.564856694571127E-1    3.413966317157616E-2    4.406272750007544E-2   -3.446777941522524E-2    4.412275045321278E-2   -3.451979575827460E-2    9.563120079593862E-1    3.403193356504317E-2
 1.146617431639607E5     9.565610926448699E-1    3.399130201757482E-2    4.397307331952839E-2   -3.434144403135245E-2    4.402611213018719E-2   -3.438137706199878E-2    9.563652822740090E-1    3.392071315396647E-2
 1.155365965151286E5     9.566560951634374E-1    3.386986568726366E-2    4.388154975452794E-2   -3.421073855589973E-2    4.393404288303536E-2   -3.425641628793348E-2    9.564859527106143E-1    3.380155048720272E-2
 1.164181248772018E5     9.567304234896482E-1    3.373452967267197E-2    4.378641860109230E-2   -3.408512695115399E-2    4.384129947981435E-2   -3.413420989496394E-2    9.565575564097759E-1    3.365458051299901E-2
 1.173063791795965E5     9.568521115828926E-1    3.361680606645475E-2    4.369552683122387E-2   -3.396231101365377E-2    4.374624125599287E-2   -3.400238317316373E-2    9.566661150162571E-1    3.353178383511116E-2
 1.182014107403141E5     9.569416419397733E-1    3.347773943468759E-2    4.360225535390411E-2   -3.383494563920532E-2    4.365430563438210E-2   -3.387452901891644E-2    9.567394973863588E-1    3.341177282110303E-2
 1.191032712689044E5     9.570055565835470E-1    3.335690582146723E-2    4.350436256070656E-2   -3.370594432734187E-2    4.355926089337450E-2   -3.375292695211370E-2    9.568221788955047E-1    3.326816375957153E-2
 1.200120128694542E5     9.570999972512327E-1    3.322003920650118E-2    4.341199577268499E-2   -3.358648208566740E-2    4.346685396041659E-2   -3.362766878769352E-2    9.569356301779273E-1    3.316104438917319E-2
 1.209276880435975E5     9.571807095419820E-1    3.310940881334181E-2    4.332027864145275E-2   -3.346129015719563E-2    4.337281608722653E-2   -3.349947418071816E-2    9.570269542106922E-1    3.303248184203775E-2
 1.218503496935483E5     9.572723297906699E-1    3.297873554157898E-2    4.322621986981310E-2   -3.333748403834241E-2    4.327830598403438E-2   -3.338085651627779E-2    9.571052668154046E-1    3.290326566363344E-2
 1.227800511251578E5     9.573987325529492E-1    3.285761103676321E-2    4.313413329480687E-2   -3.321943525280519E-2    4.318862040824473E-2   -3.325810750167163E-2    9.571866964643310E-1    3.277127369331165E-2
 1.237168460509929E5     9.574653938635688E-1    3.272358256673495E-2    4.303916945857887E-2   -3.309956275941635E-2    4.309470855225303E-2   -3.313940189511095E-2    9.572935149172211E-1    3.266076180727809E-2
 1.246607885934402E5     9.575561044336042E-1    3.261519005615162E-2    4.294787893235011E-2   -3.297529740027747E-2    4.299668223068619E-2   -3.301741243387602E-2    9.573851793245307E-1    3.252236413602125E-2
 1.256119332878327E5     9.576268490920986E-1    3.248969920636104E-2    4.284482536808136E-2   -3.285716790741827E-2    4.290456362618610E-2   -3.289946929847004E-2    9.574618267194569E-1    3.241223076573636E-2
 1.265703350856002E5     9.577231894136091E-1    3.236224633519603E-2    4.275234734802284E-2   -3.273681478725320E-2    4.280829988489656E-2   -3.278068834454805E-2    9.575625647313734E-1    3.230131383534181E-2
 1.275360493574453E5     9.578384894247263E-1    3.223864522686939E-2    4.266163453383974E-2   -3.262048598064452E-2    4.271271512808259E-2   -3.266091152888616E-2    9.576499820470659E-1    3.217135333350331E-2
 1.285091318965405E5     9.578930869157573E-1    3.211954525873397E-2    4.256525430320971E-2   -3.250339398316036E-2    4.262412573375983E-2   -3.254316766270336E-2    9.577662804023115E-1    3.205975203036320E-2
 1.294896389217529E5     9.579675889976693E-1    3.199732457331279E-2    4.247132283521542E-2   -3.238513146258746E-2    4.252625846079992E-2   -3.242593235293926E-2    9.578375441442839E-1    3.195917875548752E-2
 1.304776270808914E5     9.580897481597316E-1    3.189583800006865E-2    4.237753707211678E-2   -3.227059392178768E-2    4.243111230961612E-2   -3.231148682288535E-2    9.579962794826355E-1    3.183298629245109E-2
 1.314731534539810E5     9.581857748471387E-1    3.178718755516327E-2    4.228735738447847E-2   -3.215375419007298E-2    4.233728654464365E-2   -3.219815925874429E-2    9.580826709095734E-1    3.171607815566659E-2
 1.324762755565583E5     9.582873609806724E-1    3.167859376452502E-2    4.218534579223749E-2   -3.204023209398987E-2    4.223905851094541E-2   -3.208252703872078E-2    9.581630077996555E-1    3.158526653399390E-2
 1.334870513429962E5     9.583928552248008E-1    3.152675488138699E-2    4.208891195991819E-2   -3.193227541605941E-2    4.214687884383708E-2   -3.196836752425677E-2    9.582868990016240E-1    3.149123471092396E-2
 1.345055392098512E5     9.584741703067521E-1    3.144110725008650E-2    4.199707026867080E-2   -3.181775513516612E-2    4.204737179014527E-2   -3.185364192741186E-2    9.583203217966153E-1    3.136917635022290E-2
 1.355317979992373E5     9.586048487422757E-1    3.131800615644553E-2    4.190089165930052E-2   -3.170263767763665E-2    4.195405543648541E-2   -3.173914240498375E-2    9.584389266605113E-1    3.126307080154823E-2
 1.365658870022265E5     9.586890706134061E-1    3.119667121466366E-2    4.180452539020418E-2   -3.158989425483023E-2    4.185768227713810E-2   -3.162689705997883E-2    9.585290471618021E-1    3.115093141713396E-2
 1.376078659622731E5     9.587824724573580E-1    3.108581232378475E-2    4.171043825908936E-2   -3.147822131144380E-2    4.176029599038909E-2   -3.151769581166472E-2    9.586322122985326E-1    3.102230873910229E-2
 1.386577950786655E5     9.589005588622130E-1    3.096512882451901E-2    4.161648692768097E-2   -3.137094209307596E-2    4.166671775974232E-2   -3.140548615737556E-2    9.587236936456003E-1    3.092227525765571E-2
 1.397157350100044E5     9.589527387509829E-1    3.085775409077651E-2    4.152022213265266E-2   -3.125808180125018E-2    4.157170078794986E-2   -3.129839463937495E-2    9.587815209468795E-1    3.078766091013784E-2
 1.407817468777081E5     9.590377290227234E-1    3.074452744737065E-2    4.142449480131571E-2   -3.114735560018402E-2    4.147443739629615E-2   -3.118335114863669E-2    9.589020845553942E-1    3.069526385553290E-2
 1.418558922695422E5     9.591382855642651E-1    3.064366336485567E-2    4.132624210163389E-2   -3.103936489150219E-2    4.137716360656327E-2   -3.107925427085872E-2    9.590172627287463E-1    3.058026411243597E-2
 1.429382332431784E5     9.592585172027140E-1    3.054144498704140E-2    4.123053087202447E-2   -3.093142247665940E-2    4.128159850751199E-2   -3.096856467904795E-2    9.591130596408427E-1    3.047756543580481E-2
 1.440288323297804E5     9.593633738909606E-1    3.042366976267308E-2    4.113392991831932E-2   -3.082301145653647E-2    4.118441041139357E-2   -3.085978262892423E-2    9.592080924016009E-1    3.037254007114094E-2
 1.451277525376154E5     9.594235561663866E-1    3.030224716152508E-2    4.103971385372580E-2   -3.071450060417258E-2    4.108720974506876E-2   -3.075209912820649E-2    9.593210689947131E-1    3.026362773188719E-2
 1.462350573556962E5     9.595199221258955E-1    3.021544187850266E-2    4.094362396001305E-2   -3.061097195193153E-2    4.099781746371161E-2   -3.064816085062978E-2    9.594285934456575E-1    3.015788375533393E-2
 1.473508107574468E5     9.596027202933022E-1    3.010254169406968E-2    4.084407567083094E-2   -3.050189499896486E-2    4.089879826620164E-2   -3.054015618406172E-2    9.594854113753901E-1    3.003959648379685E-2
 1.484750772044004E5     9.597108452582065E-1    2.998560744326363E-2    4.074446508407190E-2   -3.039411563178874E-2    4.080367762691924E-2   -3.043502838009763E-2    9.595669673496302E-1    2.993754568415876E-2
 1.496079216499225E5     9.598246899754169E-1    2.987918154509091E-2    4.065337445721072E-2   -3.028803301092554E-2    4.070144916570398E-2   -3.032865773712606E-2    9.596434803292729E-1    2.982659351352407E-2
 1.507494095429637E5     9.598767682635836E-1    2.976982482636524E-2    4.055540551268044E-2   -3.018231107369301E-2    4.060787850066251E-2   -3.022470677951040E-2    9.597612078755621E-1    2.973482731971708E-2
 1.518996068318418E5     9.599774581733108E-1    2.965440792767979E-2    4.046124865673775E-2   -3.008375297559513E-2    4.051139975404355E-2   -3.011777397553861E-2    9.598738854319885E-1    2.960507236499465E-2
 1.530585799680507E5     9.600345524473958E-1    2.954508471926266E-2    4.036389704049612E-2   -2.997807934550835E-2    4.041509246489880E-2   -3.001340419986265E-2    9.599457027418334E-1    2.951195926752590E-2
 1.542263959101001E5     9.601740522943755E-1    2.943931259702718E-2    4.026535058823019E-2   -2.987412816917435E-2    4.031457752317710E-2   -2.991465982324546E-2    9.600685338738154E-1    2.941746044594219E-2
 1.554031221273835E5     9.602292869225526E-1    2.932979407666424E-2    4.016716148406430E-2   -2.977394682541277E-2    4.022159001529253E-2   -2.980833997161597E-2    9.601709171139331E-1    2.929608384743431E-2
 1.565888266040779E5     9.603703044932720E-1    2.924109599415055E-2    4.007251121416553E-2   -2.966956612026906E-2    4.012547549733697E-2   -2.970741362079281E-2    9.602704347783092E-1    2.920427431979228E-2
 1.577835778430689E5     9.604481012647418E-1    2.913318043527309E-2    3.997607454353998E-2   -2.956893526064467E-2    4.002663934263776E-2   -2.960217751068253E-2    9.603526826712917E-1    2.910312194000571E-2
 1.589874448699104E5     9.605387635588319E-1    2.902545522708097E-2    3.987855892453206E-2   -2.946507394126802E-2    3.992922401963567E-2   -2.950381297453965E-2    9.604744139016780E-1    2.900088446188178E-2
 1.602004972368116E5     9.606630242504163E-1    2.893590749506393E-2    3.978163269279457E-2   -2.936625067210811E-2    3.983052731696556E-2   -2.940208346463145E-2    9.605523789639222E-1    2.889661192738765E-2
 1.614228050266550E5     9.607952613348070E-1    2.883873711823130E-2    3.968442794613612E-2   -2.926603719256406E-2    3.973400668896616E-2   -2.930127201216168E-2    9.606466495142302E-1    2.879728558814836E-2
 1.626544388570473E5     9.608490626421495E-1    2.874303050953122E-2    3.958666882361314E-2   -2.915931841751252E-2    3.963719913378262E-2   -2.920088401032641E-2    9.607338779673288E-1    2.868793387360703E-2
 1.638954698843964E5     9.609235110103637E-1    2.863125935107349E-2    3.948981417359965E-2   -2.906355201570327E-2    3.954302553900715E-2   -2.910053570945713E-2    9.608419028988820E-1    2.859508223057305E-2
 1.651459698080244E5     9.610343231670937E-1    2.852674095061928E-2    3.938898660145096E-2   -2.896581641569457E-2    3.944121079171192E-2   -2.900301793240915E-2    9.609355514250904E-1    2.847662219174953E-2
 1.664060108743095E5     9.611262821929936E-1    2.842048204824796E-2    3.929387876473044E-2   -2.886123547040810E-2    3.934604872597231E-2   -2.890304893689934E-2    9.610293838048700E-1    2.838627709300717E-2
 1.676756658808590E5     9.612162035455136E-1    2.832860003370258E-2    3.919743820388937E-2   -2.876570418712515E-2    3.924838191374018E-2   -2.880277001965221E-2    9.611297149811195E-1    2.829424721986963E-2
 1.689550081807175E5     9.613200453216514E-1    2.823376654156314E-2    3.909432745050420E-2   -2.867209485879788E-2    3.914962054117891E-2   -2.870551093817160E-2    9.612389873954360E-1    2.820459772978998E-2
 1.702441116866020E5     9.614269865268971E-1    2.812704915087662E-2    3.899845119604702E-2   -2.856893828324163E-2    3.905024958029735E-2   -2.860567297047823E-2    9.613368388400578E-1    2.809323279919110E-2
 1.715430508751738E5     9.615241411158361E-1    2.804100151232820E-2    3.890377509934383E-2   -2.847440119702396E-2    3.895527459446023E-2   -2.851169063408376E-2    9.614133710046764E-1    2.797476594875487E-2
 1.728519007913403E5     9.616245870393101E-1    2.792805762016155E-2    3.880635105591788E-2   -2.838087882219601E-2    3.885815781762727E-2   -2.841041533588330E-2    9.615038066592912E-1    2.790736953274384E-2
 1.741707370525927E5     9.617419425164744E-1    2.783514402888957E-2    3.871143862079812E-2   -2.828140602595873E-2    3.876165458628487E-2   -2.831621976332128E-2    9.615969153120776E-1    2.779731165035165E-2
 1.754996358533718E5     9.618385982209890E-1    2.775329894234159E-2    3.861394636600730E-2   -2.818352122430386E-2    3.866482331265145E-2   -2.822037724782780E-2    9.616750043019185E-1    2.768912635957276E-2
 1.768386739694722E5     9.619344758813126E-1    2.765267976015193E-2    3.851620042468189E-2   -2.808763712631831E-2    3.856151479496030E-2   -2.812223566598078E-2    9.617736659785271E-1    2.759130976401702E-2
 1.781879287624771E5     9.620330452076931E-1    2.753424024781125E-2    3.841535171714992E-2   -2.798937622939718E-2    3.847307992847623E-2   -2.802561890046801E-2    9.618956633015695E-1    2.749621840742272E-2
 1.795474781842276E5     9.621278277628152E-1    2.744772395477432E-2    3.831784353193519E-2   -2.789643879238300E-2    3.837014246447177E-2   -2.792977840368208E-2    9.619877075524914E-1    2.740140476106505E-2
 1.809174007813277E5     9.622205086124537E-1    2.734465915784134E-2    3.822427993509392E-2   -2.780081274184181E-2    3.827261647742663E-2   -2.783782477260180E-2    9.620913372657890E-1    2.731377608100577E-2
 1.822977756996804E5     9.623208540541325E-1    2.723829160818083E-2    3.812630899927513E-2   -2.770989595244380E-2    3.817681965160053E-2   -2.774103974752077E-2    9.621507573675285E-1    2.721388360702364E-2
 1.836886826890609E5     9.624280074831622E-1    2.715215403260255E-2    3.802887823883466E-2   -2.761188892467548E-2    3.808105843895018E-2   -2.764692632150890E-2    9.622671698673927E-1    2.711819665448106E-2
 1.850902021077247E5     9.625089847962731E-1    2.703821558439941E-2    3.792843346241797E-2   -2.751851315830155E-2    3.798089469260928E-2   -2.755440639031006E-2    9.623496337434623E-1    2.703567942943699E-2
 1.865024149270491E5     9.625971262723250E-1    2.695219094433674E-2    3.783380806194114E-2   -2.742615479249150E-2    3.788414029412771E-2   -2.746023308871868E-2    9.624683232550825E-1    2.692125160292575E-2
 1.879254027362132E5     9.627157076234558E-1    2.687487506901219E-2    3.774019277194369E-2   -2.733148971519643E-2    3.778542205480543E-2   -2.736682695263362E-2    9.625861135001786E-1    2.683325225470443E-2
 1.893592477469092E5     9.628164182822334E-1    2.671170128103928E-2    3.762551634247837E-2   -2.724458393772157E-2    3.767796092213811E-2   -2.726923764105836E-2    9.626401979033107E-1    2.676531155256010E-2
 1.908040327980933E5     9.629133327649682E-1    2.667851431469132E-2    3.754173738427504E-2   -2.714914425113047E-2    3.759121572310899E-2   -2.718096143054811E-2    9.627573675750134E-1    2.664790165940812E-2
 1.922598413607715E5     9.629692824973036E-1    2.657503172361611E-2    3.744663368719900E-2   -2.705466837757137E-2    3.749295468888268E-2   -2.708739843501983E-2    9.628533721019878E-1    2.654315906849319E-2
 1.937267575428232E5     9.630739422827542E-1    2.648353516816028E-2    3.734688308445294E-2   -2.696254543144837E-2    3.739375650439226E-2   -2.699505083236016E-2    9.629525620466957E-1    2.646134879756951E-2
 1.952048660938581E5     9.631991753726947E-1    2.638735269473243E-2    3.725327952032774E-2   -2.687050820550906E-2    3.729942092633391E-2   -2.690363542580624E-2    9.630311270478967E-1    2.636066895837058E-2
 1.966942524101142E5     9.632858387599238E-1    2.629278545083134E-2    3.715447409950168E-2   -2.677882118447933E-2    3.720246066981361E-2   -2.681127929648774E-2    9.631325187861710E-1    2.627041747350692E-2
 1.981950025393913E5     9.633678820657405E-1    2.619921543340772E-2    3.705989582158468E-2   -2.668699905639551E-2    3.710288101122299E-2   -2.671723783393636E-2    9.632370752707302E-1    2.616822195460030E-2
 1.997072031860212E5     9.634779806954838E-1    2.611367837809837E-2    3.696030804191579E-2   -2.659422191819458E-2    3.700847993912067E-2   -2.662584943521547E-2    9.633471128977396E-1    2.608508895593244E-2
 2.012309417158795E5     9.635594650733693E-1    2.599628223346643E-2    3.686141252662947E-2   -2.650479439331586E-2    3.691052493618848E-2   -2.653567606937427E-2    9.634125330310436E-1    2.597920204354462E-2
 2.027663061614301E5     9.636580147134021E-1    2.591554617913562E-2    3.676990420308957E-2   -2.641528194973373E-2    3.681429976452394E-2   -2.644610115409518E-2    9.635133675530654E-1    2.590207156145375E-2
 2.043133852268128E5     9.637296896763433E-1    2.582087726000466E-2    3.667087256134815E-2   -2.632389667829933E-2    3.671473682435192E-2   -2.635671289600782E-2    9.635804995657787E-1    2.579055876040033E-2
 2.058722682929675E5     9.638280542824177E-1    2.575083760576350E-2    3.657565810931199E-2   -2.623030590734620E-2    3.661841195686847E-2   -2.625973204562842E-2    9.636860638440867E-1    2.570288530390855E-2
 2.074430454227995E5     9.639322301763931E-1    2.563182362365481E-2    3.647805198094121E-2   -2.614205662942055E-2    3.652217583263100E-2   -2.616975212673424E-2    9.637485336913225E-1    2.560637188405444E-2
 2.090258073663807E5     9.640450216588364E-1    2.554767297651306E-2    3.637958686499938E-2   -2.605361180581020E-2    3.642294069124952E-2   -2.608118870943649E-2    9.638534673290401E-1    2.549367720990626E-2
 2.106206455661938E5     9.641486560614505E-1    2.544970276301012E-2    3.628676382513270E-2   -2.596243231099888E-2    3.632845159020427E-2   -2.599081729036052E-2    9.639667043995603E-1    2.542537819583728E-2
 2.122276521624151E5     9.642300430367629E-1    2.536720920516543E-2    3.618764736525466E-2   -2.587391274352376E-2    3.623262647781082E-2   -2.590249006829351E-2    9.640545698778971E-1    2.533220731260436E-2
 2.138469199982374E5     9.643525676047431E-1    2.527911530870618E-2    3.609067541011868E-2   -2.578333447566954E-2    3.613466328624900E-2   -2.581382406143863E-2    9.641499856258172E-1    2.523340423022365E-2
 2.154785426252357E5     9.644590184211480E-1    2.518924630486226E-2    3.599390178908559E-2   -2.569710810237579E-2    3.603969892320544E-2   -2.572224110918693E-2    9.642419247333232E-1    2.514633082036787E-2
 2.171226143087691E5     9.645317923154969E-1    2.507683967112221E-2    3.589894343597994E-2   -2.560425638505295E-2    3.594070241174391E-2   -2.563256527207812E-2    9.643171086525055E-1    2.504756792052088E-2
 2.187792300334291E5     9.646309750240722E-1    2.498552841721487E-2    3.580642952585932E-2   -2.552052833271085E-2    3.584586065344325E-2   -2.554500773806549E-2    9.644113825697845E-1    2.495509707049304E-2
 2.204484855085266E5     9.646999439175853E-1    2.489089725248372E-2    3.570708714992078E-2   -2.543081172190878E-2    3.575211595462632E-2   -2.545711415265010E-2    9.645287867795499E-1    2.485243978318987E-2
 2.221304771736209E5     9.648097651212371E-1    2.479875768472365E-2    3.561418269879060E-2   -2.534128505673995E-2    3.565678543766689E-2   -2.536659189558419E-2    9.645802712019796E-1    2.477017490504690E-2
 2.238253022040931E5     9.649167411569346E-1    2.471572009555591E-2    3.551514173802049E-2   -2.525269867126871E-2    3.556633451922376E-2   -2.528219946804098E-2    9.647104316944307E-1    2.468114379538584E-2
 2.255330585167579E5     9.649732394142858E-1    2.462855955839121E-2    3.542190113537432E-2   -2.516731595318122E-2    3.546556370617342E-2   -2.519103962972336E-2    9.647958301446223E-1    2.458782694050408E-2
 2.272538447755223E5     9.651000613592980E-1    2.455457729498731E-2    3.532542946204503E-2   -2.507180539829386E-2    3.537033040042583E-2   -2.510170802055022E-2    9.649251634979676E-1    2.451390323431278E-2
 2.289877603970853E5     9.651761892866318E-1    2.444445886394547E-2    3.523109709938309E-2   -2.498744869656233E-2    3.527297652483224E-2   -2.501090106036772E-2    9.650018534088614E-1    2.442255987637947E-2
 2.307349055566813E5     9.652901764765185E-1    2.435541736847420E-2    3.513471838038142E-2   -2.490440611941654E-2    3.517594231570970E-2   -2.492658652149103E-2    9.650563080601716E-1    2.431639737265655E-2
 2.324953811938693E5     9.653771446903743E-1    2.427115285860123E-2    3.504059188339231E-2   -2.481298642568925E-2    3.508638216680185E-2   -2.483880171896467E-2    9.651801650322303E-1    2.424076907686792E-2
 2.342692890183618E5     9.654608925064763E-1    2.417771706996206E-2    3.494543033443761E-2   -2.472255382567741E-2    3.499198728261663E-2   -2.475158313338188E-2    9.652838008902068E-1    2.415762941233339E-2
 2.360567315159030E5     9.655981402278886E-1    2.407863522411102E-2    3.485100060466164E-2   -2.463743748728813E-2    3.489781474633726E-2   -2.466222946229763E-2    9.653644357552786E-1    2.406271075686066E-2
 2.378578119541888E5     9.656791029478020E-1    2.399496363531191E-2    3.475715017697737E-2   -2.455196245024605E-2    3.480407259171347E-2   -2.457564461157282E-2    9.654298354208547E-1    2.396775309803282E-2
 2.396726343888348E5     9.657480707813144E-1    2.390307430776441E-2    3.466260032428457E-2   -2.445938505959148E-2    3.470876479352702E-2   -2.448922648686718E-2    9.655342707172879E-1    2.388059699520719E-2
 2.415013036693852E5     9.658366923853710E-1    2.382094099357286E-2    3.456711309519804E-2   -2.437522590725354E-2    3.461464368092677E-2   -2.440632303311976E-2    9.656489012000335E-1    2.380727949067834E-2
 2.433439254453724E5     9.659326006112802E-1    2.372524817566366E-2    3.447196556804151E-2   -2.428934031788413E-2    3.452113293935247E-2   -2.431651415483948E-2    9.657330436784968E-1    2.370449329805942E-2
 2.452006061724201E5     9.660538607952631E-1    2.364134879722518E-2    3.438498900020674E-2   -2.420515605580211E-2    3.442806424544271E-2   -2.422958644882514E-2    9.658241537096246E-1    2.362267835808004E-2
 2.470714531183934E5     9.661087395666402E-1    2.354488482948039E-2    3.428924366240647E-2   -2.411908998329803E-2    3.433387501688304E-2   -2.414343483034230E-2    9.659305825069950E-1    2.351577272109434E-2
 2.489565743695979E5     9.662127161549977E-1    2.345381839923642E-2    3.419453872631067E-2   -2.402900704013209E-2    3.423854991683428E-2   -2.405472140237787E-2    9.660276723684820E-1    2.344289342033396E-2
 2.508560788370214E5     9.663032911913076E-1    2.335770769768794E-2    3.410462356315971E-2   -2.394286934815325E-2    3.414761736203748E-2   -2.397163502220307E-2    9.661432303042728E-1    2.335310262619004E-2
 2.527700762626280E5     9.663616861877635E-1    2.326828650315629E-2    3.401228800963021E-2   -2.385873253759819E-2    3.405306823303956E-2   -2.388628391555799E-2    9.662087250457737E-1    2.326471094019170E-2
 2.546986772256976E5     9.664673824859020E-1    2.318057142421809E-2    3.391834660612074E-2   -2.377260411331611E-2    3.396336941797620E-2   -2.380195405977908E-2    9.662846461796820E-1    2.315721261783344E-2
 2.566419931492161E5     9.665569440897035E-1    2.309769230467211E-2    3.382675252872810E-2   -2.368381520481916E-2    3.387053242018217E-2   -2.371279476162986E-2    9.663820598804962E-1    2.307744714687865E-2
 2.586001363063102E5     9.666203980274586E-1    2.298272304794979E-2    3.373495782845804E-2   -2.359631996269464E-2    3.378041292247914E-2   -2.362857088871816E-2    9.664693329561256E-1    2.299691524143687E-2
 2.605732198267354E5     9.666998673717908E-1    2.290671403204090E-2    3.364417245818190E-2   -2.351337121353431E-2    3.368862921629139E-2   -2.354424723975277E-2    9.665813648541448E-1    2.290320386303388E-2
 2.625613577034118E5     9.668144348549743E-1    2.283235335392036E-2    3.355350694673823E-2   -2.342656032341776E-2    3.359879742873224E-2   -2.345853735989815E-2    9.666386034132550E-1    2.281740559243733E-2
 2.645646647990093E5     9.669108010698139E-1    2.273682372213841E-2    3.346164639409406E-2   -2.334397166782609E-2    3.350517352009272E-2   -2.337366922410494E-2    9.667411683523777E-1    2.274262636872766E-2
 2.665832568525859E5     9.669758244656617E-1    2.264792993362578E-2    3.337040063256207E-2   -2.325829025281017E-2    3.341332936710133E-2   -2.328829671852030E-2    9.668215871542628E-1    2.264366459342413E-2
 2.686172504862709E5     9.670462872842879E-1    2.256834738765971E-2    3.328033555156445E-2   -2.317182255536760E-2    3.332075133570426E-2   -2.319815783422994E-2    9.668822795181019E-1    2.255485066670900E-2
 2.706667632120051E5     9.671295604463633E-1    2.248636948140986E-2    3.319083839908844E-2   -2.308857045929288E-2    3.323278304810292E-2   -2.311671290914254E-2    9.670058089024178E-1    2.247680057188067E-2
 2.727319134383292E5     9.672133360797809E-1    2.239335406365877E-2    3.310120680305101E-2   -2.300051315367810E-2    3.314383441865356E-2   -2.303075297306457E-2    9.671223100459863E-1    2.237417310871388E-2
 2.748128204772244E5     9.673592123071225E-1    2.231626415994956E-2    3.301327795383469E-2   -2.291880082568264E-2    3.305300392270843E-2   -2.294989885903620E-2    9.671624677105496E-1    2.230809128812203E-2
 2.769096045510074E5     9.674633882573525E-1    2.223978928131439E-2    3.292712167580335E-2   -2.283193610742573E-2    3.296379670361359E-2   -2.286229833333856E-2    9.672399924259130E-1    2.220193731470021E-2
 2.790223867992730E5     9.675378679954790E-1    2.215052586122442E-2    3.284054497840450E-2   -2.275209225924234E-2    3.287682875324859E-2   -2.278172918981283E-2    9.673757893615135E-1    2.213122920159889E-2
 2.811512892858952E5     9.676247594514018E-1    2.204996769113265E-2    3.274754201531731E-2   -2.266543888931667E-2    3.278798995330356E-2   -2.269663516636122E-2    9.674307562877333E-1    2.204180231735166E-2
 2.832964350060779E5     9.677210736882642E-1    2.196995029396752E-2    3.265845926615246E-2   -2.258196650206273E-2    3.269956224835138E-2   -2.261267000780842E-2    9.675018320464240E-1    2.194853253545087E-2
 2.854579478934632E5     9.677556748569247E-1    2.188054445323354E-2    3.257359614587094E-2   -2.249635851468170E-2    3.261388080178262E-2   -2.252972360408131E-2    9.676078434006161E-1    2.185455632455978E-2
 2.876359528272883E5     9.678694038450484E-1    2.178658362219504E-2    3.248830529363671E-2   -2.241419124528482E-2    3.252338850667785E-2   -2.244292176449224E-2    9.676838801964580E-1    2.178043963492231E-2
 2.898305756396023E5     9.679846540287859E-1    2.169531079170021E-2    3.239856594856924E-2   -2.233196288231845E-2    3.243790320000026E-2   -2.236455226723050E-2    9.678006608274381E-1    2.168708839522375E-2
 2.920419431225354E5     9.680380298631939E-1    2.160993077629325E-2    3.231606234459289E-2   -2.224368838052259E-2    3.235206277431506E-2   -2.227926408886186E-2    9.678796863652627E-1    2.159390136464450E-2
 2.942701830356239E5     9.681335970629416E-1    2.153264817717562E-2    3.222916942025600E-2   -2.216677848954514E-2    3.226468469340863E-2   -2.219366016390736E-2    9.679954303179944E-1    2.152024472677143E-2
 2.965154241131938E5     9.682518075058063E-1    2.144684397169562E-2    3.214382845394730E-2   -2.208167555777280E-2    3.218233609216023E-2   -2.211169297077584E-2    9.681163217952078E-1    2.144962015838915E-2
 2.987777960717941E5     9.683071615030542E-1    2.136534013278114E-2    3.206115724124621E-2   -2.200120054431707E-2    3.209385344458494E-2   -2.202759966661131E-2    9.681836259224458E-1    2.135034596598731E-2
 3.010574296176943E5     9.684350140545145E-1    2.126813057269566E-2    3.197499619785776E-2   -2.191783389796641E-2    3.201025882270770E-2   -2.194804519302312E-2    9.682580733763880E-1    2.126472196354761E-2
 3.033544564544337E5     9.684774142900280E-1    2.119199097611617E-2    3.189070272034781E-2   -2.183600683438199E-2    3.192750394084070E-2   -2.187010713598229E-2    9.683608592321935E-1    2.117245038374882E-2
 3.056690092904338E5     9.685774989641251E-1    2.110207786325768E-2    3.180562814022690E-2   -2.175533221955137E-2    3.183856833122949E-2   -2.178461937975928E-2    9.684686422500115E-1    2.109910755632578E-2
 3.080012218466610E5     9.686629462218730E-1    2.102127488750916E-2    3.172556412635077E-2   -2.167412243199739E-2    3.175638600078663E-2   -2.170494438028732E-2    9.684954380540544E-1    2.101240504909042E-2
 3.103512288643551E5     9.687538008557566E-1    2.093559858257378E-2    3.164034832072177E-2   -2.159237555528582E-2    3.167318009364867E-2   -2.162077607424377E-2    9.685789838210294E-1    2.092878618435793E-2
 3.127191661128128E5     9.687951357826761E-1    2.084699639097438E-2    3.155627673637649E-2   -2.151110659891652E-2    3.159078798629886E-2   -2.154213751507928E-2    9.686868239325215E-1    2.084001574130079E-2
 3.151051703972316E5     9.688577178733764E-1    2.077084664916921E-2    3.147261452918600E-2   -2.142929787276539E-2    3.150792900110470E-2   -2.145825204120006E-2    9.687041591820943E-1    2.075162312337171E-2
 3.175093795666154E5     9.689074356299112E-1    2.067454578416428E-2    3.138826918708062E-2   -2.135050858961148E-2    3.142355565123735E-2   -2.138236883651600E-2    9.688057608332420E-1    2.066903163198546E-2
 3.199319325217355E5     9.689576159649228E-1    2.058277787256295E-2    3.130583464207583E-2   -2.127056951209525E-2    3.133815819641258E-2   -2.129730719678817E-2    9.688500401787691E-1    2.058627820627760E-2
 3.223729692231574E5     9.690710183215040E-1    2.050597804764907E-2    3.122826192347075E-2   -2.119068212850047E-2    3.125769794209731E-2   -2.121598997628413E-2    9.689409342084327E-1    2.049223514407264E-2
 3.248326306993267E5     9.691447119926985E-1    2.040804800084573E-2    3.114533078418653E-2   -2.111400240687704E-2    3.117777315932684E-2   -2.113828839247782E-2    9.690568893085596E-1    2.043616509406802E-2
 3.273110590547157E5     9.692285285808111E-1    2.032288183872925E-2    3.106396814676026E-2   -2.103217213145122E-2    3.109723023412263E-2   -2.105948649072137E-2    9.691503133899566E-1    2.032453510258256E-2
 3.298083974780366E5     9.693806514406755E-1    2.025722615318241E-2    3.098447870099770E-2   -2.095060539166696E-2    3.101818284126773E-2   -2.097907518769255E-2    9.692020939676896E-1    2.025339528635360E-2
 3.323247902505097E5     9.694522467950318E-1    2.016917095198401E-2    3.090246905643364E-2   -2.087483336293147E-2    3.093496621868602E-2   -2.089743084778225E-2    9.693050534971367E-1    2.017356505947879E-2
 3.348603827542018E5     9.695014351683597E-1    2.009639098869028E-2    3.082280927027682E-2   -2.079697042932769E-2    3.085625112930876E-2   -2.082570162276690E-2    9.693772942203840E-1    2.008842390369303E-2
 3.374153214804250E5     9.695790440964546E-1    2.001470444107492E-2    3.074651878558846E-2   -2.071716953865628E-2    3.076949706702594E-2   -2.074319918352531E-2    9.694310272313336E-1    2.000886566313424E-2
 3.399897540381991E5     9.696807215943354E-1    1.991861447357846E-2    3.066732523526208E-2   -2.064174343694418E-2    3.069824789690759E-2   -2.066634833166851E-2    9.695561726718177E-1    1.991982582892077E-2
 3.425838291627830E5     9.697736754938748E-1    1.984108056185763E-2    3.058588758168207E-2   -2.056458359993895E-2    3.061631235133171E-2   -2.058785638780209E-2    9.696036454939256E-1    1.983800943254000E-2
 3.451976967242625E5     9.698431143665709E-1    1.976398760363060E-2    3.050571934229340E-2   -2.048366350501283E-2    3.053753751932924E-2   -2.051186396749816E-2    9.696591288038285E-1    1.975717801697277E-2
 3.478315077362126E5     9.699285751556852E-1    1.967905332433506E-2    3.042638093137823E-2   -2.040843045562201E-2    3.046017533521965E-2   -2.043141473578860E-2    9.697689006860675E-1    1.967435462852736E-2
 3.504854143644205E5     9.699712910691247E-1    1.959353390962019E-2    3.034869881821612E-2   -2.033293442547461E-2    3.038060659842829E-2   -2.035574100415748E-2    9.699000649554280E-1    1.960292135836620E-2
 3.531595699356794E5     9.700889296509043E-1    1.952309317260124E-2    3.027397429596668E-2   -2.025503617536023E-2    3.030288164311436E-2   -2.027769440222408E-2    9.699674405228667E-1    1.952357677206182E-2
 3.558541289466428E5     9.701558021794522E-1    1.943484139306531E-2    3.019557976739367E-2   -2.017878745449354E-2    3.022156096403256E-2   -2.020273936902094E-2    9.700195675722245E-1    1.943494399595378E-2
 3.585692470727532E5     9.701908977612851E-1    1.935447300817719E-2    3.012005627858967E-2   -2.010366634629466E-2    3.014318301461349E-2   -2.012601414636405E-2    9.700923074779574E-1    1.935493195347415E-2
 3.613050811772345E5     9.702797997320234E-1    1.927769977734891E-2    3.004178989846393E-2   -2.002693310126476E-2    3.006976631153195E-2   -2.004801773622486E-2    9.701653531685823E-1    1.927470377504952E-2
 3.640617893201578E5     9.703807904468307E-1    1.919457668172115E-2    2.996456039060379E-2   -1.995103315188899E-2    2.999087514992254E-2   -1.997348230434004E-2    9.702296946613895E-1    1.919409464210030E-2
 3.668395307675686E5     9.704632733411831E-1    1.912232608733359E-2    2.988862888903344E-2   -1.988113918768834E-2    2.991670977396254E-2   -1.989697171722856E-2    9.702816963200409E-1    1.910442885109266E-2
 3.696384660006910E5     9.705015869778679E-1    1.903996688212264E-2    2.981209267295066E-2   -1.980836948488713E-2    2.983848888896002E-2   -1.982544261292381E-2    9.703688540219608E-1    1.903097445806412E-2
 3.724587567251991E5     9.706090118689857E-1    1.895511697243520E-2    2.973773355812899E-2   -1.973186823139420E-2    2.976262231832684E-2   -1.975385003399556E-2    9.704474801966768E-1    1.895300692312032E-2
 3.753005658805580E5     9.706999407027463E-1    1.887886951745784E-2    2.965989160926633E-2   -1.965814307970620E-2    2.968750482998236E-2   -1.967534312963066E-2    9.705279121706251E-1    1.887809382554026E-2
 3.781640576494411E5     9.707953613126311E-1    1.879379253172611E-2    2.958625420991292E-2   -1.958345923337841E-2    2.961014621105816E-2   -1.960220807497685E-2    9.706185291810104E-1    1.878945555737615E-2
 3.810493974672107E5     9.708879175129027E-1    1.872159492574268E-2    2.951237512592605E-2   -1.951234851970373E-2    2.953518568021165E-2   -1.952802244537782E-2    9.706823114360683E-1    1.872766903351456E-2
 3.839567520314787E5     9.709390366621148E-1    1.864331185030678E-2    2.943494922445224E-2   -1.943628479504315E-2    2.946027744314327E-2   -1.945760721773940E-2    9.707384007384547E-1    1.863989586864248E-2
 3.868862893117373E5     9.709880633771922E-1    1.855609502717422E-2    2.935860972554656E-2   -1.936627828631905E-2    2.938444959143755E-2   -1.938508595780851E-2    9.708214020792486E-1    1.853977855093784E-2
 3.898381785590618E5     9.710792941908215E-1    1.848974469803964E-2    2.928330520378072E-2   -1.929520018949952E-2    2.931089481495718E-2   -1.930995893872811E-2    9.709207162765918E-1    1.848760113275030E-2
 3.928125903158922E5     9.711761725984411E-1    1.839391976650682E-2    2.920959167911831E-2   -1.922619224291552E-2    2.923435287196090E-2   -1.923910108940480E-2    9.709513073991828E-1    1.840492857156746E-2
 3.958096964258819E5     9.712477401291237E-1    1.832722004800989E-2    2.913699548197703E-2   -1.915178513260367E-2    2.916191755210033E-2   -1.916541572493849E-2    9.710424733537699E-1    1.833401046014524E-2
 3.988296700438284E5     9.713431766439489E-1    1.824265054164073E-2    2.906132389571760E-2   -1.908066654607600E-2    2.908907917401700E-2   -1.909446812316571E-2    9.711337392739268E-1    1.823632088765587E-2
 4.018726856456762E5     9.714289504813172E-1    1.817334705470216E-2    2.898844633384048E-2   -1.900835624285254E-2    2.901932295873355E-2   -1.902352891063587E-2    9.712051874492855E-1    1.816686695433082E-2
 4.049389190385970E5     9.714799852314191E-1    1.811200107985808E-2    2.891302780648163E-2   -1.893804247498922E-2    2.894292020885120E-2   -1.895312706357876E-2    9.712698914968346E-1    1.808660878521106E-2
 4.080285473711492E5     9.715239999901255E-1    1.802219913393767E-2    2.883714530836736E-2   -1.886584525715562E-2    2.886844103543876E-2   -1.887850322201042E-2    9.713388438957949E-1    1.801921913685292E-2
 4.111417491435081E5     9.716011180452810E-1    1.795263180260039E-2    2.876449980159891E-2   -1.879506151347263E-2    2.879234433295813E-2   -1.881080529960759E-2    9.714031152494851E-1    1.795203727501981E-2
 4.142787042177814E5     9.716759922497759E-1    1.786691735713968E-2    2.869575417864174E-2   -1.872382917704879E-2    2.871974660275513E-2   -1.873941337364892E-2    9.714863830372704E-1    1.786637561965013E-2
 4.174395938283992E5     9.717579708851037E-1    1.778778665384814E-2    2.862032075118710E-2   -1.865614933110355E-2    2.864907899553337E-2   -1.866985276754880E-2    9.715980845855743E-1    1.778954922126405E-2
 4.206246005925882E5     9.717932681612635E-1    1.770017833742374E-2    2.854881534994398E-2   -1.858495446439593E-2    2.857670003096263E-2   -1.859885207503474E-2    9.716585980090233E-1    1.771308149436718E-2
 4.238339085209167E5     9.718895956735230E-1    1.763391424307961E-2    2.847105109379942E-2   -1.851551488760479E-2    2.850366212112339E-2   -1.853193529804615E-2    9.717407933198045E-1    1.763971390432492E-2
 4.270677030279291E5     9.719543522521829E-1    1.755779185198180E-2    2.840137850003103E-2   -1.844637816325735E-2    2.842802918195774E-2   -1.846232570526530E-2    9.717916341781569E-1    1.757884082037930E-2
 4.303261709428567E5     9.720641330949925E-1    1.747663274377379E-2    2.832915458453077E-2   -1.838131400477613E-2    2.835656989141452E-2   -1.839170049059614E-2    9.718382308829159E-1    1.748563705568533E-2
 4.336095005204146E5     9.721055808703291E-1    1.739720755133849E-2    2.825524411950904E-2   -1.831032168545363E-2    2.828744017545530E-2   -1.832376284589752E-2    9.719878122430223E-1    1.742057440418547E-2
 4.369178814516730E5     9.721740829754452E-1    1.731909549319669E-2    2.818076473797661E-2   -1.824213733304262E-2    2.821510122254390E-2   -1.825464295348610E-2    9.720449954162536E-1    1.732846289673970E-2
 4.402515048750198E5     9.722385483002988E-1    1.724919026111311E-2    2.810977510166011E-2   -1.816984545894002E-2    2.814276795393695E-2   -1.818231008361162E-2    9.721029118256197E-1    1.726496208276234E-2
 4.436105633872023E5     9.723558413855273E-1    1.717710512231464E-2    2.804203574493265E-2   -1.810302704677398E-2    2.807357299879757E-2   -1.811816180931754E-2    9.722281930059038E-1    1.717891505687557E-2
 4.469952510544541E5     9.723901791757311E-1    1.709638182983322E-2    2.796752092744060E-2   -1.803453809584489E-2    2.799940908687712E-2   -1.804740791844679E-2    9.722720204429856E-1    1.712069644716188E-2
 4.504057634237097E5     9.724683281265605E-1    1.701988637751832E-2    2.789921701040473E-2   -1.796694831582402E-2    2.793190591648684E-2   -1.797890789591935E-2    9.723584586592084E-1    1.704751027937365E-2
 4.538422975338975E5     9.725142144882418E-1    1.694458899273698E-2    2.782419933342110E-2   -1.789541799203152E-2    2.785939953780858E-2   -1.791142345543728E-2    9.724375941581125E-1    1.696842765559430E-2
 4.573050519273265E5     9.725812242031415E-1    1.687305193127690E-2    2.775250979056112E-2   -1.783468078970532E-2    2.778430416493487E-2   -1.784274302507300E-2    9.724877973145201E-1    1.688351096847233E-2
 4.607942266611566E5     9.726414809556708E-1    1.680137501097403E-2    2.768114682484953E-2   -1.775892321637912E-2    2.771495181478689E-2   -1.777521932405660E-2    9.725320194325436E-1    1.682149288697096E-2
 4.643100233189550E5     9.727629342567328E-1    1.672888869914020E-2    2.761327869839889E-2   -1.769647906029760E-2    2.764081758035859E-2   -1.770761970558212E-2    9.726185671728961E-1    1.673481030773451E-2
 4.678526450223470E5     9.728204088783392E-1    1.665594945464053E-2    2.754161239970129E-2   -1.762885811928635E-2    2.757565256080004E-2   -1.764123722012080E-2    9.727058455111308E-1    1.666458936580298E-2
 4.714222964427450E5     9.728749533948071E-1    1.657025685628208E-2    2.747055651773351E-2   -1.755935130755295E-2    2.750214416400923E-2   -1.757312979022984E-2    9.727511991576731E-1    1.659018502342493E-2
 4.750191838131770E5     9.729520590094726E-1    1.649207441243730E-2    2.740222932183366E-2   -1.749095427714710E-2    2.743314705362441E-2   -1.750840701736802E-2    9.728406674857376E-1    1.651236553772635E-2
 4.786435149402010E5     9.730276371653698E-1    1.642223190787423E-2    2.733093687196749E-2   -1.742052408001295E-2    2.736391896030416E-2   -1.743838408572553E-2    9.729278265216467E-1    1.643507288342582E-2
 4.822954992159092E5     9.730907726626372E-1    1.633994318755339E-2    2.726015548425643E-2   -1.735470196164940E-2    2.729233925550226E-2   -1.737128980179689E-2    9.729390858164051E-1    1.635777523915390E-2
 4.859753476300298E5     9.731584742440069E-1    1.625922049176627E-2    2.718965509683716E-2   -1.729027594818856E-2    2.722284440147018E-2   -1.730419696075873E-2    9.730275069827569E-1    1.628379663349087E-2
 4.896832727821107E5     9.732223682919999E-1    1.619364877219286E-2    2.711824379707097E-2   -1.722268226841853E-2    2.715376907462512E-2   -1.723894663284254E-2    9.730585829683904E-1    1.621095398581301E-2
 4.934194888938060E5     9.732419424824599E-1    1.612329451648608E-2    2.705064588848893E-2   -1.715761064239704E-2    2.708681465152479E-2   -1.717452340318095E-2    9.731469521648893E-1    1.612712364043994E-2
 4.971842118212518E5     9.733059373120571E-1    1.604653325581626E-2    2.698400507767275E-2   -1.708614426791860E-2    2.701808162120513E-2   -1.710468304154515E-2    9.732415505768842E-1    1.608030515632709E-2
 5.009776590675358E5     9.733815155818866E-1    1.596928377520297E-2    2.691754417572256E-2   -1.701835206510617E-2    2.694737537017761E-2   -1.703914549869510E-2    9.732952000671607E-1    1.598506124403048E-2
 5.048000497952673E5     9.734750430854280E-1    1.588989227123290E-2    2.685075417578090E-2   -1.695486347389050E-2    2.688136637415003E-2   -1.697426585662078E-2    9.733545306358898E-1    1.591931968869347E-2
 5.086516048392332E5     9.735763249644626E-1    1.582251774549570E-2    2.678166627723414E-2   -1.688870412895445E-2    2.681056898178167E-2   -1.690726391118967E-2    9.734153481981764E-1    1.585113030447675E-2
 5.125325467191607E5     9.736171078677019E-1    1.573996383984736E-2    2.671815000264087E-2   -1.682237539214006E-2    2.674791771251780E-2   -1.683867738646728E-2    9.734520098127651E-1    1.578114910625261E-2
 5.164430996525706E5     9.736699483999108E-1    1.567386382940855E-2    2.665055155965722E-2   -1.675795538119288E-2    2.667976343489568E-2   -1.677228746757194E-2    9.735762807564661E-1    1.570757321478457E-2
 5.203834895677360E5     9.737569961454596E-1    1.558950167180051E-2    2.658329363269040E-2   -1.669643958827963E-2    2.661020489863149E-2   -1.670942258016486E-2    9.736104306238089E-1    1.563455697654109E-2
 5.243539441167285E5     9.738315331055710E-1    1.552054029644108E-2    2.651610278690030E-2   -1.662725400279452E-2    2.654415274263115E-2   -1.664404428968505E-2    9.737325500198096E-1    1.554794657717628E-2
 5.283546926885745E5     9.738476590550230E-1    1.545040441447380E-2    2.644652912288767E-2   -1.656053291280585E-2    2.647884630406184E-2   -1.657445592158842E-2    9.737739747322151E-1    1.548769865141055E-2
 5.323859664225065E5     9.739383330271064E-1    1.536212501537558E-2    2.638180045240565E-2   -1.649027258248102E-2    2.641117579325376E-2   -1.651042777537683E-2    9.738299072111686E-1    1.540745725843666E-2
 5.364479982213206E5     9.739825431478809E-1    1.529611473467539E-2    2.631424702677567E-2   -1.642601625748307E-2    2.634396428391193E-2   -1.644539395557273E-2    9.738906768421789E-1    1.533429750468297E-2
 5.405410227648258E5     9.740838428041142E-1    1.521995486254795E-2    2.625333475044446E-2   -1.636001587992425E-2    2.628145177849676E-2   -1.638031591415105E-2    9.739692126149891E-1    1.526624507946510E-2
 5.446652765234077E5     9.740818884533546E-1    1.514881763503304E-2    2.618706519837313E-2   -1.629512850246408E-2    2.621676654596164E-2   -1.631387404688967E-2    9.740814822404058E-1    1.518067253731713E-2
 5.488209977716873E5     9.741783815012148E-1    1.507404151839703E-2    2.612279749156250E-2   -1.623316533998841E-2    2.614853230857816E-2   -1.625303314207007E-2    9.741176005460496E-1    1.510832942599950E-2
 5.530084266022880E5     9.742099762443445E-1    1.500616829075435E-2    2.605672232073277E-2   -1.616657451529740E-2    2.608634023516763E-2   -1.618651189675737E-2    9.741532047663793E-1    1.506391991232892E-2
 5.572278049397101E5     9.742928604693906E-1    1.491452816290337E-2    2.599225736433072E-2   -1.610154346698676E-2    2.602457475271160E-2   -1.612276106883184E-2    9.742487334161772E-1    1.496784112770434E-2
 5.614793765543010E5     9.743654435823520E-1    1.485564019949770E-2    2.592974741325353E-2   -1.603389781726116E-2    2.596126259486413E-2   -1.605686949980612E-2    9.742990396255644E-1    1.489165817229308E-2
 5.657633870763436E5     9.744590772939693E-1    1.478308379624550E-2    2.586843764470879E-2   -1.597596672008746E-2    2.590143328593759E-2   -1.599453366687681E-2    9.743351148622932E-1    1.481942303674684E-2
 5.700800840102463E5     9.745243144802157E-1    1.473850092450422E-2    2.580495569369028E-2   -1.590829242606671E-2    2.583413660867447E-2   -1.593163162943026E-2    9.743880785024792E-1    1.475097497176832E-2
 5.744297167488408E5     9.745579146901517E-1    1.464683077139006E-2    2.573700995686385E-2   -1.584417919106979E-2    2.577018749432425E-2   -1.586576008822446E-2    9.744673914615481E-1    1.468711850820943E-2
 5.788125365877954E5     9.746269677102440E-1    1.457466347745572E-2    2.567833671149866E-2   -1.577878035963746E-2    2.570850061128723E-2   -1.580341695471948E-2    9.745605163003642E-1    1.460767148168755E-2
 5.832287967401261E5     9.746951578972366E-1    1.450165818152485E-2    2.561755269659714E-2   -1.571745880777196E-2    2.564650774022779E-2   -1.574029189546197E-2    9.745954225821428E-1    1.454508481628156E-2
 5.876787523508312E5     9.747646965985152E-1    1.441962459556842E-2    2.555374972132775E-2   -1.565637292558387E-2    2.558485930616169E-2   -1.567497809444454E-2    9.746240446007730E-1    1.448286095126961E-2
 5.921626605116295E5     9.748192221226697E-1    1.434052287822954E-2    2.549253233165131E-2   -1.559006732554160E-2    2.552253447749150E-2   -1.561633418343881E-2    9.746822267571879E-1    1.440466168402730E-2
 5.966807802758140E5     9.748995237256056E-1    1.427679196051647E-2    2.543539755114970E-2   -1.553110942618826E-2    2.546173681194770E-2   -1.554917364196295E-2    9.747362340956995E-1    1.435928423207722E-2
 6.012333726732214E5     9.749389128787626E-1    1.420886368838076E-2    2.537332045256147E-2   -1.546753357224664E-2    2.540098839936991E-2   -1.549033949978906E-2    9.747826250603154E-1    1.426780259985543E-2
 6.058207007253073E5     9.749933457147806E-1    1.414067961135560E-2    2.531047027218968E-2   -1.540338835343826E-2    2.533897109630819E-2   -1.542673227722114E-2    9.748404772583588E-1    1.419608476685980E-2
 6.104430294603459E5     9.750452617482118E-1    1.405638666863204E-2    2.525115052978298E-2   -1.534404895278514E-2    2.528007481021332E-2   -1.536643342814940E-2    9.748911597361274E-1    1.412124032835796E-2
 6.151006259287392E5     9.751362092101670E-1    1.401029811378635E-2    2.519059405669464E-2   -1.528436985568271E-2    2.522017014887977E-2   -1.530548937601093E-2    9.749899316749542E-1    1.406191796150981E-2
 6.197937592184512E5     9.751817389115494E-1    1.392346790471257E-2    2.513178392275331E-2   -1.522123953363783E-2    2.516005074798651E-2   -1.524400988329588E-2    9.750135726686526E-1    1.397063059621215E-2
 6.245227004705463E5     9.752259921888313E-1    1.385126442260044E-2    2.507206153812273E-2   -1.516229254055553E-2    2.510227730312892E-2   -1.518013201782209E-2    9.750405588471357E-1    1.392796520187479E-2
 6.292877228948588E5     9.752782908737339E-1    1.379855994565987E-2    2.501385221322593E-2   -1.510119955039177E-2    2.504173293311730E-2   -1.512157112504695E-2    9.751082712564283E-1    1.385346362795424E-2
 6.340891017857760E5     9.753206815235445E-1    1.371662675004100E-2    2.495733807831006E-2   -1.504404141731281E-2    2.498452097134322E-2   -1.506414924795767E-2    9.751830506840337E-1    1.378485224186453E-2
 6.389271145381465E5     9.753753144417335E-1    1.364184490206076E-2    2.489767078961439E-2   -1.498430856040597E-2    2.492009758272718E-2   -1.500318615169179E-2    9.752407093954097E-1    1.370514756347696E-2
 6.438020406633007E5     9.754198227258919E-1    1.358012272889824E-2    2.483724186483338E-2   -1.492337269362482E-2    2.486247394207732E-2   -1.494517824637152E-2    9.752993199716724E-1    1.362924017178860E-2
 6.487141618052023E5     9.755220710301649E-1    1.351774523399613E-2    2.478206755319747E-2   -1.486579299796136E-2    2.480652970530193E-2   -1.488521205441904E-2    9.753256558261417E-1    1.356910242592664E-2
 6.536637617567203E5     9.755528515371957E-1    1.344867710469616E-2    2.472087197952220E-2   -1.480650105325586E-2    2.474353689133004E-2   -1.482711679913368E-2    9.754432181822694E-1    1.348669451094455E-2
 6.586511264760230E5     9.756117925988572E-1    1.339455120419031E-2    2.466484267055771E-2   -1.474703962370122E-2    2.468808601280921E-2   -1.476398521788212E-2    9.754962669661357E-1    1.344124484896402E-2
 6.636765441031042E5     9.756272604620454E-1    1.332669663557288E-2    2.460334334034832E-2   -1.468726302862123E-2    2.463175337844771E-2   -1.470885750614595E-2    9.755547067485508E-1    1.336892998341342E-2
 6.687403049764220E5     9.756974232465078E-1    1.323890175791195E-2    2.454785573583410E-2   -1.462818649292363E-2    2.457191488130626E-2   -1.465203020857032E-2    9.755823366799757E-1    1.329391345244039E-2
 6.738427016496789E5     9.757682881255419E-1    1.317664922020341E-2    2.448962055887523E-2   -1.457400408868634E-2    2.451311360663257E-2   -1.459212523138978E-2    9.756382677485053E-1    1.322910049445811E-2
 6.789840289087215E5     9.758317889345464E-1    1.312372854727309E-2    2.443071369021758E-2   -1.451302364453471E-2    2.445257449550821E-2   -1.453932655453965E-2    9.756816815226369E-1    1.318185609316460E-2
 6.841645837885707E5     9.758700462239212E-1    1.304179237296005E-2    2.437194269580382E-2   -1.445718360373226E-2    2.439714606696385E-2   -1.447954765937874E-2    9.758114923542570E-1    1.309070602329390E-2
 6.893846655905881E5     9.759384718324394E-1    1.296528258174201E-2    2.431741662142477E-2   -1.439943884045521E-2    2.433861561169294E-2   -1.442461402371484E-2    9.758248706460294E-1    1.304165516410774E-2
 6.946445758997592E5     9.759597573327733E-1    1.291139984985525E-2    2.425735978623386E-2   -1.434389420468656E-2    2.427982242114645E-2   -1.436733744117972E-2    9.759281666051874E-1    1.294792677079450E-2
 6.999446186021230E5     9.760056143623642E-1    1.284708480309587E-2    2.420114742574488E-2   -1.428779444721161E-2    2.422583066236683E-2   -1.431211651414356E-2    9.760217950980584E-1    1.286406748075217E-2
 7.052850999023273E5     9.761006607017709E-1    1.276962018275708E-2    2.414340089015989E-2   -1.423176102251402E-2    2.417035577803093E-2   -1.425172921964356E-2    9.760584195263516E-1    1.281792956621596E-2
 7.106663283413178E5     9.761295568197531E-1    1.271581545984554E-2    2.408698018243247E-2   -1.417540269595237E-2    2.411117057339831E-2   -1.419734792940203E-2    9.761078408688412E-1    1.278449975860945E-2
 7.160886148141696E5     9.761940178632363E-1    1.263801423154368E-2    2.403080041923467E-2   -1.411714344936793E-2    2.405467247892656E-2   -1.414155017604424E-2    9.761351945066349E-1    1.268995054154240E-2
 7.215522725880400E5     9.762664646676779E-1    1.256945799597628E-2    2.396920902758969E-2   -1.406560582415637E-2    2.399714868654946E-2   -1.408518871196188E-2    9.761757804111079E-1    1.263070860094746E-2
 7.270576173202734E5     9.763016459701447E-1    1.251298100542133E-2    2.391201062207528E-2   -1.400617044635993E-2    2.393988692563333E-2   -1.403133148406172E-2    9.762309874006023E-1    1.256497510202719E-2
 7.326049670766364E5     9.763342973356796E-1    1.243767880430367E-2    2.385994226597370E-2   -1.395063932501394E-2    2.388315856708941E-2   -1.397521682823019E-2    9.763390867636627E-1    1.249682113295572E-2
 7.381946423496918E5     9.763958812085386E-1    1.236795309857899E-2    2.379894961431680E-2   -1.389874947186698E-2    2.382427074300583E-2   -1.391739967642137E-2    9.763468898271107E-1    1.243799415102102E-2
 7.438269660773217E5     9.764648019282751E-1    1.231833866419499E-2    2.374327335268879E-2   -1.384347968956637E-2    2.376734036467140E-2   -1.386386526241438E-2    9.764076942523678E-1    1.236565984311201E-2
 7.495022636613748E5     9.765512695690852E-1    1.222169302256003E-2    2.368713051540312E-2   -1.378644229027974E-2    2.370967548371826E-2   -1.380758439738061E-2    9.764753044419205E-1    1.229307949333881E-2
 7.552208629864733E5     9.766053282292099E-1    1.215467554092584E-2    2.362981661069015E-2   -1.373049897785233E-2    2.365395034756889E-2   -1.375236235094678E-2    9.765300032984447E-1    1.222446271682088E-2
 7.609830944389519E5     9.766393944264103E-1    1.209596118465749E-2    2.357226750364893E-2   -1.367767476636475E-2    2.359928759920156E-2   -1.369603907689374E-2    9.765610247856470E-1    1.219121346621107E-2
 7.667892909259528E5     9.767326693164338E-1    1.201837578696167E-2    2.351574616869457E-2   -1.362323444731378E-2    2.354204781182076E-2   -1.364395732147229E-2    9.766438581699816E-1    1.211712998087775E-2
 7.726397878946491E5     9.767694839316611E-1    1.196678580751285E-2    2.345674332378557E-2   -1.356828823922760E-2    2.348405402393672E-2   -1.358938499723386E-2    9.767001408089948E-1    1.202918729004979E-2
 7.785349233516312E5     9.768317321875843E-1    1.190754766128378E-2    2.340435301955656E-2   -1.351355419614429E-2    2.342711969752297E-2   -1.353340567208170E-2    9.767404318106374E-1    1.199417709685552E-2
 7.844750378824320E5     9.768782167939326E-1    1.184815460377968E-2    2.334832863130489E-2   -1.345779612787991E-2    2.336916177122404E-2   -1.347905247647269E-2    9.767921573260545E-1    1.192446496754607E-2
 7.904604746712097E5     9.769466330991207E-1    1.177855916693859E-2    2.329272404477720E-2   -1.340422384290721E-2    2.331051679681116E-2   -1.342819874855419E-2    9.768502897303444E-1    1.185405959890120E-2
 7.964915795205662E5     9.770419890546773E-1    1.167272559689070E-2    2.323532535427132E-2   -1.334962058973124E-2    2.325968275505304E-2   -1.337143100447486E-2    9.769188700262552E-1    1.177144365350697E-2
 8.025687008715309E5     9.770599059465299E-1    1.160448613934497E-2    2.317580378173233E-2   -1.329372401491882E-2    2.320323615152233E-2   -1.331811415706638E-2    9.769633624430203E-1    1.171361235699872E-2
 8.086921898236905E5     9.771354090746498E-1    1.155222333051721E-2    2.312505729388890E-2   -1.324331751311975E-2    2.314427810074713E-2   -1.326060922465614E-2    9.770133189268534E-1    1.166951931273136E-2
 8.148624001554718E5     9.771427932208450E-1    1.150385885516318E-2    2.306720660834645E-2   -1.318334170872630E-2    2.308801640089477E-2   -1.320468251921505E-2    9.770491992441155E-1    1.160071021689078E-2
 8.210796883445872E5     9.772064516235319E-1    1.143390487241756E-2    2.301179073906045E-2   -1.313107097386285E-2    2.303427181647082E-2   -1.315255509480934E-2    9.771145952391477E-1    1.151846820183732E-2
 8.273444135886204E5     9.772588185586959E-1    1.136939686788176E-2    2.295707762567162E-2   -1.307728740767039E-2    2.297697666384741E-2   -1.309479326080889E-2    9.771712571782533E-1    1.145217163785080E-2
 8.336569378257846E5     9.773251081501737E-1    1.130247379076312E-2    2.290032518664309E-2   -1.302103331894611E-2    2.292187083401872E-2   -1.303940538654145E-2    9.772413557368603E-1    1.138338107194004E-2
 8.400176257558319E5     9.773752553728441E-1    1.120964333034112E-2    2.284758337336681E-2   -1.296279924783413E-2    2.286958027467934E-2   -1.298680656143384E-2    9.773373653616869E-1    1.130132386879264E-2
 8.464268448611222E5     9.774297467056445E-1    1.114953086657818E-2    2.279656045668898E-2   -1.291014886283108E-2    2.281482008379409E-2   -1.293371427829135E-2    9.773501506423040E-1    1.124182396147068E-2
 8.528849654278599E5     9.775224433546658E-1    1.106517195514483E-2    2.273799753670304E-2   -1.285611917530775E-2    2.275855503679286E-2   -1.288119776374487E-2    9.773908582860467E-1    1.115218076876496E-2
 8.593923605674774E5     9.775758778823131E-1    1.099840949329571E-2    2.268205390671415E-2   -1.280417612816962E-2    2.270767636774480E-2   -1.282502875623115E-2    9.774344559550462E-1    1.110490349983198E-2
 8.659494062381978E5     9.776428547977213E-1    1.092408175519087E-2    2.263373067865563E-2   -1.274724350350165E-2    2.265103149310377E-2   -1.276623067732583E-2    9.775153349174134E-1    1.104839804892408E-2
 8.725564812667536E5     9.776546795514246E-1    1.084407496549763E-2    2.257932229588655E-2   -1.269088648304770E-2    2.259951189198828E-2   -1.271167421436885E-2    9.775258483016945E-1    1.099265520621761E-2
 8.792139673702718E5     9.776846126296110E-1    1.079894540556031E-2    2.252351513577401E-2   -1.263745160550744E-2    2.254538686634767E-2   -1.265843863654628E-2    9.775807167102593E-1    1.092998015991487E-2
 8.859222491783336E5     9.777577588666028E-1    1.073285472058248E-2    2.247291831052744E-2   -1.258588307804152E-2    2.249019088845660E-2   -1.260191171516270E-2    9.776407060934957E-1    1.084966091931190E-2
 8.926817142551860E5     9.778302699898350E-1    1.065799814613921E-2    2.241855475905943E-2   -1.252977524826315E-2    2.243949213590790E-2   -1.255017630863615E-2    9.777166039400639E-1    1.076131408402642E-2
 8.994927531221397E5     9.778370450944083E-1    1.059830926078946E-2    2.236573383989310E-2   -1.247585354541121E-2    2.238907283346449E-2   -1.249617140752116E-2    9.778014283348742E-1    1.070145240142478E-2
 9.063557592801275E5     9.778920366482619E-1    1.054611546994939E-2    2.231599615267169E-2   -1.241791401260918E-2    2.233429476698657E-2   -1.244163668064164E-2    9.778085435634563E-1    1.062735222415821E-2
 9.132711292324457E5     9.779570189573524E-1    1.045857926220965E-2    2.226420218496398E-2   -1.236889918888181E-2    2.228208878026253E-2   -1.239057468693496E-2    9.778925486238920E-1    1.056861600337947E-2
 9.202392625076511E5     9.780020416093155E-1    1.040827626427988E-2    2.221257246422991E-2   -1.231308343904346E-2    2.223108279148339E-2   -1.233393800050392E-2    9.779108112059242E-1    1.053453254333755E-2
 9.272605616826499E5     9.780411017288407E-1    1.034000836842862E-2    2.216169340488841E-2   -1.226124745932837E-2    2.217976257966735E-2   -1.228183752217869E-2    9.779467558614681E-1    1.044819438479770E-2
 9.343354324059531E5     9.781050093004630E-1    1.027670662959116E-2    2.211266759933440E-2   -1.220808842218144E-2    2.212917015388604E-2   -1.222757408499976E-2    9.779802608075211E-1    1.039170672975283E-2
 9.414642834211199E5     9.781699954355134E-1    1.019343372746198E-2    2.205807156827042E-2   -1.215366775847758E-2    2.207809615651413E-2   -1.217435152172629E-2    9.780821993880747E-1    1.027374394506487E-2
 9.486475265903610E5     9.781861297383549E-1    1.013411324876175E-2    2.200968938960077E-2   -1.209846514722768E-2    2.202581837366238E-2   -1.212212178206540E-2    9.780943351245855E-1    1.023689036545870E-2
 9.558855769183410E5     9.782843768303763E-1    1.004354974818822E-2    2.195981701783989E-2   -1.204904233679522E-2    2.197606003437098E-2   -1.206817392615534E-2    9.781342231283040E-1    1.017962848983299E-2
 9.631788525761530E5     9.783315993373582E-1    9.959748137192848E-3    2.190785938754827E-2   -1.199309277258230E-2    2.192656858419256E-2   -1.201417273433270E-2    9.781840569531234E-1    1.010581154303181E-2
 9.705277749254764E5     9.783527735105426E-1    9.921278081416728E-3    2.186212379224118E-2   -1.194018666025475E-2    2.187706841941334E-2   -1.196149566020105E-2    9.782143539697755E-1    1.005601684520836E-2
 9.779327685429282E5     9.783705936671430E-1    9.844639930465433E-3    2.180986513010419E-2   -1.188953148600055E-2    2.182848633155047E-2   -1.191055142814667E-2    9.782913253895834E-1    9.968029533309665E-3
 9.853942612445805E5     9.784392516832411E-1    9.786483021421814E-3    2.176140025099346E-2   -1.183829971389799E-2    2.178042677041873E-2   -1.185648463265881E-2    9.783237944996586E-1    9.896993700802393E-3
 9.929126841106854E5     9.785132195297065E-1    9.690123691182188E-3    2.171493474439863E-2   -1.178536700321385E-2    2.173144412555574E-2   -1.180536574871847E-2    9.784004814589560E-1    9.833772361243066E-3
 1.000488471510578E6     9.785625829247924E-1    9.665382007524981E-3    2.166591347124448E-2   -1.173249915543509E-2    2.168006391920342E-2   -1.175343230390053E-2    9.784380127504074E-1    9.775242453175034E-3
 1.008122061127771E6     9.785924344914825E-1    9.594785485536661E-3    2.161519755262350E-2   -1.167943569887096E-2    2.163057148423523E-2   -1.170070757769101E-2    9.785037995893571E-1    9.701138299683183E-3
 1.015813893985245E6     9.786531813460374E-1    9.540899745354952E-3    2.156897160781773E-2   -1.163192918396659E-2    2.158363575546340E-2   -1.165253183288994E-2    9.785370929328312E-1    9.663229349921417E-3
 1.023564414470923E6     9.786967306544830E-1    9.431139886819283E-3    2.152030803636487E-2   -1.158063860301795E-2    2.153684947361670E-2   -1.160167270839596E-2    9.785705316181600E-1    9.583636217261365E-3
 1.031374070363347E6     9.787305115334819E-1    9.378646274214525E-3    2.147149249613965E-2   -1.152852459139882E-2    2.148792197346260E-2   -1.154912605973001E-2    9.786014344162310E-1    9.534275245248318E-3
 1.039243312857548E6     9.787889699063352E-1    9.297831023324099E-3    2.142396754813774E-2   -1.147848657273640E-2    2.143846728811223E-2   -1.149454409264645E-2    9.786724856712781E-1    9.473457645612717E-3
 1.047172596591111E6     9.788152756779838E-1    9.240900973033784E-3    2.137530503995740E-2   -1.142980654336541E-2    2.139027365227562E-2   -1.144956931281449E-2    9.787268170618876E-1    9.379720618509125E-3
 1.055162379670449E6     9.788668675155356E-1    9.153188506837103E-3    2.132751732474822E-2   -1.137927959427944E-2    2.134338890913185E-2   -1.139836616103736E-2    9.788146580139692E-1    9.312994681519545E-3
 1.063213123697260E6     9.789301339626946E-1    9.128331907229347E-3    2.127916824255106E-2   -1.132816629216059E-2    2.129497728757854E-2   -1.134999317377884E-2    9.788159290048862E-1    9.273611472007375E-3
 1.071325293795198E6     9.789997803374179E-1    9.076856914442535E-3    2.123306413364144E-2   -1.128250479012097E-2    2.124871705107417E-2   -1.129989260615404E-2    9.788775430572506E-1    9.204343895755099E-3
 1.079499358636750E6     9.790317314660264E-1    8.965987692395611E-3    2.118407985245794E-2   -1.122771495356598E-2    2.119995604420616E-2   -1.124933367258400E-2    9.789419618880696E-1    9.147972739080306E-3
 1.087735790470306E6     9.790447880197584E-1    8.943637314903575E-3    2.113763135034440E-2   -1.117905675248751E-2    2.114957009606447E-2   -1.120027209302572E-2    9.789800440464868E-1    9.072611648833419E-3
 1.096035065147453E6     9.790673670564004E-1    8.885087439554767E-3    2.108651415466443E-2   -1.113073078915723E-2    2.110236313581192E-2   -1.115051816674419E-2    9.790109943501731E-1    9.001952042817039E-3
 1.104397662150453E6     9.791006943729148E-1    8.802665369896696E-3    2.104033112041488E-2   -1.108073812549389E-2    2.105183094446217E-2   -1.110127769298427E-2    9.790588030299273E-1    8.933014456104209E-3
 1.112824064619953E6     9.791453654008273E-1    8.757913721139614E-3    2.099491076119840E-2   -1.103012427421574E-2    2.100664623304496E-2   -1.105146969941961E-2    9.791247367905825E-1    8.864456715310432E-3
 1.121314759382903E6     9.792092218768723E-1    8.681992808516253E-3    2.094428913765753E-2   -1.098432472337702E-2    2.096001575710604E-2   -1.100293072462352E-2    9.791408164243024E-1    8.809496264101482E-3
 1.129870236980669E6     9.792497560407135E-1    8.615878643728208E-3    2.089911641111782E-2   -1.093596687151363E-2    2.090900079022099E-2   -1.095138492150523E-2    9.792088228620731E-1    8.728916887384820E-3
 1.138490991697383E6     9.792659003955256E-1    8.541041556163156E-3    2.084826984034382E-2   -1.088843572814724E-2    2.086348637145485E-2   -1.090388536106519E-2    9.792475676822667E-1    8.703763840952285E-3
 1.147177521588496E6     9.793305406194389E-1    8.508325921136756E-3    2.080075677150999E-2   -1.083798240222655E-2    2.081236357753507E-2   -1.085560910331482E-2    9.793212056554046E-1    8.611563548917249E-3
 1.155930328509552E6     9.793687673513545E-1    8.431518697122171E-3    2.075469750150806E-2   -1.079176744670677E-2    2.076665758952090E-2   -1.080699380647405E-2    9.793549672770880E-1    8.554119850994940E-3
 1.164749918145190E6     9.794388494367724E-1    8.362820445943041E-3    2.070843730351979E-2   -1.074047540012225E-2    2.071986154159331E-2   -1.075616808594829E-2    9.794041134576443E-1    8.466867410204032E-3
 1.173636800038349E6     9.794717820231504E-1    8.298885652288977E-3    2.065727214641435E-2   -1.068912790757276E-2    2.066929383753878E-2   -1.070658683289847E-2    9.794386455821612E-1    8.382054556013945E-3
 1.182591487619709E6     9.795307950717235E-1    8.200193248008693E-3    2.060993363031668E-2   -1.064400250368175E-2    2.062223849269000E-2   -1.065805600695395E-2    9.794670709788925E-1    8.349879612997190E-3
 1.191614498237359E6     9.795710435060008E-1    8.136905575100802E-3    2.056374267911745E-2   -1.059252003302622E-2    2.057612008492185E-2   -1.060887780528089E-2    9.795445316209329E-1    8.252744936458981E-3
 1.200706353186678E6     9.796192341702077E-1    8.076487660883791E-3    2.051874559087903E-2   -1.054204715371272E-2    2.052805397196363E-2   -1.056227566177136E-2    9.795603326089476E-1    8.183288025490792E-3
 1.209867577740467E6     9.796716022059693E-1    8.016082811677910E-3    2.047297925422143E-2   -1.049673165913522E-2    2.048353707884003E-2   -1.050904493942023E-2    9.795950648514785E-1    8.151854416693270E-3
 1.219098701179276E6     9.797196996209382E-1    7.964677121206019E-3    2.042232121853437E-2   -1.044355951768384E-2    2.043276559607342E-2   -1.046359477633089E-2    9.796718419335940E-1    8.089214690541151E-3
 1.228400256821998E6     9.797505564165868E-1    7.872176147188676E-3    2.037884072658212E-2   -1.039702690965730E-2    2.038746107396891E-2   -1.041312131585093E-2    9.797166939743218E-1    8.014919017151942E-3
 1.237772782056674E6     9.797929407861465E-1    7.803115926518742E-3    2.033036493563353E-2   -1.034731474258256E-2    2.033838557989457E-2   -1.036536622671792E-2    9.797334015234287E-1    7.896590037095461E-3
 1.247216818371540E6     9.798235554799971E-1    7.723017040366343E-3    2.027967351114235E-2   -1.029835956917631E-2    2.029555211135537E-2   -1.031420897453097E-2    9.798032094988014E-1    7.857301408781957E-3
 1.256732911386322E6     9.798798925691548E-1    7.671015496930199E-3    2.023692061191519E-2   -1.024685200120585E-2    2.024782857650498E-2   -1.026591610019768E-2    9.798524299675189E-1    7.814030489369740E-3
 1.266321610883739E6     9.799230290238724E-1    7.610291344106072E-3    2.019104588953345E-2   -1.019678901751913E-2    2.019781940354512E-2   -1.021364110308099E-2    9.798772848185811E-1    7.712430147855569E-3
 1.275983470841281E6     9.799625172514654E-1    7.567268550640965E-3    2.014630701562220E-2   -1.015115825065787E-2    2.015530594607942E-2   -1.016582107652158E-2    9.799543689275537E-1    7.626573442783742E-3
 1.285719049463211E6     9.800179131391226E-1    7.492394652957788E-3    2.009991291666295E-2   -1.009941418177435E-2    2.010878352557840E-2   -1.011228013585335E-2    9.799676241442937E-1    7.577056180302678E-3
 1.295528909212810E6     9.800744505779111E-1    7.419528166973586E-3    2.005727199016133E-2   -1.004806106847466E-2    2.006378772372292E-2   -1.006477331371738E-2    9.799925377155051E-1    7.541257921627290E-3
 1.305413616844883E6     9.801153144184462E-1    7.327157243169379E-3    2.001093118189147E-2   -9.998763524070232E-3    2.002114606319731E-2   -1.001555100199604E-2    9.800694752911624E-1    7.432789879070383E-3
 1.315373743438491E6     9.801427189659259E-1    7.251347023572881E-3    1.996427616326962E-2   -9.950954631276970E-3    1.997397905036603E-2   -9.962371169804174E-3    9.801097233944521E-1    7.365812105497392E-3
 1.325409864429950E6     9.801756331115762E-1    7.241164811396122E-3    1.992038992248493E-2   -9.901114711667635E-3    1.993049587400840E-2   -9.913548399755929E-3    9.801102362745604E-1    7.303249817937917E-3
 1.335522559646084E6     9.802160516755157E-1    7.148974252851537E-3    1.987560580131382E-2   -9.848180094278906E-3    1.988125076251706E-2   -9.867135920057639E-3    9.801551271738322E-1    7.227268926012110E-3
 1.345712413337699E6     9.802702781132956E-1    7.106855691833460E-3    1.983569763097548E-2   -9.799349823024448E-3    1.984238035359728E-2   -9.816269179374823E-3    9.801976704775731E-1    7.149816279450053E-3
 1.355980014213373E6     9.802996457629647E-1    7.052165282823523E-3    1.978811297358529E-2   -9.750967464574165E-3    1.979810079174269E-2   -9.766463875181363E-3    9.802436144002931E-1    7.091326732518964E-3
 1.366325955473440E6     9.803840418790321E-1    6.971009137009472E-3    1.974816121844729E-2   -9.703493521520711E-3    1.975206769671452E-2   -9.714661458891331E-3    9.803417162517889E-1    7.058876880406872E-3
 1.376750834844268E6     9.804045196231645E-1    6.891322221740706E-3    1.970481375953814E-2   -9.654860909911845E-3    1.971342087273369E-2   -9.668597274544645E-3    9.803757552672852E-1    6.982610293489045E-3
 1.387255254612807E6     9.804362666580416E-1    6.839510936116840E-3    1.966153815982785E-2   -9.602381889552668E-3    1.967104005938260E-2   -9.618430520605507E-3    9.804263620026855E-1    6.923816008171148E-3
 1.397839821661363E6     9.804737547951482E-1    6.772807730877396E-3    1.961628445217098E-2   -9.555042663493376E-3    1.962609551403047E-2   -9.569435187135539E-3    9.804743042430411E-1    6.877217105909625E-3
 1.408505147502673E6     9.805789156664916E-1    6.728853255613169E-3    1.957723258259057E-2   -9.509453803614362E-3    1.958386132341938E-2   -9.521172767244743E-3    9.805136769684824E-1    6.790899811217401E-3
 1.419251848315235E6     9.805809580822306E-1    6.638868901624427E-3    1.953656982405418E-2   -9.458369725939579E-3    1.954134360681094E-2   -9.470283233760439E-3    9.805575681433449E-1    6.723999022863167E-3
 1.430080544978898E6     9.806344988786095E-1    6.571414564116135E-3    1.949561728421306E-2   -9.410199857947070E-3    1.950001753570581E-2   -9.421982372045622E-3    9.805887816808271E-1    6.661873465607657E-3
 1.440991863110751E6     9.806574531681180E-1    6.507474565327728E-3    1.945041528537385E-2   -9.360418851615235E-3    1.946097627690223E-2   -9.372605434259563E-3    9.806625332170961E-1    6.584530762955080E-3
 1.451986433101243E6     9.806941180421272E-1    6.428429321647992E-3    1.941110686331017E-2   -9.312512955793864E-3    1.941751640431734E-2   -9.325726422157203E-3    9.806876175483888E-1    6.525048919227634E-3
 1.463064890150622E6     9.807248793788219E-1    6.360582848459325E-3    1.936652163361163E-2   -9.263228437307923E-3    1.937610934325804E-2   -9.276742205565897E-3    9.807064168784921E-1    6.457204428262765E-3
 1.474227874305625E6     9.807597400792273E-1    6.292785174097669E-3    1.933054165008233E-2   -9.214080120462726E-3    1.933275128400027E-2   -9.229748562438042E-3    9.807635577447029E-1    6.380747835874716E-3
 1.485476030496454E6     9.808020000565753E-1    6.245899905049087E-3    1.928528085233522E-2   -9.171526550991300E-3    1.929588972865585E-2   -9.183443532879783E-3    9.807946399370113E-1    6.313838629420400E-3
 1.496810008574050E6     9.808521436185339E-1    6.172570430694687E-3    1.924747288289829E-2   -9.122298451237167E-3    1.925332747977328E-2   -9.135412388010274E-3    9.807873618358589E-1    6.227120222761697E-3
 1.508230463347619E6     9.809143539787352E-1    6.108810754552229E-3    1.920615610435882E-2   -9.074608983208913E-3    1.921189865872278E-2   -9.088594704071726E-3    9.808367434991480E-1    6.180650618327504E-3
 1.519738054622472E6     9.809491841676106E-1    6.051206041102296E-3    1.916630939846375E-2   -9.025021650748302E-3    1.917208645218825E-2   -9.039028222618872E-3    9.808707286677034E-1    6.102457424688318E-3
 1.531333447238147E6     9.809925756302051E-1    5.974977724422331E-3    1.912516960733160E-2   -8.979786875871452E-3    1.913006568615734E-2   -8.993553728668266E-3    9.809224407869306E-1    6.059378438942473E-3
 1.543017311106810E6     9.809794362442021E-1    5.869694195486611E-3    1.908496284820136E-2   -8.934102996495805E-3    1.909021552376624E-2   -8.948115572858718E-3    9.809594797554997E-1    5.992004743973415E-3
 1.554790321251977E6     9.810721835397717E-1    5.843981501657524E-3    1.904186934336737E-2   -8.889049099817456E-3    1.905351900361539E-2   -8.902334207521857E-3    9.810287574494725E-1    5.931772089989968E-3
 1.566653157847488E6     9.811435827223184E-1    5.769431302686560E-3    1.900218695539902E-2   -8.839406942631295E-3    1.900601923437408E-2   -8.852639865861456E-3    9.810406376591890E-1    5.853055005416680E-3
 1.578606506256824E6     9.811477965794978E-1    5.677849906167006E-3    1.896111395110062E-2   -8.792567096379968E-3    1.896768937504608E-2   -8.806910594133530E-3    9.810853713685839E-1    5.794747872021276E-3
 1.590651057072690E6     9.811796385306690E-1    5.619755604333223E-3    1.891919139653831E-2   -8.748280986966932E-3    1.892772355067378E-2   -8.759235449130976E-3    9.811382484233940E-1    5.730966129510981E-3
 1.602787506156919E6     9.812294076293622E-1    5.555772841784453E-3    1.887821719331987E-2   -8.701359072356774E-3    1.888495446182028E-2   -8.710641319402688E-3    9.811956403126600E-1    5.671805358750229E-3
 1.615016554680682E6     9.812507928257708E-1    5.487535429407929E-3    1.883569738642052E-2   -8.655791932791713E-3    1.884931818788266E-2   -8.665993640934216E-3    9.812191415576735E-1    5.594312134432733E-3
 1.627338909164981E6     9.813189634190180E-1    5.403699673670609E-3    1.879986221164934E-2   -8.607043828432406E-3    1.880308354787558E-2   -8.615857634297548E-3    9.812763892402334E-1    5.524555422494496E-3
 1.639755281521474E6     9.813336369527702E-1    5.337443501188725E-3    1.875832210281970E-2   -8.561147378600536E-3    1.876336099938613E-2   -8.572103748242658E-3    9.813115805122431E-1    5.435404761533424E-3
 1.652266389093622E6     9.813538213435352E-1    5.253704769554191E-3    1.871677303417445E-2   -8.517640112673152E-3    1.872237623429857E-2   -8.526671832311254E-3    9.813646459252343E-1    5.391433603847525E-3
 1.664872954698102E6     9.814072436480404E-1    5.194707001720463E-3    1.867562958105919E-2   -8.466753370877440E-3    1.868033363747137E-2   -8.476397110056872E-3    9.813783146013431E-1    5.308070457134051E-3
 1.677575706666590E6     9.814411129433233E-1    5.134312802745323E-3    1.863824788541213E-2   -8.421239464027362E-3    1.864086424850200E-2   -8.431579679500598E-3    9.813996984435126E-1    5.223012608193834E-3
 1.690375378887833E6     9.814983509339525E-1    5.058920928018107E-3    1.859530018373215E-2   -8.375960953659460E-3    1.859925396985146E-2   -8.384563168053125E-3    9.814523102886611E-1    5.152377535693071E-3
 1.703272710850043E6     9.815290455006827E-1    4.984072116689955E-3    1.855494554468950E-2   -8.325448241575309E-3    1.856121089621249E-2   -8.339988944165150E-3    9.814847879259153E-1    5.100283711549065E-3
 1.716268447683636E6     9.815506990853508E-1    4.912118157007975E-3    1.851398521003706E-2   -8.281005170572443E-3    1.851935818557480E-2   -8.288857039590387E-3    9.814900421959492E-1    5.025255033943798E-3
 1.729363340204262E6     9.816024069411343E-1    4.840433873791144E-3    1.847276645945748E-2   -8.234884524939128E-3    1.848140896672484E-2   -8.244993844162180E-3    9.815491998917534E-1    4.951385042551297E-3
 1.742558144956193E6     9.816363516226920E-1    4.770241064335001E-3    1.843263434228381E-2   -8.187481627784000E-3    1.844017724792055E-2   -8.195851748343011E-3    9.816040247655462E-1    4.885720860023609E-3
 1.755853624256030E6     9.816721513349450E-1    4.686248147720811E-3    1.839530928025215E-2   -8.138245991526065E-3    1.839974003951336E-2   -8.147487555729509E-3    9.816374944428026E-1    4.802982135378647E-3
 1.769250546236744E6     9.816998392808786E-1    4.618181638509747E-3    1.835407177731488E-2   -8.092378022821228E-3    1.836606994144505E-2   -8.100767074187620E-3    9.816640453491261E-1    4.720993238880292E-3
 1.782749684892061E6     9.817297539831987E-1    4.527295508637277E-3    1.831367416796204E-2   -8.047422603388515E-3    1.832321805177650E-2   -8.054093793734530E-3    9.817513760232102E-1    4.660713301370098E-3
 1.796351820121167E6     9.817779426987417E-1    4.473996188883805E-3    1.827340965784264E-2   -8.000396213796156E-3    1.828352875199487E-2   -8.004323091553125E-3    9.817589491804346E-1    4.600370249365028E-3
 1.810057737773773E6     9.818311820321621E-1    4.394637137484753E-3    1.823587391919289E-2   -7.947247756313768E-3    1.824318016476549E-2   -7.957809102366648E-3    9.817694439078147E-1    4.517044290508021E-3
 1.823868229695514E6     9.819068224827553E-1    4.339162803891629E-3    1.820057279815265E-2   -7.901842187806023E-3    1.820582122641648E-2   -7.908540954366973E-3    9.818065902920400E-1    4.453678243693549E-3
 1.837784093773698E6     9.818876800829316E-1    4.253452152962653E-3    1.816173750706910E-2   -7.854693839564169E-3    1.816427281115100E-2   -7.860798533651863E-3    9.818875137432475E-1    4.388292243791427E-3
 1.851806133983411E6     9.819410583146105E-1    4.197662216384446E-3    1.812071161839182E-2   -7.806734782054230E-3    1.812951411412417E-2   -7.811745845415966E-3    9.819696321424808E-1    4.327381269919580E-3
 1.865935160433950E6     9.819693382291641E-1    4.121771569897945E-3    1.808655709031455E-2   -7.760992153341166E-3    1.809107036940980E-2   -7.766622780439021E-3    9.819801222354643E-1    4.252914769526141E-3
 1.880171989415638E6     9.819977587633212E-1    4.037392452821750E-3    1.804895632695747E-2   -7.708415390853594E-3    1.805266249538658E-2   -7.717106741537025E-3    9.820289324319799E-1    4.174244501316985E-3
 1.894517443446981E6     9.820165363253825E-1    3.983240120764962E-3    1.800777661161112E-2   -7.666474075113255E-3    1.801536586375848E-2   -7.669211987449975E-3    9.820152589238024E-1    4.098195101021535E-3
 1.908972351322182E6     9.820521743330558E-1    3.894765709314005E-3    1.797226175421312E-2   -7.615801596185445E-3    1.798075450823500E-2   -7.621352938534057E-3    9.820660628819381E-1    4.030011201451740E-3
 1.923537548159045E6     9.820813535432510E-1    3.826772597867125E-3    1.793808246885783E-2   -7.568531038872818E-3    1.794219096229191E-2   -7.575640008991700E-3    9.820553972329435E-1    3.951381771819718E-3
 1.938213875447196E6     9.821124602525385E-1    3.746334499804389E-3    1.790237317106056E-2   -7.522123038502999E-3    1.790453577748146E-2   -7.525220126041393E-3    9.821090183222283E-1    3.861887775057082E-3
 1.953002181096708E6     9.821110516949462E-1    3.670485000116764E-3    1.786611820159776E-2   -7.472064069922749E-3    1.786979707254518E-2   -7.481305912430600E-3    9.821823591209204E-1    3.792360615426640E-3
 1.967903319487111E6     9.821834446555121E-1    3.584650414163079E-3    1.782799820917071E-2   -7.426441215176252E-3    1.783171287407198E-2   -7.428760995354457E-3    9.822102217388815E-1    3.724953587982446E-3
 1.982918151516703E6     9.822105775266379E-1    3.524041796276683E-3    1.778981801129895E-2   -7.381116387944222E-3    1.779819416644627E-2   -7.386252034017085E-3    9.822455919408170E-1    3.653891730453669E-3
 1.998047544652348E6     9.822336672756428E-1    3.440874079426046E-3    1.775591504091495E-2   -7.331724898612478E-3    1.775768194004442E-2   -7.339792496392931E-3    9.822617710892998E-1    3.573405463668717E-3
 2.013292372979546E6     9.822314687675193E-1    3.361200393080529E-3    1.771865988481134E-2   -7.286198924115103E-3    1.772496278814698E-2   -7.292020149633087E-3    9.822749733162863E-1    3.498433217630415E-3
 2.028653517252947E6     9.823018490987643E-1    3.288180466321933E-3    1.768410905192215E-2   -7.239797628085274E-3    1.768862097328655E-2   -7.242908889656200E-3    9.823252252021778E-1    3.422443786054066E-3
 2.044131864947255E6     9.822984344906259E-1    3.215305640590646E-3    1.764611381868099E-2   -7.193289682255362E-3    1.765217223493297E-2   -7.196193177115510E-3    9.823767257324105E-1    3.342661941167486E-3
 2.059728310308467E6     9.823415624878225E-1    3.147082729285363E-3    1.761275086898470E-2   -7.146953017621666E-3    1.761793710133362E-2   -7.150866863475026E-3    9.824033385835504E-1    3.280095372724617E-3
 2.075443754405562E6     9.824048272892048E-1    3.086875483931186E-3    1.757617726847676E-2   -7.099425329948532E-3    1.757990277972943E-2   -7.104950663601234E-3    9.824409176394585E-1    3.196349067696249E-3
 2.091279105182548E6     9.824144547112005E-1    2.991096970415461E-3    1.754221013415397E-2   -7.051615615780357E-3    1.754716163902479E-2   -7.055604420405595E-3    9.824528613704379E-1    3.136461863693428E-3
 2.107235277510921E6     9.824638207029471E-1    2.930095990055714E-3    1.750520275792620E-2   -7.006755642322512E-3    1.750885156924068E-2   -7.013433709478330E-3    9.824822487862593E-1    3.050945082367763E-3
 2.123313193242529E6     9.825134595369960E-1    2.853927978946267E-3    1.746916149264310E-2   -6.962325304775554E-3    1.747464963094907E-2   -6.965847371255287E-3    9.825045450618668E-1    2.986757512072197E-3
 2.139513781262815E6     9.825322357020111E-1    2.788011892599290E-3    1.743355509700098E-2   -6.913347409871526E-3    1.743831542763817E-2   -6.917498887499341E-3    9.825487540617998E-1    2.909354278098708E-3
 2.155837977544490E6     9.825930966740920E-1    2.700382031841258E-3    1.739893913266773E-2   -6.870093176542634E-3    1.740061106926485E-2   -6.871722163601221E-3    9.825884451726352E-1    2.844097331618026E-3
 2.172286725201612E6     9.826722694098207E-1    2.636316187956365E-3    1.736262925847398E-2   -6.820979400508447E-3    1.736766797829811E-2   -6.825280578654720E-3    9.825880726652578E-1    2.777389533577181E-3
 2.188860974544063E6     9.826708856888053E-1    2.562653153138573E-3    1.732639726850746E-2   -6.774947794969872E-3    1.733114251066454E-2   -6.779175354372039E-3    9.826537287928727E-1    2.692979119211557E-3
 2.205561683132472E6     9.826674719486813E-1    2.498260034984185E-3    1.729183767314676E-2   -6.734066379475176E-3    1.729875075038482E-2   -6.734129827888727E-3    9.826921917703688E-1    2.596981759327594E-3
 2.222389815833514E6     9.826815113837735E-1    2.408165976815551E-3    1.725821374536753E-2   -6.686618116822002E-3    1.725787469435232E-2   -6.681205506137733E-3    9.827497075327620E-1    2.529591240176746E-3
 2.239346344875663E6     9.827222145512441E-1    2.338654559428389E-3    1.721969825996985E-2   -6.634239644224589E-3    1.722459554391335E-2   -6.637098342601949E-3    9.827894142372000E-1    2.446242106679686E-3
 2.256432249905369E6     9.827326195120389E-1    2.285127645999340E-3    1.718490094695014E-2   -6.591060350395334E-3    1.718659316110079E-2   -6.589421485652689E-3    9.828217809092603E-1    2.368966042197106E-3
 2.273648518043640E6     9.827998455385658E-1    2.190186853241504E-3    1.714880843964687E-2   -6.547901162221825E-3    1.715416919011406E-2   -6.542932409724898E-3    9.828977996805076E-1    2.275850581358060E-3
 2.290996143943099E6     9.828297173991652E-1    2.128133420443114E-3    1.711268141274919E-2   -6.496724596550377E-3    1.711665643987975E-2   -6.494475668347612E-3    9.828686861454222E-1    2.201238808247971E-3
 2.308476129845417E6     9.828926927686118E-1    2.048911632339571E-3    1.707704888530387E-2   -6.449571686162565E-3    1.708511907972216E-2   -6.446852840388945E-3    9.829054331563406E-1    2.113383492572041E-3
 2.326089485639235E6     9.828955115632382E-1    1.980977532133350E-3    1.704074191347541E-2   -6.401513601011859E-3    1.704862735536766E-2   -6.398561657957642E-3    9.829399818522936E-1    2.054451097914337E-3
 2.343837228918507E6     9.829452675172237E-1    1.919398339689481E-3    1.700701667090379E-2   -6.354171414037087E-3    1.701043105974125E-2   -6.346407911087770E-3    9.829494765871998E-1    1.981135203477733E-3
 2.361720385041283E6     9.829754253396432E-1    1.821777894428017E-3    1.697287008334235E-2   -6.309791095451232E-3    1.698135431841305E-2   -6.301633443426205E-3    9.829686139292274E-1    1.904271525572711E-3
 2.379739987188969E6     9.830234387540069E-1    1.754952576258955E-3    1.693763878600757E-2   -6.259871496825910E-3    1.694879077049372E-2   -6.254338721218082E-3    9.830032729720184E-1    1.833692993904969E-3
 2.397897076425990E6     9.830877495329944E-1    1.657282987836202E-3    1.690216363333338E-2   -6.214292787032148E-3    1.691056131382442E-2   -6.206441049159995E-3    9.830507843188232E-1    1.730797956761804E-3
 2.416192701759947E6     9.831092292616244E-1    1.566808801378635E-3    1.686855757467092E-2   -6.162603682509898E-3    1.688027963998317E-2   -6.155700708854227E-3    9.830930488262656E-1    1.664719878474707E-3
 2.434627920202243E6     9.831481707670557E-1    1.482746738395958E-3    1.683629642351325E-2   -6.115897467541574E-3    1.684509043927840E-2   -6.110721766884437E-3    9.831168509712789E-1    1.588405797720740E-3
 2.453203796829114E6     9.831916221925381E-1    1.409744843001394E-3    1.680139961469453E-2   -6.069343658832588E-3    1.681152471749046E-2   -6.064647179471695E-3    9.831347540475143E-1    1.485302861291318E-3
 2.471921404843189E6     9.832585076004080E-1    1.334469156616706E-3    1.676617621633672E-2   -6.015839487289785E-3    1.678138839419341E-2   -6.013946921206117E-3    9.831763744866691E-1    1.424855282012414E-3
 2.490781825635486E6     9.832758522886100E-1    1.248999676749373E-3    1.673506596846773E-2   -5.968454284780220E-3    1.674550311080317E-2   -5.965266865753678E-3    9.831981515928367E-1    1.348811954292261E-3
 2.509786148847881E6     9.832954511346629E-1    5.397537874530231E-4    1.679471001575818E-2   -5.846111537094091E-3    1.673520145051009E-2   -6.043821091434027E-3    9.834419671001465E-1    1.431008581336284E-3
 2.528935472436085E6     9.833272340706886E-1    4.607391331681017E-4    1.676680605659700E-2   -5.782524054266332E-3    1.670268535437780E-2   -5.988248759070335E-3    9.834237087279621E-1    1.367728977245172E-3
 2.548230902733043E6     9.834848019437460E-1    6.262565488095006E-4    1.673036275196673E-2   -5.740593568730041E-3    1.667196200001426E-2   -5.940908164576510E-3    9.834460111887573E-1    1.282044364739798E-3
 2.567673554512876E6     9.834309661545846E-1    2.846613469759718E-4    1.670010649689446E-2   -5.693533667126121E-3    1.663928537145583E-2   -5.891349907033626E-3    9.834626443164542E-1    1.278632910301335E-3
 2.587264551055275E6     9.834393045649555E-1    1.003783547997205E-4    1.666726765118267E-2   -5.643987155723239E-3    1.660672964833600E-2   -5.836343934821369E-3    9.834608662301736E-1    1.097839488869900E-3
 2.607005024210399E6     9.834829583684349E-1    1.403724640040588E-4    1.663741161370052E-2   -5.593283474501012E-3    1.658708973040360E-2   -5.785269156067305E-3    9.835298869185642E-1    1.120192561715689E-3
 2.626896114464281E6     9.835268361171877E-1    6.609544663386971E-5    1.660336822557124E-2   -5.545331563650997E-3    1.655979554659917E-2   -5.735540770401684E-3    9.835600349712780E-1    1.122308214205872E-3
 2.646938971004693E6     9.835135378316130E-1   -1.105790678955980E-4    1.657236732866913E-2   -5.503924207806881E-3    1.652334996438812E-2   -5.678665765876976E-3    9.835505068664352E-1    9.019862677478639E-4
 2.667134751787555E6     9.835521098348436E-1   -1.080532259062363E-4    1.653893738375702E-2   -5.458961763174276E-3    1.649834758158446E-2   -5.633530203770617E-3    9.835981689731219E-1    8.532233689231679E-4
 2.687484623603833E6     9.835506347133037E-1   -4.130427303224666E-4    1.651121415175307E-2   -5.409976636765152E-3    1.646523050619740E-2   -5.585247787680660E-3    9.836586900972366E-1    8.778288266410865E-4
 2.707989762146940E6     9.836322484857907E-1   -3.186291485564263E-4    1.647686687168385E-2   -5.359557242873712E-3    1.643889362896838E-2   -5.533094486642664E-3    9.836698919550594E-1    7.233339364621046E-4
 2.728651352080688E6     9.835944333091704E-1   -3.716999702266296E-4    1.644492421857553E-2   -5.312502408193873E-3    1.640787745240621E-2   -5.482090325864604E-3    9.837030701377315E-1    6.548388393422725E-4
 2.749470587107692E6     9.836898500345836E-1   -3.813048314093475E-4    1.641785434603545E-2   -5.260688277611446E-3    1.638197035916242E-2   -5.433746458833016E-3    9.836910337909368E-1    3.743073008863763E-4
 2.770448670038360E6     9.836882394949809E-1   -5.094901240903044E-4    1.638162802796710E-2   -5.216141796901812E-3    1.635013632492930E-2   -5.381362536151009E-3    9.837511676586695E-1    4.394067063702445E-4
 2.791586812860380E6     9.837245523129398E-1   -7.120476379477377E-4    1.634925425340138E-2   -5.171851637226450E-3    1.631658605826689E-2   -5.331435395125769E-3    9.837498634351562E-1    2.090795079795825E-4
 2.812886236808732E6     9.837970009472541E-1   -7.715710772490932E-4    1.631653980033400E-2   -5.122602433665547E-3    1.629166337790910E-2   -5.280058370644618E-3    9.837991528388901E-1    1.627090681685365E-4
 2.834348172436268E6     9.837648168344982E-1   -9.811424639503631E-4    1.628596753080653E-2   -5.077381652145736E-3    1.626026196233580E-2   -5.234154068005485E-3    9.838526621962679E-1    1.593898347349184E-4
 2.855973859684773E6     9.837531462070437E-1   -1.161983121198881E-3    1.625869085864739E-2   -5.029957368883835E-3    1.623056770992249E-2   -5.183115136949567E-3    9.838706358033084E-1    3.183447227427171E-5
 2.877764547956619E6     9.837602636430113E-1   -1.207073825511359E-3    1.623067831664152E-2   -4.976992383729850E-3    1.620140444652098E-2   -5.129245187614933E-3    9.838573071835981E-1   -7.708923454983800E-5
 2.899721496186967E6     9.839284223928224E-1   -9.556314712592810E-4    1.619770221839009E-2   -4.933353458506809E-3    1.617753458459275E-2   -5.082656174244736E-3    9.838938001764663E-1   -1.341092754501681E-4
 2.921845972916440E6     9.839543744313761E-1   -1.109395950086885E-3    1.616706633164332E-2   -4.878149823931294E-3    1.614905380134090E-2   -5.029119321051459E-3    9.839328652440930E-1   -2.592048211061338E-4
 2.944139256364495E6     9.839955041094404E-1   -1.139040298470204E-3    1.613617516994077E-2   -4.832329068194856E-3    1.611824257586746E-2   -4.974042554932641E-3    9.839681224106911E-1   -2.332271364374775E-4
 2.966602634503201E6     9.839701432487072E-1   -1.460084681919260E-3    1.609990759503744E-2   -4.789297687563433E-3    1.608964904151639E-2   -4.932264383855670E-3    9.841586759772274E-1   -3.669268717842362E-5
 2.989237405131679E6     9.839692843357133E-1   -1.494285363642576E-3    1.606711983079083E-2   -4.740991029657378E-3    1.606171362055693E-2   -4.878731316977802E-3    9.841526089855116E-1   -1.586640835519565E-4
 3.012044875951098E6     9.839292996941478E-1   -1.441490188272220E-3    1.604947705799395E-2   -4.711341609343224E-3    1.604949639444758E-2   -4.773297485053028E-3    9.841214295752979E-1   -2.833352390442098E-4
 3.035026364640187E6     9.840800249192198E-1   -1.459584924491896E-3    1.601974034399162E-2   -4.661925301509112E-3    1.601610413275223E-2   -4.725571489893068E-3    9.841138873323702E-1   -4.838900943545726E-4
 3.058183198931389E6     9.840947321004565E-1   -1.453183041977705E-3    1.598706764768177E-2   -4.611503960583027E-3    1.598918477688316E-2   -4.678820370867897E-3    9.842138661547948E-1   -6.024259200292240E-4
 3.081516716687564E6     9.840655279788700E-1   -1.651956448860204E-3    1.596073148211611E-2   -4.563027291447705E-3    1.595844649599674E-2   -4.629536976346444E-3    9.841685065500133E-1   -7.374744737495974E-4
 3.105028265979277E6     9.841385869368019E-1   -1.616155930167675E-3    1.593142606866114E-2   -4.511581404914287E-3    1.593423258586910E-2   -4.578030935129734E-3    9.841551753535835E-1   -9.072909534531189E-4
 3.128719205162701E6     9.841447286934168E-1   -1.719219646542369E-3    1.590680772811476E-2   -4.459981283466119E-3    1.589926980777482E-2   -4.526693114037556E-3    9.842358109852911E-1   -9.615999118162020E-4
 3.152590902958065E6     9.841033084123783E-1   -2.056506654196894E-3    1.587116856729544E-2   -4.411086220820384E-3    1.587203141028633E-2   -4.476740083533315E-3    9.842628802680533E-1   -1.098564650614901E-3
 3.176644738528751E6     9.841706647338501E-1   -2.145670638506430E-3    1.584459168770996E-2   -4.366236283895846E-3    1.584465038677199E-2   -4.428736196776868E-3    9.842873947716708E-1   -1.258381071803946E-3
 3.200882101560967E6     9.842237417585751E-1   -2.213844002945511E-3    1.581845552761822E-2   -4.315472020722954E-3    1.581247734234802E-2   -4.380591539927132E-3    9.842735559539488E-1   -1.419504153775939E-3
 3.225304392344028E6     9.842882226789714E-1   -2.302704498357250E-3    1.578378483042653E-2   -4.270419365152355E-3    1.579027801581069E-2   -4.333401258105868E-3    9.843261756929922E-1   -1.585575280854412E-3
 3.249913021851289E6     9.843192600322499E-1   -2.280598828017564E-3    1.575759162179519E-2   -4.213987951151204E-3    1.575681687715608E-2   -4.275373725857569E-3    9.843600804387606E-1   -1.593846533701531E-3
 3.274709411821612E6     9.842382456119347E-1   -2.674984648147831E-3    1.572748490015907E-2   -4.167824757982001E-3    1.572920848406422E-2   -4.229145706622772E-3    9.844146263623016E-1   -1.593423913649013E-3
 3.299694994841541E6     9.843441235751341E-1   -2.478729611334335E-3    1.570008601371518E-2   -4.117748306897573E-3    1.570465990021705E-2   -4.181818765182882E-3    9.843850456518828E-1   -1.861539695300204E-3
 3.324871214428060E6     9.843860894972637E-1   -2.747886220455917E-3    1.567348377346254E-2   -4.058182756330039E-3    1.567189528856334E-2   -4.141738397543766E-3    9.845272993896463E-1   -1.659051471255970E-3
 3.350239525111979E6     9.843784099135429E-1   -3.000643642207471E-3    1.564209495226474E-2   -4.015879110461781E-3    1.564349864262306E-2   -4.088262563264736E-3    9.845274835728640E-1   -1.837108279326664E-3
 3.375801392522001E6     9.844082631022884E-1   -2.999660887923608E-3    1.561285920403046E-2   -3.966065252179201E-3    1.561298742079708E-2   -4.038879047387455E-3    9.844851830588638E-1   -1.978311926363103E-3
 3.401558293469354E6     9.844444571592168E-1   -3.129237473794171E-3    1.559136613502400E-2   -3.918012465605992E-3    1.559318170451303E-2   -3.984754204763268E-3    9.844502806550046E-1   -2.213328131538023E-3
 3.427511716033138E6     9.845164548417005E-1   -3.146885726675265E-3    1.556195799629573E-2   -3.866422471383774E-3    1.556362813530736E-2   -3.932013231734421E-3    9.844201859653132E-1   -2.449755754556223E-3
 3.453663159646295E6     9.845218727811661E-1   -3.350030851192518E-3    1.553336302885770E-2   -3.819558465491673E-3    1.553591470011472E-2   -3.883493270941770E-3    9.845423111681344E-1   -2.393599804233187E-3
 3.480014135182226E6     9.845801305083037E-1   -3.308583109116728E-3    1.550814422788799E-2   -3.768185606269251E-3    1.551031590793601E-2   -3.826649854499100E-3    9.846046827708357E-1   -2.359933294593710E-3
 3.506566165042107E6     9.846150537173952E-1   -3.167834034839168E-3    1.547943729135797E-2   -3.722653037106416E-3    1.548531786283448E-2   -3.767583644346936E-3    9.847523571107433E-1   -2.273516826153933E-3
 3.533320783242811E6     9.846772540456636E-1   -3.323111464627717E-3    1.545618021303585E-2   -3.670410244966305E-3    1.545721472631333E-2   -3.717271090528496E-3    9.848431998207962E-1   -2.128408594844784E-3
 3.560279535505542E6     9.846538125782727E-1   -3.441803971640567E-3    1.542712469449401E-2   -3.621638768704845E-3    1.543271295587329E-2   -3.668178679901975E-3    9.846946843576299E-1   -2.641087794405835E-3
 3.587443979345170E6     9.846676915424144E-1   -3.656765163868719E-3    1.539853744825997E-2   -3.574559447730105E-3    1.540678588046021E-2   -3.614633313712789E-3    9.847439010367309E-1   -2.643039459378342E-3
 3.614815684160168E6     9.846760358345368E-1   -3.854267790462120E-3    1.536770547541432E-2   -3.524105529821782E-3    1.537726426358962E-2   -3.564730255797750E-3    9.847044520944109E-1   -3.020681797194148E-3
 3.642396231323309E6     9.846845682363938E-1   -3.896160987933587E-3    1.534310222052549E-2   -3.471795000250120E-3    1.535167490319077E-2   -3.518045511995108E-3    9.846613953191764E-1   -3.208894710690303E-3
 3.670187214273024E6     9.847513345785139E-1   -4.109540618657554E-3    1.529704395580142E-2   -3.393440316975565E-3    1.530808802591129E-2   -3.518752458507697E-3    9.845668763745771E-1   -3.414923912626061E-3
 3.698190238605455E6     9.847887566967151E-1   -4.193065406414347E-3    1.527144056932195E-2   -3.341043903003619E-3    1.527552025076053E-2   -3.472581677759243E-3    9.846463078195766E-1   -3.511913680585383E-3
 3.726406922167240E6     9.848698963117128E-1   -4.314217321201321E-3    1.524811581868539E-2   -3.292696077714319E-3    1.525389730213355E-2   -3.416842743714477E-3    9.847645444810219E-1   -3.356328216263280E-3
 3.754838895148946E6     9.848394373382808E-1   -4.536127503471398E-3    1.521968497369368E-2   -3.245654565582079E-3    1.522786444988378E-2   -3.364082705844717E-3    9.848829286330956E-1   -3.401657992438992E-3
 3.783487800179276E6     9.848246918152428E-1   -4.554934792539365E-3    1.519721406056768E-2   -3.194319425674672E-3    1.520311212706059E-2   -3.285598947241893E-3    9.847684836715294E-1   -3.672631981003661E-3
 3.812355292419964E6     9.849181954644616E-1   -4.398941265858470E-3    1.517304389235461E-2   -3.136226777436160E-3    1.517893368857067E-2   -3.238766147642971E-3    9.847826141066038E-1   -3.842360549663048E-3
 3.841443039661395E6     9.849003300508912E-1   -4.593419108643349E-3    1.514709301365499E-2   -3.084680553961115E-3    1.515117663138475E-2   -3.187744085790844E-3    9.848991868588920E-1   -3.770997545378049E-3
 3.870752722418987E6     9.849542375802591E-1   -4.643917280549393E-3    1.512090735948169E-2   -3.035162388083889E-3    1.512606838013173E-2   -3.133039039684469E-3    9.849469319807895E-1   -3.737341986781676E-3
 3.900286034030236E6     9.849742861058273E-1   -4.652979976765143E-3    1.509875229198926E-2   -2.976251135059613E-3    1.509888998342784E-2   -3.080752699906212E-3    9.850507953902566E-1   -3.774987702683777E-3
 3.930044680752580E6     9.849792925371751E-1   -4.825441050798624E-3    1.507346177757646E-2   -2.927158618166959E-3    1.507476233435973E-2   -3.029182985247483E-3    9.849748362713554E-1   -3.992189132493050E-3
 3.960030381861967E6     9.849858635502995E-1   -5.094781563189048E-3    1.504233222087547E-2   -2.874371790870895E-3    1.505061556810893E-2   -2.973020932740461E-3    9.850063373548538E-1   -4.239255115013254E-3
 3.990244869752173E6     9.850018232689557E-1   -5.147990542958353E-3    1.501500252397083E-2   -2.823614690981296E-3    1.502968548088509E-2   -2.922715830762580E-3    9.851401754878417E-1   -3.987092504130421E-3
 4.020689890034929E6     9.850223083808837E-1   -5.124328624140131E-3    1.500238606321498E-2   -2.781676785133016E-3    1.501230589358510E-2   -2.838616659085438E-3    9.851267504506751E-1   -4.268717994572876E-3
 4.051367201640718E6     9.851173224449251E-1   -4.962357309445009E-3    1.497822278612460E-2   -2.731961435781860E-3    1.498457443953228E-2   -2.784293079479735E-3    9.850188217218190E-1   -4.551342653755563E-3
 4.082278576920427E6     9.851081959958047E-1   -5.350909198984042E-3    1.494856114146459E-2   -2.680912468410270E-3    1.496064799505744E-2   -2.734440979589037E-3    9.850517719709382E-1   -4.592077470299244E-3
 4.113425801747740E6     9.850868737256542E-1   -5.416609181967024E-3    1.492041341420733E-2   -2.622216161101750E-3    1.493199064048572E-2   -2.683217428836754E-3    9.851132126313492E-1   -4.690130442880475E-3
 4.144810675622302E6     9.851104018478790E-1   -5.481294725047572E-3    1.489484395265624E-2   -2.573727422535450E-3    1.491120695139384E-2   -2.625067005746916E-3    9.851701607479947E-1   -4.771167203544043E-3
 4.176435011773718E6     9.851839454246609E-1   -5.437240919474144E-3    1.487646532608588E-2   -2.517019844938001E-3    1.488357748743749E-2   -2.570714226271602E-3    9.852091703467408E-1   -4.819205254162444E-3
 4.208300637266261E6     9.851998745500891E-1   -5.698578895111450E-3    1.484873092489958E-2   -2.468241314150299E-3    1.485957990119183E-2   -2.518360322300736E-3    9.851939831459575E-1   -4.970636184184580E-3
 4.240409393104453E6     9.851870088912389E-1   -5.827607675396603E-3    1.482383795991745E-2   -2.411606474299373E-3    1.483700408805593E-2   -2.463239293178733E-3    9.852532622275273E-1   -5.034329370156214E-3
 4.272763134339464E6     9.852189791252201E-1   -5.858455925747482E-3    1.479734277909404E-2   -2.360683138828139E-3    1.481489636606349E-2   -2.406482206834765E-3    9.852799837254917E-1   -5.143152741461466E-3
 4.305363730176185E6     9.852426788726840E-1   -5.984736706883599E-3    1.477292096948258E-2   -2.309664961623006E-3    1.478965469209610E-2   -2.353607854382232E-3    9.853988261021646E-1   -4.886454467939438E-3
 4.338213064081349E6     9.852586672659418E-1   -6.232324269948109E-3    1.474355042975760E-2   -2.251484412036101E-3    1.475667528316505E-2   -2.306615366549564E-3    9.853720015459270E-1   -5.114960799564251E-3
 4.371313033892244E6     9.853087104814530E-1   -6.359282362946249E-3    1.472547792587583E-2   -2.195343482158616E-3    1.473114181471094E-2   -2.256774948247390E-3    9.853759223852279E-1   -5.309919928205334E-3
 4.404665551926396E6     9.853306766542163E-1   -6.375560518409732E-3    1.469634686232060E-2   -2.143225299813140E-3    1.470762689813798E-2   -2.198982783203049E-3    9.853748535198024E-1   -5.476450316339200E-3
 4.438272545092077E6     9.853556864937068E-1   -6.447082202504215E-3    1.467289179279287E-2   -2.081595198708371E-3    1.468113757585898E-2   -2.146510342662396E-3    9.855066347840451E-1   -5.466939157240697E-3
 4.472135954999580E6     9.853958314660500E-1   -6.515236463731246E-3    1.464861396952066E-2   -2.034303005721575E-3    1.465818239138771E-2   -2.090271946279377E-3    9.855022050487414E-1   -5.559099270486587E-3
 4.506257738073424E6     9.853948526318723E-1   -6.617366286658892E-3    1.461973078009178E-2   -1.977941837968346E-3    1.463267019873240E-2   -2.037951970636870E-3    9.854258518985143E-1   -5.879994405425173E-3
 4.540639865665382E6     9.854114148965353E-1   -6.691127784798345E-3    1.460470184236168E-2   -1.925555380053888E-3    1.461706484908591E-2   -1.966435599321208E-3    9.855216286641034E-1   -5.903587668700016E-3
 4.575284324168356E6     9.854693910357691E-1   -6.915706807670388E-3    1.458082183809455E-2   -1.875059576892672E-3    1.459591655473711E-2   -1.912165798617751E-3    9.855730335007082E-1   -5.998644494434389E-3
 4.610193115131186E6     9.855045428660739E-1   -7.065391151714653E-3    1.454825942863902E-2   -1.803549768711422E-3    1.455749267739689E-2   -1.892068784913849E-3    9.855299950302190E-1   -6.127962394194525E-3
 4.645368255374223E6     9.854697868256403E-1   -7.201518232408919E-3    1.452275023705820E-2   -1.755330141156403E-3    1.453581021543166E-2   -1.836182355050492E-3    9.854997172443595E-1   -6.261656288386903E-3
 4.680811777105891E6     9.854882827443081E-1   -7.316395013218563E-3    1.450008933561478E-2   -1.698217895265252E-3    1.451085973846405E-2   -1.777627632593766E-3    9.856172063279997E-1   -6.155727441522017E-3
 4.716525728040087E6     9.855234053625807E-1   -7.426162969628784E-3    1.447437277205305E-2   -1.644307810745807E-3    1.448411283538023E-2   -1.720835823405754E-3    9.855794906705617E-1   -6.391434663063910E-3
 4.752512171514469E6     9.856088474766811E-1   -7.547925021478701E-3    1.445356127414970E-2   -1.587684492077229E-3    1.446274009317661E-2   -1.669793170926996E-3    9.856644137116353E-1   -6.266071013676985E-3
 4.788773186609713E6     9.855964962983513E-1   -7.711516405182781E-3    1.442864704653325E-2   -1.528657274615239E-3    1.444066928517360E-2   -1.610704110952738E-3    9.855617557506444E-1   -6.791799800337007E-3
 4.825310868269563E6     9.856263950596063E-1   -7.908879045218802E-3    1.440078575063387E-2   -1.471003900605890E-3    1.441830730860435E-2   -1.580594235671633E-3    9.855819491804888E-1   -6.893981557271713E-3
 4.862127327421905E6     9.856564983000599E-1   -8.038501304759806E-3    1.437887317658029E-2   -1.412528738913594E-3    1.439622183774356E-2   -1.521376268488969E-3    9.856654861545353E-1   -6.948843556807882E-3
 4.899224691100715E6     9.856411703510405E-1   -8.184042383103581E-3    1.435407034162208E-2   -1.358196561533331E-3    1.436991269550628E-2   -1.461604290837030E-3    9.857035089892587E-1   -6.976749571387252E-3
 4.936605102568937E6     9.856682670522187E-1   -8.298407341973860E-3    1.433151754259963E-2   -1.302775533843813E-3    1.435224093257115E-2   -1.399450823535187E-3    9.857686312556089E-1   -6.944925531750558E-3
 4.974270721442348E6     9.856560143602086E-1   -8.411601007069145E-3    1.430932426200758E-2   -1.243977865376382E-3    1.432941069611383E-2   -1.342406963964507E-3    9.857823654205840E-1   -7.031788196262899E-3
 5.012223723814265E6     9.857020059210818E-1   -8.488806213079417E-3    1.428575541170538E-2   -1.185178214681953E-3    1.430440170724242E-2   -1.292079032580677E-3    9.857364924729317E-1   -7.323145535628552E-3
 5.050466302381308E6     9.857596974281218E-1   -8.635475417057281E-3    1.426509320801254E-2   -1.127067937806938E-3    1.427979105101177E-2   -1.230751063324723E-3    9.857103117926159E-1   -7.554430664025188E-3
 5.089000666570071E6     9.857280138605530E-1   -8.795717440806199E-3    1.424074450391929E-2   -1.065000245211108E-3    1.426139654686998E-2   -1.171480966234841E-3    9.857330514176081E-1   -7.613436429573481E-3
 5.127829042664761E6     9.857613314694220E-1   -8.908818129090170E-3    1.422109778821903E-2   -1.009883247631413E-3    1.423987963092927E-2   -1.118757163547614E-3    9.857608383598500E-1   -7.765299775363984E-3
 5.166953673935857E6     9.857642580513466E-1   -9.078297212331271E-3    1.420041846625027E-2   -9.512452975579699E-4    1.421540887589851E-2   -1.060090079721875E-3    9.857781162695166E-1   -7.921821627615833E-3
 5.206376820769652E6     9.858328421679096E-1   -9.129593279989082E-3    1.417675575536628E-2   -8.866382795761619E-4    1.419490966937944E-2   -1.004048907083219E-3    9.857724185738955E-1   -8.219510157647249E-3
 5.246100760798878E6     9.858572360070956E-1   -9.281915201065275E-3    1.415446020403220E-2   -8.380599508229000E-4    1.416739219897266E-2   -9.509241360206068E-4    9.857421736421809E-1   -8.495749651304355E-3
 5.286127789034322E6     9.859058872260872E-1   -9.397086851604536E-3    1.413516216966210E-2   -7.744859491176932E-4    1.414900296822702E-2   -8.877238806032467E-4    9.857803231347753E-1   -8.438496327745678E-3
 5.326460217997355E6     9.859057401092475E-1   -9.284353046464446E-3    1.413173283602016E-2   -7.459299058544905E-4    1.414717617905282E-2   -7.574890342447010E-4    9.858707377848183E-1   -8.607330791922772E-3
 5.367100377853584E6     9.858597585557533E-1   -9.481777716989662E-3    1.410814941256275E-2   -6.831166781842586E-4    1.412421345363814E-2   -6.947157728654386E-4    9.859156142186379E-1   -8.701430304115278E-3
 5.408050616547454E6     9.859292924544675E-1   -9.574275673009652E-3    1.408508077035557E-2   -6.277216296627384E-4    1.410547042760713E-2   -6.378429530553533E-4    9.859571586077724E-1   -8.822066891139043E-3
 5.449313299937895E6     9.858962900999299E-1   -9.754015350478713E-3    1.406330082889412E-2   -5.638695765586364E-4    1.407988679033945E-2   -5.795701972808294E-4    9.859490183910488E-1   -8.903051797884969E-3
 5.490890811935049E6     9.859046319479627E-1   -1.007381164048639E-2    1.402000810485702E-2   -4.796272039660257E-4    1.404316266257879E-2   -5.911380295130866E-4    9.858724152558948E-1   -9.422628888003035E-3
 5.532785554637930E6     9.859046590543461E-1   -1.022432928799821E-2    1.400066222351559E-2   -4.186279265553204E-4    1.401996667251577E-2   -5.291655239003205E-4    9.858832591084508E-1   -9.403149410031860E-3
 5.574999948473252E6     9.859376003621803E-1   -1.018966179498478E-2    1.400269171582462E-2   -3.847475545771868E-4    1.401896934612277E-2   -3.955536839239520E-4    9.859113238608197E-1   -9.606992458532543E-3
 5.617536432335250E6     9.859309470506149E-1   -1.032708895480261E-2    1.397737734116587E-2   -3.253376630533703E-4    1.399547769011771E-2   -3.331672716356820E-4    9.859207301289346E-1   -9.678781063827318E-3
 5.660397463726575E6     9.859898142028050E-1   -1.046077579867292E-2    1.395835552360812E-2   -2.628961096493086E-4    1.397613809380900E-2   -2.733939577936820E-4    9.860010504452877E-1   -9.803270994716787E-3
 5.703585518900323E6     9.860367307840342E-1   -1.079514565468439E-2    1.391792191938644E-2   -1.796809232759692E-4    1.393992654238130E-2   -2.889410323006148E-4    9.859886305492300E-1   -1.011633873149153E-2
 5.747103093003022E6     9.860639321752120E-1   -1.092029787217836E-2    1.389663689326566E-2   -1.169802574126486E-4    1.391736232061226E-2   -2.252655169647882E-4    9.860378381369806E-1   -1.017720121980354E-2
 5.790952700218840E6     9.860742124781664E-1   -1.106079571213997E-2    1.387461680704931E-2   -5.479240190708567E-5    1.389957344491474E-2   -1.648358648419359E-4    9.860336140224487E-1   -1.039132249073006E-2
 5.835136873914825E6     9.860800626787365E-1   -1.099543383169179E-2    1.387711938291898E-2   -2.244646225057126E-5    1.389176334027161E-2   -2.754478950423917E-5    9.861027436097113E-1   -1.026193733336640E-2
 5.879658166787256E6     9.860988520072355E-1   -1.114292818725664E-2    1.385863332959827E-2    3.791343859152897E-5    1.387086274053349E-2    3.576865529691278E-5    9.860767454059639E-1   -1.045906244159910E-2
 5.924519151009166E6     9.860689920864033E-1   -1.129771397398534E-2    1.383648720103317E-2    1.020449851494288E-4    1.384905048489287E-2    1.002811820463449E-4    9.861158843968970E-1   -1.053389065125169E-2
 5.969722418378883E6     9.860879088480815E-1   -1.142264696444881E-2    1.381709754653975E-2    1.659465181385383E-4    1.382784787939945E-2    1.579659016304300E-4    9.861478906793191E-1   -1.088027775257583E-2
 6.015270580469812E6     9.861274428676259E-1   -1.159385332201142E-2    1.379835795311000E-2    2.311835020771757E-4    1.380844794139366E-2    2.238255872404031E-4    9.860947616112500E-1   -1.102668586547220E-2
 6.061166268781302E6     9.861634285030935E-1   -1.171807283434015E-2    1.377790632295105E-2    2.941090028324549E-4    1.378868214692647E-2    2.887928310115659E-4    9.861528483618246E-1   -1.143083966966995E-2
 6.107412134890671E6     9.861775361217738E-1   -1.188265513794003E-2    1.375603642850327E-2    3.610261662978666E-4    1.376378798996873E-2    3.452152685709650E-4    9.861611958414244E-1   -1.153828817750431E-2
 6.154010850606443E6     9.862437732518157E-1   -1.203611068415005E-2    1.373516754145633E-2    4.270716721460894E-4    1.374306166660596E-2    4.097239398674135E-4    9.861861331681406E-1   -1.169340686399667E-2
 6.200965108122637E6     9.862641365230320E-1   -1.221184396856234E-2    1.371933228488314E-2    4.903542294528836E-4    1.372053003557165E-2    4.729711227136081E-4    9.861821218426708E-1   -1.165728162192765E-2
 6.248277620174343E6     9.862930597199208E-1   -1.236369628487815E-2    1.369640026951118E-2    5.538385649453467E-4    1.370166069686076E-2    5.379571362584334E-4    9.862166212609472E-1   -1.195223825698129E-2
 6.295951120194497E6     9.863730365934783E-1   -1.249643076208984E-2    1.367651417018385E-2    6.222348989970061E-4    1.368261466767483E-2    6.014518396826572E-4    9.862072862217813E-1   -1.221998815536987E-2
 6.343988362471664E6     9.862824482879760E-1   -1.263332450502160E-2    1.365881699241266E-2    6.781341018871818E-4    1.367123623113673E-2    6.746090023951472E-4    9.861981737186154E-1   -1.240230970571877E-2
 6.392392122309345E6     9.863171380609351E-1   -1.276682289862876E-2    1.364112007641496E-2    7.422608795013282E-4    1.364879322542493E-2    7.383406768263641E-4    9.862308240920240E-1   -1.245208217001347E-2
 6.441165196186168E6     9.863385037057539E-1   -1.294207728972286E-2    1.362203052133527E-2    8.084330497645023E-4    1.363090262602975E-2    8.060421067439648E-4    9.862794160949121E-1   -1.256495430747487E-2
 6.490310401917514E6     9.863335353347280E-1   -1.308057424092953E-2    1.360324901309654E-2    8.750239096388735E-4    1.361271401004988E-2    8.731097818106948E-4    9.862981876460105E-1   -1.261414494597946E-2
 6.539830578818345E6     9.863767818462860E-1   -1.324314641850473E-2    1.358575199058868E-2    9.384789588453461E-4    1.359311845680116E-2    9.379862116084212E-4    9.863213173663632E-1   -1.286645254949763E-2
 6.589728587867169E6     9.863680426818588E-1   -1.338168719007326E-2    1.356660321220324E-2    1.006787359554763E-3    1.357819089841765E-2    1.003596079331303E-3    9.863392517309684E-1   -1.307589230603146E-2
 6.640007311871376E6     9.863894702549800E-1   -1.354333717534745E-2    1.354404869645138E-2    1.072485512072502E-3    1.355672623370504E-2    1.071084317469839E-3    9.863568730532037E-1   -1.331668928506600E-2
 6.690669655633785E6     9.864029041884924E-1   -1.370805492594800E-2    1.352899529245420E-2    1.138623506841481E-3    1.353678719055724E-2    1.138372082953113E-3    9.864326589719588E-1   -1.327818482899373E-2
 6.741718546120445E6     9.863563759879884E-1   -1.384256336363080E-2    1.350987888306735E-2    1.211126732935116E-3    1.351822843007138E-2    1.203192964951071E-3    9.864200846921420E-1   -1.348903886707197E-2
 6.793156932629797E6     9.863801840533986E-1   -1.402587204968034E-2    1.349105685434936E-2    1.276063037907178E-3    1.349841563375661E-2    1.270403942009419E-3    9.864485214486503E-1   -1.363745119015364E-2
 6.844987786962981E6     9.863720382466883E-1   -1.417616080030679E-2    1.347101440520830E-2    1.341104020690649E-3    1.348425336002527E-2    1.337925574450799E-3    9.864810600444601E-1   -1.362596163852395E-2
 6.897214103595586E6     9.864091195776296E-1   -1.444809641457609E-2    1.345038464141643E-2    1.425780978470945E-3    1.345592323649111E-2    1.388344166014107E-3    9.865324395531631E-1   -1.386630029181707E-2
 6.949838899850640E6     9.863675400304517E-1   -1.456220125153474E-2    1.342910396552616E-2    1.492058853205879E-3    1.343788490830690E-2    1.455076138623013E-3    9.865986800083826E-1   -1.401729723561159E-2
 7.002865216072913E6     9.864043009219402E-1   -1.488123981754927E-2    1.339978257392649E-2    1.573239738086708E-3    1.341641666323603E-2    1.477997551493250E-3    9.866239950615356E-1   -1.424927927834107E-2
 7.056296115804635E6     9.863953515920454E-1   -1.498267187718431E-2    1.338009133782380E-2    1.644537805237677E-3    1.339936768573127E-2    1.545867973821481E-3    9.866290710029820E-1   -1.441908523482547E-2
 7.110134685962399E6     9.864223057386616E-1   -1.517313441874535E-2    1.336301152911858E-2    1.712716697093181E-3    1.338058218408744E-2    1.614562199673743E-3    9.865950911812589E-1   -1.461282764653652E-2
 7.164384037015557E6     9.864612172326118E-1   -1.536130201808237E-2    1.334286034783470E-2    1.784231510242475E-3    1.336458459662688E-2    1.685267295626889E-3    9.865933586708693E-1   -1.477105963577277E-2
 7.219047303165923E6     9.864623050559184E-1   -1.555897528321690E-2    1.332575369593120E-2    1.857752706235300E-3    1.334676805747759E-2    1.754531452585717E-3    9.866406212317893E-1   -1.494850062165538E-2
 7.274127642528819E6     9.864848473454273E-1   -1.567504043008296E-2    1.330638659179184E-2    1.926036188233244E-3    1.333212824414595E-2    1.824850296045780E-3    9.866556200013158E-1   -1.512487983851825E-2
 7.329628237315600E6     9.865260606169377E-1   -1.594801037180100E-2    1.328375831085768E-2    2.001582404659633E-3    1.332202444868619E-2    1.871939216605191E-3    9.867379309904013E-1   -1.528163926511679E-2
 7.385552294017412E6     9.864978433589359E-1   -1.607700945548940E-2    1.326643891776708E-2    2.075239371836294E-3    1.330496147357776E-2    1.940775952153098E-3    9.867588919265934E-1   -1.544945014465273E-2
 7.441903043590503E6     9.865437904065586E-1   -1.608187412948697E-2    1.327216611728778E-2    2.122975539309996E-3    1.328537111590029E-2    2.094168385214541E-3    9.867465348107800E-1   -1.562208800192574E-2
 7.498683741642874E6     9.865652444139984E-1   -1.623426679646977E-2    1.325857354270179E-2    2.195078379207656E-3    1.326463266577890E-2    2.166501973696024E-3    9.867543635207462E-1   -1.581060988740940E-2
 7.555897668622349E6     9.866218118196006E-1   -1.658448364756635E-2    1.321949317079055E-2    2.288692873382557E-3    1.324621169296012E-2    2.182645727472529E-3    9.867698521364067E-1   -1.595850565667907E-2
 7.613548130006171E6     9.866439302432495E-1   -1.677190093148883E-2    1.320478315959417E-2    2.362176332536210E-3    1.323408904827622E-2    2.252494550208475E-3    9.867932570179003E-1   -1.613788755102086E-2
 7.671638456491867E6     9.866777604975477E-1   -1.706907114322111E-2    1.316863855864023E-2    2.443051551096035E-3    1.324664533270204E-2    2.263583253636797E-3    9.868310237780131E-1   -1.631269299562073E-2
 7.730172004189732E6     9.866506618885261E-1   -1.721222764550319E-2    1.315332468233962E-2    2.516471424146845E-3    1.323481660760651E-2    2.336826332667239E-3    9.868214811113983E-1   -1.650133438000491E-2
 7.789152154816771E6     9.867444628533245E-1   -1.740627866329679E-2    1.313800661950599E-2    2.590187913866759E-3    1.321702471213658E-2    2.408657653440812E-3    9.868176374687557E-1   -1.666296481484300E-2
 7.848582315891974E6     9.866787714845646E-1   -1.749019437979837E-2    1.313659820048338E-2    2.656813848478344E-3    1.316933007505421E-2    2.546942886083359E-3    9.868770004154273E-1   -1.685187978350407E-2
 7.908465920933248E6     9.867022267312623E-1   -1.767842544998272E-2    1.312085389177658E-2    2.732646465049956E-3    1.315024641846854E-2    2.620551690160612E-3    9.868886368665656E-1   -1.703336831830934E-2
 7.968806429655775E6     9.867190788870153E-1   -1.786881523570279E-2    1.310551401005064E-2    2.808914734023566E-3    1.313768802342667E-2    2.693677013363645E-3    9.868903800661054E-1   -1.720626663458785E-2
 8.029607328171868E6     9.867511463677531E-1   -1.804626973160977E-2    1.308942480442073E-2    2.882964935137141E-3    1.312223419588540E-2    2.770894168413054E-3    9.868634372426429E-1   -1.737783928433708E-2
 8.090872129192449E6     9.867728987663020E-1   -1.819520012306554E-2    1.307237431548017E-2    2.958549731864595E-3    1.310552865095768E-2    2.845702475105389E-3    9.868650424301734E-1   -1.756361792772190E-2
 8.152604372229892E6     9.867248852363337E-1   -1.840726074325303E-2    1.305580162753935E-2    3.035935983376543E-3    1.308800380306092E-2    2.919747472905243E-3    9.868558928173714E-1   -1.776350850994467E-2
 8.214807623802581E6     9.867831642990107E-1   -1.862628595819000E-2    1.303879431151104E-2    3.107996641415960E-3    1.307393474904482E-2    2.995823428675259E-3    9.868834586558400E-1   -1.794408439787943E-2
 8.277485477640945E6     9.867772972532693E-1   -1.879558838137381E-2    1.302477702290283E-2    3.186372321455157E-3    1.306039379774048E-2    3.072367983559335E-3    9.868798366142604E-1   -1.812803623465643E-2
 8.340641554895067E6     9.867769258088086E-1   -1.899314940520064E-2    1.301087997276757E-2    3.265372054428701E-3    1.304745120118818E-2    3.149854434720511E-3    9.869304182879977E-1   -1.831444889742191E-2
 8.404279504343957E6     9.868203967832474E-1   -1.918184587667968E-2    1.299103779274124E-2    3.343361800977669E-3    1.303192317261560E-2    3.226094054118590E-3    9.869542049833397E-1   -1.850084360012093E-2
 8.468403002606256E6     9.868165449844082E-1   -1.938340861320073E-2    1.297831739937722E-2    3.422608473258885E-3    1.301628644417231E-2    3.303568587700640E-3    9.869603622021832E-1   -1.871599111967740E-2
 8.533015754352720E6     9.868119055773795E-1   -1.952084649766155E-2    1.297270966802221E-2    3.491835970121249E-3    1.299658812814809E-2    3.413666775146387E-3    9.869820518292973E-1   -1.891378102271377E-2
 8.598121492520234E6     9.868098546096042E-1   -1.975484662887352E-2    1.295700714669410E-2    3.568371301056651E-3    1.298213081272746E-2    3.491529675961573E-3    9.869660361390382E-1   -1.906564950903366E-2
 8.663723978527457E6     9.869334440422735E-1   -2.012114482561419E-2    1.291692249300427E-2    3.659139923259694E-3    1.301761567587372E-2    3.475976913817706E-3    9.869928022985994E-1   -1.925988102636969E-2
 8.729827002492212E6     9.869332999415625E-1   -2.030377505920683E-2    1.289984792784402E-2    3.737994331957729E-3    1.300383055282461E-2    3.554074834035740E-3    9.869974862452782E-1   -1.946878378542428E-2
 8.796434383450346E6     9.869130081743474E-1   -2.052703027214290E-2    1.288490280286114E-2    3.817536378103472E-3    1.299066081075177E-2    3.634633097491321E-3    9.870602176693480E-1   -1.969289095088662E-2
 8.863549969576446E6     9.869375536479347E-1   -2.067089051266809E-2    1.287724636189144E-2    3.898214776855145E-3    1.294559431307191E-2    3.747758981089635E-3    9.870172354217810E-1   -1.986969972545019E-2
 8.931177638406139E6     9.869093441426718E-1   -2.086946143142834E-2    1.286741503154958E-2    3.978814213660880E-3    1.293379366877803E-2    3.830904267799104E-3    9.870640701861596E-1   -2.007092186517320E-2
 8.999321297060097E6     9.868886944358317E-1   -2.107815174931484E-2    1.284943788972585E-2    4.059002861924178E-3    1.292142286357097E-2    3.910896995881632E-3    9.870763694322480E-1   -2.029738859920992E-2
 9.067984882469844E6     9.869526122562579E-1   -2.130809423923988E-2    1.284056524608926E-2    4.141783077770102E-3    1.290909346505714E-2    3.992928515717631E-3    9.870512879825920E-1   -2.048805910387888E-2
 9.137172361605095E6     9.869520643093043E-1   -2.150514120896676E-2    1.282308393818992E-2    4.222583747508156E-3    1.289387291664982E-2    4.074604369064749E-3    9.870594111229506E-1   -2.068313418940492E-2
 9.206887731702998E6     9.869754126446693E-1   -2.156853890666682E-2    1.283396052086544E-2    4.296296900057026E-3    1.285586670903071E-2    4.234068100905125E-3    9.871290501960948E-1   -2.091692570745712E-2
 9.277135020499127E6     9.869886637479854E-1   -2.179091051701895E-2    1.281954056640574E-2    4.375914206420994E-3    1.284369494073182E-2    4.319437850871079E-3    9.871563396957239E-1   -2.113453041265849E-2
 9.347918286460072E6     9.869799001008451E-1   -2.200430592719328E-2    1.280645438107292E-2    4.461643650882208E-3    1.283133351723611E-2    4.401179441983108E-3    9.871413258642550E-1   -2.132033677202020E-2
 9.419241619017981E6     9.870147819261522E-1   -2.221435608806672E-2    1.279346277372555E-2    4.545533286899151E-3    1.281561337153834E-2    4.484697763327255E-3    9.871525857034913E-1   -2.157291919187593E-2
 9.491109138806809E6     9.869844343705307E-1   -2.243706950070592E-2    1.277961422436243E-2    4.630862831267194E-3    1.280183472025835E-2    4.568209533150173E-3    9.871243811328623E-1   -2.174594730266644E-2
 9.563524997900363E6     9.869885522087875E-1   -2.267619160267741E-2    1.276529083922262E-2    4.717688053662093E-3    1.278686549840289E-2    4.653995290586324E-3    9.870803767180226E-1   -2.196191340219541E-2
 9.636493380052259E6     9.869910847519949E-1   -2.285474751160493E-2    1.275065315471341E-2    4.801726472799465E-3    1.277610541023005E-2    4.739355966595836E-3    9.871452001997958E-1   -2.221818546035476E-2
 9.710018500937525E6     9.869894293178383E-1   -2.307480836518018E-2    1.273768110908799E-2    4.884224335323812E-3    1.276500431830530E-2    4.823470280395115E-3    9.871348865669340E-1   -2.241640430785717E-2
 9.784104608396223E6     9.870084049231078E-1   -2.344423274721532E-2    1.270881975713129E-2    4.982424030387159E-3    1.276387389172720E-2    4.857068044379665E-3    9.871687022822327E-1   -2.260214160494918E-2
 9.858755982678859E6     9.870291842593375E-1   -2.363554755028807E-2    1.269415460476126E-2    5.067184634726553E-3    1.275268513091917E-2    4.942428418007084E-3    9.871530181814293E-1   -2.283297252042399E-2
 9.933976936693633E6     9.870343555747769E-1   -2.386503413611296E-2    1.268094248955796E-2    5.152597331532818E-3    1.273803810218430E-2    5.027395928573943E-3    9.871878504833952E-1   -2.304122176511611E-2
 1.000977181625571E7     9.870618970515332E-1   -2.412481153927428E-2    1.266913571372639E-2    5.242036461122336E-3    1.272548684858085E-2    5.115562447615739E-3    9.871878985205114E-1   -2.326818651584089E-2
 1.008614500033817E7     9.871021844032034E-1   -2.432704014826971E-2    1.265570145881282E-2    5.330395340946305E-3    1.271495777439154E-2    5.202115693442224E-3    9.871698318819154E-1   -2.348767120486989E-2
 1.016310090132507E7     9.871247502286794E-1   -2.455486790516964E-2    1.264249293431920E-2    5.418221600325470E-3    1.270439645672089E-2    5.291338544914981E-3    9.871529051647143E-1   -2.369394176891512E-2
 1.024064396526634E7     9.870777620973566E-1   -2.468233061965114E-2    1.265055708103691E-2    5.502076192457377E-3    1.267727959368060E-2    5.441333481453038E-3    9.871599370361194E-1   -2.396187949645945E-2
 1.031877867213467E7     9.871182242657059E-1   -2.492112980305654E-2    1.263499745435974E-2    5.592979099315120E-3    1.266462625924146E-2    5.531932904835407E-3    9.871820343913752E-1   -2.420139873807380E-2
 1.039750953608436E7     9.871352542102855E-1   -2.515056061351091E-2    1.262210306205495E-2    5.681698443215107E-3    1.265304742165644E-2    5.621353551415756E-3    9.872488065362722E-1   -2.440955027475160E-2
 1.047684110571204E7     9.871217484758465E-1   -2.538510263014556E-2    1.261143983321178E-2    5.774139676399209E-3    1.264307614047118E-2    5.712305615047797E-3    9.872738138954432E-1   -2.463508330188670E-2
 1.055677796431950E7     9.871273434718318E-1   -2.562939721450120E-2    1.259936590698395E-2    5.866767878104220E-3    1.263017244428644E-2    5.804749552964786E-3    9.872865694903032E-1   -2.486292388935564E-2
 1.063732473017859E7     9.872506881919874E-1   -2.607580255011635E-2    1.255106163836026E-2    5.964531182903460E-3    1.270085705704308E-2    5.771173547086785E-3    9.872771638564312E-1   -2.512742417882556E-2
 1.071848605679777E7     9.872340830346704E-1   -2.634602363159251E-2    1.253883071483770E-2    6.056464671319839E-3    1.269336085391612E-2    5.862081330083813E-3    9.872643349713589E-1   -2.536769779838110E-2
 1.080026663319129E7     9.872244634086885E-1   -2.647136370577435E-2    1.253856787190727E-2    6.151408999442011E-3    1.264157165032297E-2    5.991395329815172E-3    9.873060122103943E-1   -2.559580058717426E-2
 1.088267118414987E7     9.872887880233266E-1   -2.676932178321744E-2    1.252691771518792E-2    6.244625351009560E-3    1.263097831074996E-2    6.083043638012180E-3    9.872964976746570E-1   -2.582742588502673E-2
 1.096570447051370E7     9.872544497489878E-1   -2.705535147948419E-2    1.250825496946478E-2    6.335219449123534E-3    1.266517684331632E-2    6.142567742287818E-3    9.873047395385629E-1   -2.609980550269841E-2
 1.104937128944762E7     9.872437032803681E-1   -2.730582159001091E-2    1.249657046194770E-2    6.429044034895922E-3    1.265723643546018E-2    6.234537754808457E-3    9.873555063059730E-1   -2.634044068139395E-2
 1.113367647471805E7     9.872838180226675E-1   -2.755204605421324E-2    1.248588305689813E-2    6.522485608519627E-3    1.264802894488352E-2    6.329981376831257E-3    9.873305471290308E-1   -2.657612740630769E-2
 1.121862489697252E7     9.872056026123949E-1   -2.757135885066779E-2    1.253003799950528E-2    6.608208253893760E-3    1.254962892034059E-2    6.585268752172302E-3    9.873662863921570E-1   -2.682245316707081E-2
 1.130422146402085E7     9.872237632478912E-1   -2.776436289479126E-2    1.251933295798475E-2    6.704061803648765E-3    1.254073869566943E-2    6.682553720971230E-3    9.873348461723639E-1   -2.708628364720042E-2
 1.139047112111875E7     9.872460026281310E-1   -2.805459420118446E-2    1.250869655921176E-2    6.803115633735353E-3    1.253249099773096E-2    6.781208144764642E-3    9.873759174433848E-1   -2.731274424169610E-2
 1.147737885125368E7     9.872604889619447E-1   -2.831114891596561E-2    1.250080719778333E-2    6.897663343095580E-3    1.251886280913006E-2    6.876780002864890E-3    9.874063097831902E-1   -2.756871855763082E-2
 1.156494967543242E7     9.872756764211790E-1   -2.856373161082465E-2    1.248927388515764E-2    6.997281584376005E-3    1.250922678631103E-2    6.974400661626835E-3    9.873682751566495E-1   -2.780628709425826E-2
 1.165318865297152E7     9.872483445311668E-1   -2.883973844519911E-2    1.247523886161369E-2    7.099799768267822E-3    1.249860764403977E-2    7.066770548860631E-3    9.873532010531806E-1   -2.805301538274814E-2
 1.174210088178934E7     9.873637414976524E-1   -2.934914941947341E-2    1.241383940629388E-2    7.204472134984893E-3    1.259019841610225E-2    7.009907860733243E-3    9.873651740864824E-1   -2.834137363338712E-2
 1.183169149870061E7     9.873663098409774E-1   -2.964242170529920E-2    1.240545227721767E-2    7.303176579146173E-3    1.258499220220797E-2    7.110605939813918E-3    9.874180282223007E-1   -2.855573135312608E-2
 1.192196567971337E7     9.873396905019717E-1   -2.987328524999577E-2    1.239621019213674E-2    7.403420253487674E-3    1.257858662668929E-2    7.210139264474851E-3    9.874201480053820E-1   -2.885035923295957E-2
 1.201292864032780E7     9.873575226533912E-1   -3.014233048930839E-2    1.238584540103095E-2    7.504834959648895E-3    1.257238077860504E-2    7.310687456301519E-3    9.874339790718868E-1   -2.909011948174155E-2
 1.210458563583766E7     9.873133311622014E-1   -3.042780024932592E-2    1.237578326947221E-2    7.605973155162451E-3    1.256481752096988E-2    7.410278060541344E-3    9.874061833246962E-1   -2.939335713265703E-2
 1.219694196163385E7     9.873049506320473E-1   -3.068735660000766E-2    1.236713267840885E-2    7.707415776400801E-3    1.255786104691914E-2    7.511392083660109E-3    9.873967138321087E-1   -2.966273689994994E-2
 1.229000295351040E7     9.872690914525077E-1   -3.080669346153120E-2    1.238686625919753E-2    7.815450800526239E-3    1.245011524398093E-2    7.719595208356134E-3    9.874016177216104E-1   -2.992802947749933E-2
 1.238377398797275E7     9.872997922045482E-1   -3.110023283078148E-2    1.237876647540723E-2    7.917428711593417E-3    1.244124889291703E-2    7.820784848837421E-3    9.874327566139119E-1   -3.020831172526426E-2
 1.247826048254829E7     9.872846878364679E-1   -3.137421908242161E-2    1.237122186551447E-2    8.021885128524297E-3    1.243332110101160E-2    7.925305261262089E-3    9.873953995145192E-1   -3.046339874755275E-2
 1.257346789609938E7     9.873893567491846E-1   -3.152758360360813E-2    1.239878069481524E-2    8.113286513478788E-3    1.242027713579225E-2    8.104717273776239E-3    9.874505324126269E-1   -3.075205894214212E-2
 1.266940172913885E7     9.873551975134814E-1   -3.182336447704631E-2    1.239074736801500E-2    8.219772143853277E-3    1.241205331712083E-2    8.207371771602244E-3    9.874160795655951E-1   -3.102410954243015E-2
 1.276606752414753E7     9.873588826927368E-1   -3.211623961044299E-2    1.238413041023716E-2    8.325163050584575E-3    1.240436405589464E-2    8.314008614433484E-3    9.874536759763388E-1   -3.130168487441330E-2
 1.286347086589479E7     9.873668357377495E-1   -3.240550008563256E-2    1.237760143636452E-2    8.430846785458359E-3    1.239794514854426E-2    8.418808733818162E-3    9.874074773625026E-1   -3.159558535224816E-2
 1.296161738176090E7     9.873438832392831E-1   -3.268177358921662E-2    1.236572586178744E-2    8.538261706996893E-3    1.238989865243706E-2    8.527531846023105E-3    9.873994057229381E-1   -3.185205473743015E-2
 1.306051274206230E7     9.873108922728581E-1   -3.297309023444559E-2    1.236261311542134E-2    8.645056826854904E-3    1.238431449711901E-2    8.635371060078128E-3    9.874756873625712E-1   -3.214198178233075E-2
 1.316016266037924E7     9.873011933739060E-1   -3.324159942402272E-2    1.235348183897462E-2    8.754662324505030E-3    1.237740786065017E-2    8.743825931250523E-3    9.874655780784450E-1   -3.243173857538353E-2
 1.326057289388563E7     9.873268196551549E-1   -3.361699764526610E-2    1.233489224074766E-2    8.871708898293446E-3    1.236655113599667E-2    8.837314186605527E-3    9.874256982207944E-1   -3.272506379473544E-2
 1.336174924368203E7     9.872703985548511E-1   -3.389672874301067E-2    1.232736727803340E-2    8.981013893605483E-3    1.235922646221775E-2    8.946450231482824E-3    9.874109189567395E-1   -3.301985822929113E-2
 1.346369755513046E7     9.872948835708150E-1   -3.418045291987031E-2    1.233300242344783E-2    9.084559797785170E-3    1.235553884290905E-2    9.074774161065771E-3    9.873936730564035E-1   -3.329547437383401E-2
 1.356642371819227E7     9.873027790835637E-1   -3.450048168386340E-2    1.232738428043947E-2    9.197485473640002E-3    1.235194803392061E-2    9.185843443517507E-3    9.874256070939267E-1   -3.360894835217991E-2
 1.366993366776852E7     9.873367519499541E-1   -3.480336958664942E-2    1.232129900934764E-2    9.308169061796191E-3    1.234612953059283E-2    9.297341337610900E-3    9.874206588040464E-1   -3.391798202150607E-2
 1.377423338404255E7     9.873181636690617E-1   -3.507331091218665E-2    1.231579356227082E-2    9.424937981704981E-3    1.233972682470959E-2    9.411286263213210E-3    9.874260110081090E-1   -3.419177556521726E-2
 1.387932889282586E7     9.872924996995796E-1   -3.555587518069851E-2    1.225788508869744E-2    9.544523293782794E-3    1.237770783914997E-2    9.406079877325642E-3    9.874138675531956E-1   -3.452942341615910E-2
 1.398522626590596E7     9.873710848405076E-1   -3.594364361147327E-2    1.223511869958200E-2    9.650608608953263E-3    1.247159466980967E-2    9.455603547901528E-3    9.874149076899279E-1   -3.481468033537510E-2
 1.409193162139728E7     9.873863973918838E-1   -3.627651612636942E-2    1.223068587084276E-2    9.764893747453682E-3    1.246932791793053E-2    9.570287547849738E-3    9.874378703084189E-1   -3.510918417157647E-2
 1.419945112409473E7     9.873688787245498E-1   -3.651946831733355E-2    1.224329277830213E-2    9.888493185272141E-3    1.236538721872003E-2    9.747125003795095E-3    9.874165522835435E-1   -3.542405992204820E-2
 1.430779098582953E7     9.873461404760406E-1   -3.681657942930245E-2    1.223682578867302E-2    1.000464110821690E-2    1.236161284722112E-2    9.865542216832066E-3    9.874659096596081E-1   -3.573341058121288E-2
 1.441695746582855E7     9.873405605655131E-1   -3.712330086693983E-2    1.223179170299627E-2    1.012250671254185E-2    1.235794791174232E-2    9.980674012756114E-3    9.874456237910466E-1   -3.604013205851989E-2
 1.452695687107559E7     9.873600927671877E-1   -3.744372620338817E-2    1.222644705849371E-2    1.023875794730397E-2    1.235571661322226E-2    1.009947636473198E-2    9.874309417335568E-1   -3.638557862311868E-2
 1.463779555667585E7     9.873471334584770E-1   -3.775825952501148E-2    1.222214896154856E-2    1.035650211490078E-2    1.235375893350764E-2    1.021631767763632E-2    9.874468197787915E-1   -3.666160038092346E-2
 1.474947992622320E7     9.873390383067300E-1   -3.807849067136140E-2    1.221771431850093E-2    1.047640982865479E-2    1.235017465898757E-2    1.033666250652434E-2    9.874473155459357E-1   -3.698390591740777E-2
 1.486201643216998E7     9.873185046805324E-1   -3.836212313546673E-2    1.223597575235557E-2    1.060036714071817E-2    1.229934190361705E-2    1.052419506203872E-2    9.874095355762108E-1   -3.730829797648439E-2
 1.497541157619987E7     9.873210227074558E-1   -3.875832746246907E-2    1.221017633927311E-2    1.071878471133431E-2    1.234517558659060E-2    1.057585473950055E-2    9.874141849303155E-1   -3.763529697356513E-2
 1.508967190960350E7     9.873026868147261E-1   -3.909739729483274E-2    1.220519222262951E-2    1.084035530698370E-2    1.234159653963677E-2    1.069810706244093E-2    9.874265144795871E-1   -3.798268202648987E-2
 1.520480403365694E7     9.873240576141004E-1   -3.943179473889867E-2    1.220015485779612E-2    1.096121619773756E-2    1.234059858554529E-2    1.081739309312274E-2    9.874064275135760E-1   -3.829027972073932E-2
 1.532081460000315E7     9.873012182054512E-1   -3.977351371379746E-2    1.219773837774225E-2    1.108225944530728E-2    1.233807030009035E-2    1.094198234246630E-2    9.873952657916746E-1   -3.866638943034045E-2
 1.543771031103615E7     9.873461732866868E-1   -4.007792541149033E-2    1.219358432516167E-2    1.120767706940063E-2    1.233619535121052E-2    1.106454183784493E-2    9.873849806695133E-1   -3.897749056284982E-2
 1.555549792028828E7     9.873026654637901E-1   -4.045724431208994E-2    1.219093744998725E-2    1.133098111910883E-2    1.233677809073148E-2    1.118779204984329E-2    9.874180990844548E-1   -3.930385473075425E-2
 1.567418423282054E7     9.872321404807078E-1   -4.075670817294867E-2    1.221297372263029E-2    1.146556780005779E-2    1.228115716634158E-2    1.138595185839740E-2    9.874061040418101E-1   -3.964583562940158E-2
 1.579377610561541E7     9.872900529474232E-1   -4.109841606321064E-2    1.220879873867660E-2    1.159026363663726E-2    1.228020531278744E-2    1.151160207962254E-2    9.873948299965064E-1   -3.999475273607069E-2
 1.591428044797338E7     9.872776902316580E-1   -4.140113305942261E-2    1.220630633008114E-2    1.171864816858145E-2    1.227597703341811E-2    1.163865319919181E-2    9.873577448563512E-1   -4.036365677279059E-2
 1.603570422191187E7     9.872368179874899E-1   -4.179742932598915E-2    1.220548959828452E-2    1.184448766377786E-2    1.227589208996834E-2    1.176656487162905E-2    9.873753966401482E-1   -4.068166345079499E-2
 1.615805444256752E7     9.872631535872205E-1   -4.214497181448598E-2    1.220254592299599E-2    1.197409139233828E-2    1.227665102048063E-2    1.189575625652047E-2    9.873887659943887E-1   -4.102032116264848E-2
 1.628133817860163E7     9.872320020943294E-1   -4.251299414673272E-2    1.220165817340974E-2    1.210512745155956E-2    1.227475059471224E-2    1.202446566703480E-2    9.874330892933830E-1   -4.136009594555767E-2
 1.640556255260818E7     9.872587687822478E-1   -4.285362287859241E-2    1.218877751081981E-2    1.223186384296581E-2    1.229257653414747E-2    1.212240139847975E-2    9.873783167907300E-1   -4.173195172645155E-2
 1.653073474152580E7     9.872726034833952E-1   -4.324455145275307E-2    1.218882886147092E-2    1.236500250783326E-2    1.229241341978725E-2    1.225657689136471E-2    9.873881284878679E-1   -4.207624266706755E-2
 1.665686197705204E7     9.872734168082318E-1   -4.361654125371986E-2    1.218623086772696E-2    1.249644544879872E-2    1.229262581014076E-2    1.238955274085789E-2    9.873671691433716E-1   -4.242689914177977E-2
 1.678395154606132E7     9.872762437882402E-1   -4.398651525905441E-2    1.218701422254607E-2    1.263178506687913E-2    1.229248454777373E-2    1.252036658783822E-2    9.873375104278299E-1   -4.280050888233700E-2
 1.691201079102603E7     9.872577407982019E-1   -4.439019591690626E-2    1.217336470843225E-2    1.275974882026147E-2    1.233658414683149E-2    1.261068911775244E-2    9.873522450334065E-1   -4.315508355891585E-2
 1.704104711044038E7     9.872185716632150E-1   -4.476879231571625E-2    1.217225035710446E-2    1.289296724094883E-2    1.233862299618826E-2    1.274413747475479E-2    9.873414903311825E-1   -4.353681538200946E-2
 1.717106795924834E7     9.872287748932644E-1   -4.512338851763448E-2    1.217250426100629E-2    1.302838888857501E-2    1.234081000766910E-2    1.288094777474424E-2    9.873755584985019E-1   -4.388681626210206E-2
 1.730208084927390E7     9.872375434674588E-1   -4.558474035024131E-2    1.215874825559064E-2    1.315035275996151E-2    1.247975079068298E-2    1.295495034624931E-2    9.873519873147241E-1   -4.427968165124334E-2
 1.743409334965526E7     9.871927058356043E-1   -4.591568905033975E-2    1.217395833060009E-2    1.330365041536173E-2    1.234688623407354E-2    1.315127019993515E-2    9.873124351127509E-1   -4.463198163402620E-2
 1.756711308728221E7     9.871588061801481E-1   -4.630509504674771E-2    1.217419474636216E-2    1.344041912109820E-2    1.234976808703210E-2    1.329038074476307E-2    9.873077758149380E-1   -4.501581695331375E-2
 1.770114774723655E7     9.871822129068754E-1   -4.669369086863514E-2    1.217643648650320E-2    1.358250110670252E-2    1.235123464240689E-2    1.343007766237035E-2    9.873381588408421E-1   -4.537566149848642E-2
 1.783620507323623E7     9.871730669696357E-1   -4.696039127521587E-2    1.223655956723008E-2    1.373047925633561E-2    1.226529686556119E-2    1.371384437689538E-2    9.873334471844490E-1   -4.577041933307219E-2
 1.797229286808272E7     9.871116509049205E-1   -4.739278627901046E-2    1.222224333527757E-2    1.387394431164308E-2    1.226955234666271E-2    1.383212789778404E-2    9.873370349152257E-1   -4.613417921408058E-2
 1.810941899411174E7     9.871180029209967E-1   -4.772175821968035E-2    1.224110768336181E-2    1.401384220824642E-2    1.227010558152482E-2    1.399781543400386E-2    9.873108578314049E-1   -4.654674113415053E-2
 1.824759137364766E7     9.871531077269911E-1   -4.815893685068232E-2    1.224353645585728E-2    1.415708407976984E-2    1.227297803852775E-2    1.414071617350317E-2    9.872849380443179E-1   -4.693971845566047E-2
 1.838681798946100E7     9.871273527193167E-1   -4.851392418945397E-2    1.224593766830229E-2    1.430242266662810E-2    1.227680579897169E-2    1.428670736949635E-2    9.872929304229142E-1   -4.730295493322890E-2
 1.852710688522972E7     9.871040290439058E-1   -4.910144766614274E-2    1.217906919180262E-2    1.443004209030551E-2    1.243178800510804E-2    1.425267131801857E-2    9.872627602193068E-1   -4.772155671041373E-2
 1.866846616600409E7     9.870683671300514E-1   -4.946829335979972E-2    1.219142566391747E-2    1.458232130972861E-2    1.238082106551258E-2    1.442927248259581E-2    9.872159168616946E-1   -4.812926599720034E-2
 1.881090399867451E7     9.870608458229108E-1   -4.977328501114055E-2    1.224572082878131E-2    1.474259205686986E-2    1.228650444666924E-2    1.471561546629836E-2    9.872278634229702E-1   -4.852542887053601E-2
 1.895442861244394E7     9.870317387256659E-1   -5.019472358570769E-2    1.225068025302213E-2    1.488944073651069E-2    1.228887546238292E-2    1.486350416735347E-2    9.872251242241336E-1   -4.893505920311525E-2
 1.909904829930285E7     9.870429147372158E-1   -5.058188912302097E-2    1.225376597244443E-2    1.504031512224930E-2    1.229375938710896E-2    1.501360215174770E-2    9.871978282852868E-1   -4.933123094850034E-2
 1.924477141450845E7     9.870307523169071E-1   -5.102972008630354E-2    1.225900029483874E-2    1.519242367429650E-2    1.229772133528225E-2    1.516329289693471E-2    9.872023460418167E-1   -4.973348388851592E-2
 1.939160637706759E7     9.869764624651489E-1   -5.145285440470576E-2    1.226269382138228E-2    1.534213969672630E-2    1.230338073274873E-2    1.531347446370361E-2    9.871681909059393E-1   -5.016127998265610E-2
 1.953956167022271E7     9.869703560276151E-1   -5.189675754090979E-2    1.226761679812590E-2    1.549491284824472E-2    1.231022238067337E-2    1.546701713976125E-2    9.871454076080409E-1   -5.058418325412052E-2
 1.968864584194249E7     9.869650464647022E-1   -5.232251747953257E-2    1.226301718565702E-2    1.564886878716191E-2    1.231759070430426E-2    1.560416213505909E-2    9.870757672710514E-1   -5.101683875410097E-2
 1.983886750541528E7     9.869188973250343E-1   -5.287948803868862E-2    1.221708788026621E-2    1.577858507663530E-2    1.249156295712852E-2    1.559678863274210E-2    9.870877452213034E-1   -5.143238645006664E-2
 1.999023533954688E7     9.869092993739571E-1   -5.335057123625316E-2    1.222451622657911E-2    1.593119302324483E-2    1.250133688536289E-2    1.575121507856365E-2    9.870884065719890E-1   -5.186795932491614E-2
 2.014275808946211E7     9.868864331930609E-1   -5.376212251470982E-2    1.222812473220394E-2    1.609002350015665E-2    1.251056396733400E-2    1.590845169650064E-2    9.870789344444955E-1   -5.232715527175751E-2
 2.029644456700960E7     9.868822224006761E-1   -5.423035449475972E-2    1.223570379010639E-2    1.624597092704337E-2    1.251947828094109E-2    1.606286407290029E-2    9.870569858266995E-1   -5.273448374678275E-2
 2.045130365127147E7     9.868718859224113E-1   -5.465991266028319E-2    1.224323657370438E-2    1.640395320065588E-2    1.252981854618874E-2    1.622312763286924E-2    9.870460800287162E-1   -5.315834625757034E-2
 2.060734428907584E7     9.868691137040513E-1   -5.511782289733474E-2    1.225114768156418E-2    1.656192403294942E-2    1.253989446762861E-2    1.638078620896689E-2    9.870036075908503E-1   -5.359380828935931E-2
 2.076457549551392E7     9.868310232998534E-1   -5.556218434018464E-2    1.225784380278188E-2    1.672241874671875E-2    1.254921886411679E-2    1.654073537658738E-2    9.869715555109224E-1   -5.405725567808525E-2
 2.092300635446098E7     9.867999118655467E-1   -5.603351819383815E-2    1.226473429549806E-2    1.688525066329963E-2    1.256031584078380E-2    1.670091364896418E-2    9.869506181410679E-1   -5.449808361646701E-2
 2.108264601910070E7     9.867937768096147E-1   -5.647980192380798E-2    1.227135390009471E-2    1.704706420580918E-2    1.257222623254831E-2    1.686360871329231E-2    9.869185115128373E-1   -5.494483993219182E-2
 2.124350371245464E7     9.868109891475126E-1   -5.679220477509053E-2    1.235089990865758E-2    1.724257301041381E-2    1.238679270034928E-2    1.722418584616784E-2    9.869233321144228E-1   -5.539903987561379E-2
 2.140558872791451E7     9.867836841193275E-1   -5.724042736581776E-2    1.235984051857486E-2    1.740715688684490E-2    1.239556722992363E-2    1.739102053969061E-2    9.869265738396690E-1   -5.584071322546105E-2
 2.156891042977939E7     9.867133471495808E-1   -5.780257983346412E-2    1.231554627665426E-2    1.756234492627281E-2    1.247149849310126E-2    1.743926386004955E-2    9.868881120803711E-1   -5.629203370847198E-2
 2.173347825379676E7     9.867072300157718E-1   -5.830443356751527E-2    1.232523295428562E-2    1.772926880953923E-2    1.248246903923366E-2    1.760679501390106E-2    9.868668546586475E-1   -5.677223431517821E-2
 2.189930170770744E7     9.866401315071482E-1   -5.878728116564994E-2    1.233472944607033E-2    1.789738423261120E-2    1.249564065280562E-2    1.777365957642486E-2    9.868461626794570E-1   -5.722870433905586E-2
 2.206639037179505E7     9.866114759152546E-1   -5.924705842804810E-2    1.234510448794918E-2    1.806778628691287E-2    1.250652417950316E-2    1.794413819154555E-2    9.868026531810242E-1   -5.770092088187220E-2
 2.223475389943947E7     9.866294239250279E-1   -5.964269370420922E-2    1.240905459559956E-2    1.825190999215920E-2    1.244752943934990E-2    1.823519820687609E-2    9.868268537257985E-1   -5.814520012127106E-2
 2.240440201767448E7     9.866272340810123E-1   -6.013556051866251E-2    1.242122332984556E-2    1.842385698279513E-2    1.245746744205242E-2    1.840688793998048E-2    9.867709000666334E-1   -5.864430025558810E-2
 2.257534452774993E7     9.865797902811970E-1   -6.060487653418422E-2    1.243199609241204E-2    1.859801899310799E-2    1.246987686455846E-2    1.858041355184214E-2    9.867449361058621E-1   -5.912712670177006E-2
 2.274759130569773E7     9.865640069276276E-1   -6.110860082136223E-2    1.244266964522109E-2    1.877307940437773E-2    1.248158480476946E-2    1.875331163143292E-2    9.867018079553106E-1   -5.961949704621524E-2
 2.292115230290256E7     9.865145719640550E-1   -6.165227635435173E-2    1.245630204097718E-2    1.894830288063297E-2    1.249484242759559E-2    1.893045703441737E-2    9.866959234959961E-1   -6.010845523481383E-2
 2.309603754667697E7     9.864637182179540E-1   -6.215248704135706E-2    1.246803725146459E-2    1.912450074395029E-2    1.250855400645974E-2    1.911005171411988E-2    9.866651457557299E-1   -6.059831143257231E-2
 2.327225714084021E7     9.864512734031669E-1   -6.266894615335794E-2    1.248018998797433E-2    1.930328179009329E-2    1.251980897562903E-2    1.928584478326578E-2    9.866602157963721E-1   -6.108949830053560E-2
 2.344982126630262E7     9.864132206288567E-1   -6.322497807728726E-2    1.244973183711241E-2    1.947546304875490E-2    1.257538955581111E-2    1.938037933924489E-2    9.866485111555502E-1   -6.155129767658516E-2
 2.362874018165328E7     9.863609795457597E-1   -6.374744766191306E-2    1.246294596026733E-2    1.965397988072862E-2    1.259108221385308E-2    1.955727172402267E-2    9.865986615606641E-1   -6.207261815238981E-2
 2.380902422375290E7     9.863194937710920E-1   -6.431792636496927E-2    1.245511819630564E-2    1.981579328129708E-2    1.271945836580712E-2    1.964852535865248E-2    9.865724294881636E-1   -6.258197013043391E-2
 2.399068380833123E7     9.862972619902605E-1   -6.485915375178290E-2    1.246958090624032E-2    1.999843703025484E-2    1.273525527072073E-2    1.983049058953826E-2    9.865355493420115E-1   -6.308713477176019E-2
 2.417372943058824E7     9.862768115803486E-1   -6.531810270847627E-2    1.250430712473620E-2    2.020406107305302E-2    1.263437312798759E-2    2.010400502826205E-2    9.865098539818250E-1   -6.358060573250386E-2
 2.435817166580120E7     9.862309342309024E-1   -6.580523178403228E-2    1.252012558277254E-2    2.038956513797272E-2    1.265162729031023E-2    2.028928107504668E-2    9.864957101433780E-1   -6.412232780984732E-2
 2.454402116993507E7     9.861868893050819E-1   -6.642734493705861E-2    1.251203923835172E-2    2.055474664808070E-2    1.278837685915321E-2    2.038205243618801E-2    9.864406118563622E-1   -6.464978610233885E-2
 2.473128868025839E7     9.861499030763915E-1   -6.696235119245547E-2    1.252676722605988E-2    2.074351501610590E-2    1.280564299505213E-2    2.056954139523283E-2    9.864133734843629E-1   -6.516534089837082E-2
 2.491998501596375E7     9.860845382038365E-1   -6.749276566392629E-2    1.254215164504691E-2    2.093391519665055E-2    1.282377847892192E-2    2.075894273901605E-2    9.863943592937485E-1   -6.568111934424742E-2
 2.511012107879237E7     9.860940391672275E-1   -6.794366946854717E-2    1.262517734180993E-2    2.116179338380514E-2    1.266565367531932E-2    2.113660363603842E-2    9.863357720039186E-1   -6.621955848409945E-2
 2.530170785366461E7     9.860483618414831E-1   -6.846336056371159E-2    1.263861398256083E-2    2.135311524878608E-2    1.268088284605817E-2    2.133084881693601E-2    9.863000188825882E-1   -6.675356706326104E-2
 2.549475640931404E7     9.860363634136450E-1   -6.900149846921431E-2    1.265542389657036E-2    2.154949052831065E-2    1.269540506938483E-2    2.152702304568614E-2    9.862510719977927E-1   -6.729270638620566E-2
 2.568927789892715E7     9.860166883888463E-1   -6.959797919277573E-2    1.267393542808433E-2    2.174852615533472E-2    1.271334676344515E-2    2.172583747779732E-2    9.862281075324354E-1   -6.784014632231315E-2
 2.588528356078789E7     9.859429716386212E-1   -7.016889016294635E-2    1.266736659461055E-2    2.194593091543552E-2    1.274184859277938E-2    2.189141149715567E-2    9.861811271327469E-1   -6.837317286044978E-2
 2.608278471892660E7     9.859337839325224E-1   -7.073669293295040E-2    1.271087027421601E-2    2.215374634578678E-2    1.275049184281355E-2    2.213263376644114E-2    9.861442721364083E-1   -6.891881129161635E-2
 2.628179278377446E7     9.858774611334697E-1   -7.127654560785791E-2    1.273296906281862E-2    2.235858325318761E-2    1.277490604919548E-2    2.233526522107752E-2    9.860817311232594E-1   -6.949050306427723E-2
 2.648231925282269E7     9.858121840954795E-1   -7.193440169595543E-2    1.271249115833875E-2    2.254573487956553E-2    1.285651568548540E-2    2.244116118136984E-2    9.860592482289884E-1   -7.001690864026328E-2
 2.668437571128672E7     9.857467361361639E-1   -7.252750251711383E-2    1.273677753680070E-2    2.274729222315494E-2    1.288292756600991E-2    2.264064777186302E-2    9.860240501590358E-1   -7.059326764939859E-2
 2.688797383277575E7     9.856885608858954E-1   -7.312463118042084E-2    1.275952076819066E-2    2.295033856398968E-2    1.290877915489613E-2    2.284373347248119E-2    9.859766471716427E-1   -7.116827933945781E-2
 2.709312537996687E7     9.856492758319378E-1   -7.366480053537071E-2    1.280401444677712E-2    2.316901889529559E-2    1.288624629110647E-2    2.311087345789502E-2    9.859501291338620E-1   -7.173904856447973E-2
 2.729984220528475E7     9.856194836038292E-1   -7.421602166514041E-2    1.282930151166966E-2    2.337578767402212E-2    1.290950482270491E-2    2.331925763640512E-2    9.859181431589761E-1   -7.230700151073129E-2
 2.750813625158667E7     9.856097958607155E-1   -7.481607931450675E-2    1.285400464831189E-2    2.358479490896122E-2    1.293596947813729E-2    2.352645872962694E-2    9.858792885898288E-1   -7.288661789097002E-2
 2.771801955285188E7     9.854917960450071E-1   -7.556458246720758E-2    1.283774557791708E-2    2.374402803701174E-2    1.325227220600256E-2    2.353724685540905E-2    9.858489993893568E-1   -7.345651944161317E-2
 2.792950423487763E7     9.854539688022467E-1   -7.607950307725019E-2    1.287341831557222E-2    2.398398898646145E-2    1.308545808587055E-2    2.383741428382759E-2    9.857723664778216E-1   -7.407069201537488E-2
 2.814260251597910E7     9.854205226556418E-1   -7.673082090213373E-2    1.289881838776711E-2    2.419346481723994E-2    1.311327552301163E-2    2.404774933397935E-2    9.857365904453366E-1   -7.467028008999248E-2
 2.835732670769557E7     9.853763641609546E-1   -7.732148977097661E-2    1.292550914131250E-2    2.440830831325321E-2    1.314166833812267E-2    2.426072250632352E-2    9.856998322221341E-1   -7.524866247954075E-2
 2.857368921550186E7     9.853548785314766E-1   -7.785849828861109E-2    1.301337860526938E-2    2.465271537624898E-2    1.305387997872084E-2    2.462615844280963E-2    9.856599520586464E-1   -7.582594487512165E-2
 2.879170253952448E7     9.853142009694554E-1   -7.850516033551051E-2    1.303889295328736E-2    2.487014881999776E-2    1.308421437969128E-2    2.484067222382035E-2    9.855834390310648E-1   -7.644647147863981E-2
 2.901137927526460E7     9.852502928979887E-1   -7.913059822235630E-2    1.306827743106401E-2    2.508796380664440E-2    1.311287599563197E-2    2.506080857408018E-2    9.855462889755978E-1   -7.706065516738229E-2
 2.923273211432508E7     9.852046243860416E-1   -7.978319563898785E-2    1.309716002750924E-2    2.530658024682126E-2    1.313998406605377E-2    2.528017424782700E-2    9.854864901231314E-1   -7.767992425422152E-2
 2.945577384514398E7     9.851463931527473E-1   -8.040919245060400E-2    1.312601608598202E-2    2.552787424700762E-2    1.317131176110134E-2    2.550107644691316E-2    9.854430284315774E-1   -7.830862689970565E-2
 2.968051735373363E7     9.851071382975162E-1   -8.105391654387252E-2    1.315658898310268E-2    2.575270767350656E-2    1.320001590423491E-2    2.572274021772704E-2    9.853819120950134E-1   -7.895238306596482E-2
 2.990697562442441E7     9.850053821887669E-1   -8.179454547939910E-2    1.314907054806257E-2    2.596670438740855E-2    1.326581831321170E-2    2.587508706497910E-2    9.853236375035693E-1   -7.958014271530570E-2
 3.013516174061584E7     9.849637296803634E-1   -8.236528793498610E-2    1.319072003970718E-2    2.619935400368643E-2    1.327723387302010E-2    2.613214683073236E-2    9.852934438974639E-1   -8.022020250330580E-2
 3.036508888553168E7     9.848845131747530E-1   -8.305582999652640E-2    1.320930150225738E-2    2.642038269642675E-2    1.333012042967558E-2    2.632759822343197E-2    9.852109824860976E-1   -8.085749406270487E-2
 3.059677034298190E7     9.848373875077622E-1   -8.370136208856505E-2    1.324450903613644E-2    2.664986750157051E-2    1.336324151044892E-2    2.655632841424247E-2    9.851430917159075E-1   -8.151868189810788E-2
 3.083021949813037E7     9.846766814335315E-1   -8.459773383765673E-2    1.326577365444987E-2    2.681792754330272E-2    1.389435094378731E-2    2.659644198623173E-2    9.850939606763343E-1   -8.217079916823207E-2
 3.106544983826748E7     9.846251585547324E-1   -8.525682223016096E-2    1.329808513428279E-2    2.705207875185289E-2    1.393471092694451E-2    2.682852178483172E-2    9.850546082210616E-1   -8.281692118533997E-2
 3.130247495359022E7     9.847003742770893E-1   -8.570029779352820E-2    1.338197348928051E-2    2.736302239355655E-2    1.342496021857607E-2    2.732690782217637E-2    9.849906635118392E-1   -8.347346918414764E-2
 3.154130853798668E7     9.846032365519551E-1   -8.641352859813353E-2    1.341597322948527E-2    2.759971077192497E-2    1.346092753450225E-2    2.756288920617422E-2    9.849198329535243E-1   -8.414591812810993E-2
 3.178196438982744E7     9.845526102949252E-1   -8.711112437645158E-2    1.345330942657825E-2    2.783747598727451E-2    1.349625069064559E-2    2.780059734271198E-2    9.848548145908009E-1   -8.481378165532587E-2
 3.202445641276293E7     9.844659832556818E-1   -8.781290763249573E-2    1.346373861700038E-2    2.806955153156345E-2    1.354935173207683E-2    2.799310193336886E-2    9.847659784280888E-1   -8.549579697457184E-2
 3.226879861652631E7     9.844270430583910E-1   -8.848152006633461E-2    1.352610806736079E-2    2.831672641123328E-2    1.356757095006686E-2    2.828006605151960E-2    9.847207062910567E-1   -8.618358940192951E-2
 3.251500511774320E7     9.842136729353659E-1   -8.933640982824090E-2    1.350522708052770E-2    2.849365114578126E-2    1.398030678297426E-2    2.825819017571549E-2    9.846625407338720E-1   -8.686162418186186E-2
 3.276309014074709E7     9.841265225071778E-1   -9.006487503198969E-2    1.354293641889337E-2    2.873692512219082E-2    1.402073373040826E-2    2.849904743626628E-2    9.845890262686665E-1   -8.754621714578784E-2
 3.301306801840112E7     9.840662542333449E-1   -9.081443393999397E-2    1.358363220382605E-2    2.898187208107737E-2    1.406137041413351E-2    2.874330466935590E-2    9.845239196990216E-1   -8.822226092617587E-2
 3.326495319292643E7     9.840133642209343E-1   -9.152591765540610E-2    1.362142937168290E-2    2.923063136131806E-2    1.410080168718210E-2    2.898815538069744E-2    9.844575107656638E-1   -8.893055702053398E-2
 3.351876021673609E7     9.840662308407691E-1   -9.210943330708631E-2    1.371502492806531E-2    2.954548138695952E-2    1.374568818539214E-2    2.951035247527612E-2    9.843598055527064E-1   -8.964977591157253E-2
 3.377450375327612E7     9.839850459272437E-1   -9.281217322376667E-2    1.375417005281749E-2    2.979797689982995E-2    1.377865778442887E-2    2.976449867032735E-2    9.842884017662091E-1   -9.034158847976932E-2
 3.403219857787284E7     9.838718597432855E-1   -9.358225512350168E-2    1.375431058494515E-2    3.003122387105153E-2    1.385966473525211E-2    2.993881487858320E-2    9.842032914274739E-1   -9.107802219377707E-2
 3.429185957858586E7     9.837947533191367E-1   -9.435132422143014E-2    1.379341803480813E-2    3.028556268024198E-2    1.389565263927913E-2    3.020038024235280E-2    9.841313070331296E-1   -9.177955246262433E-2
 3.455350175706909E7     9.837003735934392E-1   -9.510582437374310E-2    1.382903150213362E-2    3.054290127143809E-2    1.393388552527150E-2    3.046627334109437E-2    9.840545522139458E-1   -9.247250090431280E-2
 3.481714022943672E7     9.835073466944677E-1   -9.599190006437090E-2    1.385323477535923E-2    3.074908351721297E-2    1.434348379692134E-2    3.054050836927567E-2    9.839679916158984E-1   -9.325071388714178E-2
 3.508279022713681E7     9.833989902064479E-1   -9.677101277252269E-2    1.388701683034002E-2    3.101185151837449E-2    1.439311768288900E-2    3.081292716500855E-2    9.838906308391496E-1   -9.396053515652629E-2
 3.535046709783159E7     9.833139770070003E-1   -9.753921024062934E-2    1.392278523236584E-2    3.128355851021457E-2    1.444923011534030E-2    3.108844917671927E-2    9.838203574082101E-1   -9.468453010158399E-2
 3.562018630628331E7     9.832095915840635E-1   -9.829300097485745E-2    1.395609704755181E-2    3.156270455788577E-2    1.450877875474159E-2    3.136477324216862E-2    9.837509204566833E-1   -9.541889233002114E-2
 3.589196343524875E7     9.830931410822062E-1   -9.904633041239318E-2    1.400105808451069E-2    3.185478989137838E-2    1.457383671867275E-2    3.163751267856943E-2    9.836746932253326E-1   -9.615111732818601E-2
 3.616581418637872E7     9.830292380028782E-1   -9.981084888654257E-2    1.405974422827135E-2    3.214843510306683E-2    1.463904559074867E-2    3.190720359066795E-2    9.835976851993696E-1   -9.691520938354810E-2
 3.644175438112541E7     9.829675455958656E-1   -1.005893209740409E-1    1.412698251400247E-2    3.243210073980862E-2    1.470300699146697E-2    3.217764194616397E-2    9.835255418912392E-1   -9.768776899750506E-2
 3.671979996165685E7     9.829538933963631E-1   -1.012800216815891E-1    1.418877010431794E-2    3.273769155682161E-2    1.448889830185679E-2    3.255027288567378E-2    9.834449558550916E-1   -9.845545680804461E-2
 3.699996699177712E7     9.828734889886079E-1   -1.020801656004571E-1    1.425097062764006E-2    3.301100139173042E-2    1.454659223027336E-2    3.282135711681994E-2    9.833666717864153E-1   -9.924358001542388E-2
 3.728227165785540E7     9.827743599729964E-1   -1.028929256632879E-1    1.431085229511498E-2    3.328792261364404E-2    1.460591931178386E-2    3.309586258107793E-2    9.832726682422659E-1   -1.000133507846928E-1
 3.756673026976037E7     9.827072171311619E-1   -1.036985224283263E-1    1.436998608895994E-2    3.356326414944163E-2    1.466590362521217E-2    3.337165904230268E-2    9.831905885533865E-1   -1.007902661610863E-1
 3.785335926180276E7     9.827107849142381E-1   -1.044184682344319E-1    1.448202410182735E-2    3.388840055296342E-2    1.454575261599719E-2    3.384727670344506E-2    9.830813422868080E-1   -1.016135839796968E-1
 3.814217519368506E7     9.826572006771308E-1   -1.052469777904660E-1    1.454052630591169E-2    3.417328175037894E-2    1.460714344763451E-2    3.412975708525188E-2    9.830049318937009E-1   -1.024179602063957E-1
 3.843319475145779E7     9.825454817567196E-1   -1.060937354767810E-1    1.460048482617919E-2    3.445650158561431E-2    1.466392396577202E-2    3.441441090115932E-2    9.829065214367060E-1   -1.032144047923242E-1
 3.872643474848381E7     9.824550236012644E-1   -1.069286248266923E-1    1.466041649982631E-2    3.474592605870882E-2    1.472334345844674E-2    3.470267923577472E-2    9.828058140355069E-1   -1.040445870701059E-1
 3.902191212640966E7     9.823468235168232E-1   -1.077916500502723E-1    1.471968448191706E-2    3.503331914207254E-2    1.478399385082676E-2    3.499125471315246E-2    9.827175341686651E-1   -1.048566914466753E-1
 3.931964395614420E7     9.822513973749657E-1   -1.086532248644931E-1    1.478298186778995E-2    3.532485242310875E-2    1.484504704798882E-2    3.528382851972823E-2    9.826308057706649E-1   -1.056513511316672E-1
 3.961964743884522E7     9.821041114023874E-1   -1.095138575291336E-1    1.481848067431694E-2    3.560702322555245E-2    1.493589199009894E-2    3.551972431956659E-2    9.825346722396826E-1   -1.064895292433056E-1
 3.992193990691278E7     9.820192963595104E-1   -1.104093914697948E-1    1.488195200061777E-2    3.590197748162768E-2    1.499838140545795E-2    3.581621258469425E-2    9.824412603141297E-1   -1.073278797170300E-1
 4.022653882499073E7     9.818175594176345E-1   -1.113335685559714E-1    1.492035857354205E-2    3.616314627073323E-2    1.522850434091217E-2    3.596312593655893E-2    9.823529044983358E-1   -1.081663790638205E-1
 4.053346179097611E7     9.817005442661918E-1   -1.122314669890979E-1    1.498563335907169E-2    3.646163248932462E-2    1.529722840547280E-2    3.626337715504589E-2    9.822537231567577E-1   -1.090327122026074E-1
 4.084272653703488E7     9.816178833901809E-1   -1.131212481336853E-1    1.505152657408085E-2    3.676314702737690E-2    1.536696985744579E-2    3.656281644289735E-2    9.821350899810080E-1   -1.098917644096857E-1
 4.115435093062763E7     9.814348276482628E-1   -1.140870736369335E-1    1.512437936826725E-2    3.704838506524558E-2    1.559874024983367E-2    3.679045104785458E-2    9.820306175561746E-1   -1.107630155385905E-1
 4.146835297554084E7     9.813233182680421E-1   -1.150038745320748E-1    1.519277088129133E-2    3.735425852338246E-2    1.567052509749838E-2    3.709439551881093E-2    9.819248989408802E-1   -1.116208518106580E-1
 4.178475081292742E7     9.811382253758310E-1   -1.160934285770902E-1    1.529972087759727E-2    3.765442033344276E-2    1.616799352678172E-2    3.737212634769106E-2    9.818212866946413E-1   -1.124992837001108E-1
 4.210356272235513E7     9.810116963564786E-1   -1.170037163915643E-1    1.537028130940683E-2    3.796410573362570E-2    1.624586040549979E-2    3.768108519025065E-2    9.816990566065772E-1   -1.133766605665051E-1
 4.242480712286174E7     9.809160158973002E-1   -1.179579320102914E-1    1.544445131523270E-2    3.827964929970442E-2    1.632685218360833E-2    3.799357821400916E-2    9.815891832612682E-1   -1.142766327613523E-1
 4.274850257402029E7     9.807886333362420E-1   -1.188598630905529E-1    1.551760371214877E-2    3.859661710501589E-2    1.640634987301232E-2    3.830866271010466E-2    9.814789387929167E-1   -1.151710729986273E-1
 4.307466777701053E7     9.809211311500701E-1   -1.193929051244879E-1    1.559693953577977E-2    3.899832268036752E-2    1.566835402599747E-2    3.895308158495245E-2    9.813276701781593E-1   -1.160750324749088E-1
 4.340332157569963E7     9.805374240852210E-1   -1.207634856100493E-1    1.566842296609378E-2    3.923623152857329E-2    1.656989120836458E-2    3.894754322715482E-2    9.812323220551342E-1   -1.169731103553433E-1
 4.373448295773120E7     9.804007123944116E-1   -1.217186739936007E-1    1.574703254235564E-2    3.956010743720938E-2    1.665660302756452E-2    3.926828304678637E-2    9.811140264963989E-1   -1.178844546106148E-1
 4.406817105562137E7     9.803526678335038E-1   -1.224553055166084E-1    1.578108367384741E-2    3.989452376605595E-2    1.629319216981054E-2    3.962045377172294E-2    9.809818736893222E-1   -1.188221491932028E-1
 4.440440514786536E7     9.802145288114342E-1   -1.234176031552924E-1    1.586159852682655E-2    4.022246275828233E-2    1.637441140224950E-2    3.994627293396973E-2    9.808531476189333E-1   -1.197475033043039E-1
 4.474320466005030E7     9.800570800004087E-1   -1.243802797001977E-1    1.593945932876697E-2    4.055237036476374E-2    1.645893643232580E-2    4.027629753032744E-2    9.807290700545120E-1   -1.206881267324093E-1
 4.508458916597787E7     9.800142612512832E-1   -1.252326230569081E-1    1.601719093234337E-2    4.092039584607593E-2    1.627075544088597E-2    4.075266317022178E-2    9.805887108930047E-1   -1.216288919738169E-1
 4.542857838879555E7     9.798871038261654E-1   -1.262021919686561E-1    1.610087667687053E-2    4.125711320343489E-2    1.635483394414021E-2    4.108857226470930E-2    9.804406473569535E-1   -1.225798945439265E-1
 4.577519220213508E7     9.797426104042694E-1   -1.272350028691692E-1    1.618502703061250E-2    4.159651952478241E-2    1.644050819813317E-2    4.142785427944001E-2    9.803205494192514E-1   -1.235248846809193E-1
 4.612445063126191E7     9.796090296782942E-1   -1.282237291695620E-1    1.627003646626187E-2    4.193882624659493E-2    1.653181414163647E-2    4.176951867382519E-2    9.801724455294326E-1   -1.245178916460719E-1
 4.647637385423118E7     9.794609177773252E-1   -1.292122292743225E-1    1.635706983645544E-2    4.228218332800673E-2    1.661748881868950E-2    4.211424578276744E-2    9.800438559131437E-1   -1.254674977604444E-1
 4.683098220305377E7     9.792950601659309E-1   -1.302303415835547E-1    1.644400425548300E-2    4.262783915546002E-2    1.670843780976990E-2    4.246143602150695E-2    9.798991735680944E-1   -1.264611077563474E-1
 4.718829616487134E7     9.791504128375218E-1   -1.312532059546115E-1    1.653379022685858E-2    4.297795823950329E-2    1.680099141355480E-2    4.281134892240086E-2    9.797581545472065E-1   -1.274691118966202E-1
 4.754833638313931E7     9.788902802749821E-1   -1.324406807897248E-1    1.662972452103770E-2    4.329798761889513E-2    1.718424839794376E-2    4.301074533561065E-2    9.796164775898968E-1   -1.284331622213609E-1
 4.791112365881994E7     9.787216151233408E-1   -1.334788071349058E-1    1.671986539585616E-2    4.365241607591661E-2    1.728378347886244E-2    4.336574162549205E-2    9.794626868137857E-1   -1.294383435594430E-1
 4.827667895158397E7     9.785578926017546E-1   -1.345143657150915E-1    1.681175701628384E-2    4.401321520944563E-2    1.738472899517340E-2    4.372386090477690E-2    9.793049694018268E-1   -1.304494689843669E-1
 4.864502338102144E7     9.783989916317380E-1   -1.355383425220036E-1    1.690716657667035E-2    4.437444656369009E-2    1.748616341500937E-2    4.408301020762802E-2    9.791501096385297E-1   -1.314646033466581E-1
 4.901617822786229E7     9.782308431920329E-1   -1.366140382605481E-1    1.700474633296647E-2    4.474315593402697E-2    1.759028363363603E-2    4.444657377299738E-2    9.789952251359815E-1   -1.324660552198398E-1
 4.939016493520518E7     9.780674399597262E-1   -1.376949352920231E-1    1.710511635948387E-2    4.510905508314290E-2    1.769791812769135E-2    4.481051030675468E-2    9.788418774166537E-1   -1.335187553307055E-1
 4.976700510975666E7     9.779019888352242E-1   -1.387627697400762E-1    1.720868041152055E-2    4.548020994213964E-2    1.780737851810842E-2    4.517711821457448E-2    9.786682587941362E-1   -1.345811890187835E-1
 5.014672052307993E7     9.777122344235223E-1   -1.398382893266183E-1    1.730916171108871E-2    4.585434781380013E-2    1.791591912532115E-2    4.554817902652767E-2    9.785030683183007E-1   -1.356044949082418E-1
 5.052933311285146E7     9.775369426071466E-1   -1.409255346839913E-1    1.741689045535217E-2    4.623112186125812E-2    1.802620998246181E-2    4.592193883915390E-2    9.783405578710739E-1   -1.366687942823259E-1
 5.091486498412994E7     9.773567405754442E-1   -1.420241924210786E-1    1.752826525348641E-2    4.661315895753007E-2    1.814280064409380E-2    4.629928330224425E-2    9.781677102686082E-1   -1.377227242723474E-1
 5.130333841063219E7     9.771880354155171E-1   -1.431422328271379E-1    1.763733988222660E-2    4.699516689242433E-2    1.826117657333197E-2    4.667996475930698E-2    9.779859371780969E-1   -1.388062498413601E-1
 5.169477583602042E7     9.770115550475637E-1   -1.442529927039183E-1    1.774796935276770E-2    4.737886326722626E-2    1.838114590512316E-2    4.706054794388308E-2    9.778188034374647E-1   -1.399040193802704E-1
 5.208919987519933E7     9.768251514119142E-1   -1.453759518183487E-1    1.786328175599944E-2    4.776549377377181E-2    1.850366630257324E-2    4.744512275785789E-2    9.776337078642354E-1   -1.409909432257828E-1
 5.248663331562151E7     9.766339393726585E-1   -1.465085974834297E-1    1.798162311751942E-2    4.815580243634549E-2    1.862754012422099E-2    4.783071296347650E-2    9.774548498611554E-1   -1.420768349864590E-1
 5.288709911860541E7     9.764452494895094E-1   -1.476464508105311E-1    1.809979701858288E-2    4.854861110043000E-2    1.875179552956954E-2    4.821978254039815E-2    9.772591937770516E-1   -1.431870477654009E-1
 5.329062042066076E7     9.762559218594922E-1   -1.487890230364998E-1    1.821869459407437E-2    4.894197216881156E-2    1.888039231831373E-2    4.861336325040386E-2    9.770770169252025E-1   -1.442878941341720E-1
 5.369722053482568E7     9.760379622232772E-1   -1.499726309827835E-1    1.834068234480298E-2    4.933823605061760E-2    1.900530551253206E-2    4.900723317876150E-2    9.768724436901096E-1   -1.454187486045050E-1
 5.410692295201402E7     9.758269767757280E-1   -1.511016400587037E-1    1.846366517647240E-2    4.973849701042898E-2    1.913483555381468E-2    4.940323854761026E-2    9.766878989988287E-1   -1.465463839495745E-1
 5.451975134237129E7     9.756415779456685E-1   -1.523142678007512E-1    1.858947171088143E-2    5.014097339466540E-2    1.926622875810699E-2    4.980467975885644E-2    9.764795611867859E-1   -1.476920353131593E-1
 5.493572955664375E7     9.754204345135283E-1   -1.535028641021847E-1    1.871419168474107E-2    5.054658261213826E-2    1.940305783647769E-2    5.020868760253628E-2    9.762788989585571E-1   -1.488504839390641E-1
 5.535488162755510E7     9.752440570575218E-1   -1.547003461142845E-1    1.884408982497363E-2    5.095828008482373E-2    1.953664972385057E-2    5.061593656766306E-2    9.760800776495206E-1   -1.499800287544552E-1
 5.577723177119546E7     9.750038001166971E-1   -1.558869396607921E-1    1.897265230132942E-2    5.137113979549210E-2    1.967791534481681E-2    5.102587754130637E-2    9.758530319506062E-1   -1.511578966930673E-1
 5.620280438842070E7     9.747793916150133E-1   -1.571423025433664E-1    1.910578959794322E-2    5.179054745230688E-2    1.981684537767774E-2    5.144110493697170E-2    9.756330444903535E-1   -1.523217037870657E-1
 5.663162406626155E7     9.745508242775150E-1   -1.583634628063573E-1    1.924177803214377E-2    5.221014424841144E-2    1.996085266036136E-2    5.185809922219523E-2    9.754228084823755E-1   -1.535583145971597E-1
 5.706371557934452E7     9.743308859055576E-1   -1.595865284495644E-1    1.937809817573527E-2    5.263176279296595E-2    2.010523464285425E-2    5.228081209865698E-2    9.752082434786018E-1   -1.547294599080958E-1
 5.749910389132310E7     9.741060688619839E-1   -1.608206321151584E-1    1.951977286239938E-2    5.306052652178182E-2    2.025514788785285E-2    5.270304820100788E-2    9.749820405462116E-1   -1.559397856702338E-1
 5.793781415631992E7     9.738675039087598E-1   -1.620742559447796E-1    1.965770323402779E-2    5.348916664293438E-2    2.040388544766562E-2    5.312861079535379E-2    9.747508777731214E-1   -1.571581060733065E-1
 5.837987172038046E7     9.738486134300856E-1   -1.629553740395534E-1    1.988091616807639E-2    5.399697908657555E-2    2.001496464464604E-2    5.395726043215921E-2    9.745103113857478E-1   -1.583774712053085E-1
 5.882530212293670E7     9.735866345353124E-1   -1.642412477490565E-1    2.003047511680564E-2    5.443207385472059E-2    2.016416760703636E-2    5.439629883945202E-2    9.742575921871504E-1   -1.596184438461186E-1
 5.927413109828297E7     9.733306772286199E-1   -1.654877901407183E-1    2.018177727178569E-2    5.487267618741730E-2    2.032059643345794E-2    5.483733751858829E-2    9.740183983203859E-1   -1.608688492755616E-1
 5.972638457706322E7     9.730781528922882E-1   -1.667649861447431E-1    2.033633997861117E-2    5.531432841851502E-2    2.047401949741832E-2    5.527885962646470E-2    9.737804909985351E-1   -1.621150083838605E-1
 6.018208868776779E7     9.728261743303358E-1   -1.680571858312678E-1    2.049264055668321E-2    5.576197447281557E-2    2.063197060422860E-2    5.572967976738002E-2    9.735336149570621E-1   -1.633574745678978E-1
 6.064126975824468E7     9.725613514183860E-1   -1.693296383614251E-1    2.065101436800607E-2    5.621129235979707E-2    2.079616474690058E-2    5.617758686266789E-2    9.732663713596849E-1   -1.646346412563995E-1
 6.110395431721926E7     9.722882317669922E-1   -1.706634793774422E-1    2.081358137951604E-2    5.666568499870724E-2    2.095888265499998E-2    5.663304137445307E-2    9.730072228041389E-1   -1.658991161078007E-1
 6.157016909582742E7     9.720186528561893E-1   -1.719704217643907E-1    2.097687786350056E-2    5.712129297873503E-2    2.112838732107618E-2    5.709003768213346E-2    9.727393010685310E-1   -1.672145357825223E-1
 6.203994102916045E7     9.717257189019084E-1   -1.732925714807557E-1    2.114606064727918E-2    5.757933670893928E-2    2.129975609375650E-2    5.754972256093423E-2    9.724673802169181E-1   -1.685124980780500E-1
 6.251329725781982E7     9.714477238676527E-1   -1.746484259401858E-1    2.131546695697401E-2    5.804236452726372E-2    2.147017997948536E-2    5.801410212538573E-2    9.721973789688328E-1   -1.698381498622501E-1
 6.299026512948693E7     9.711535106811265E-1   -1.760319902254428E-1    2.148976039414489E-2    5.850643630004160E-2    2.164640546979756E-2    5.848178741415276E-2    9.719315904975115E-1   -1.711481547338711E-1
 6.347087220050172E7     9.708542815754468E-1   -1.773565752464144E-1    2.166428112032573E-2    5.897172921862097E-2    2.182479284973987E-2    5.895090229702295E-2    9.716534083270608E-1   -1.724900342554679E-1
 6.395514623745525E7     9.705719374129498E-1   -1.787471834512935E-1    2.183930379726964E-2    5.944978285234511E-2    2.200250204080908E-2    5.942505500131949E-2    9.713733102413336E-1   -1.738237379952875E-1
 6.444311521879433E7     9.702897329627860E-1   -1.801372153908702E-1    2.201715556007136E-2    5.992873241055081E-2    2.218543266097809E-2    5.990216630845228E-2    9.710948383906077E-1   -1.752007140769359E-1
 6.493480733643661E7     9.699657674263165E-1   -1.815419502801665E-1    2.220101076642470E-2    6.040738102902855E-2    2.237058839171730E-2    6.038141149493888E-2    9.707727749390181E-1   -1.765654907888283E-1
 6.543025099740107E7     9.696542887465592E-1   -1.829611233949683E-1    2.238586490057002E-2    6.089208426408829E-2    2.255545773903146E-2    6.086640892621341E-2    9.704763858381923E-1   -1.779254667948577E-1
 6.592947482544785E7     9.692207509984673E-1   -1.851304533226426E-1    2.239938554046226E-2    6.132283205689464E-2    2.397472709699347E-2    6.087853406234341E-2    9.702146284405723E-1   -1.792423076936915E-1
 6.643250766273243E7     9.689258389159306E-1   -1.865616886588154E-1    2.258417591580759E-2    6.182231975700977E-2    2.420102787975421E-2    6.136786410461464E-2    9.698929510290063E-1   -1.806573755623181E-1
 6.693937857147253E7     9.685941889282886E-1   -1.880070097389937E-1    2.276657180943091E-2    6.232065347210621E-2    2.441546261635933E-2    6.186237622652126E-2    9.695737145834803E-1   -1.820716960331676E-1
 6.745011683562562E7     9.682514826309346E-1   -1.894508165822104E-1    2.294740124025536E-2    6.282790285200450E-2    2.462726821193836E-2    6.236661505061095E-2    9.692425667857169E-1   -1.835000819408323E-1
 6.796475196258274E7     9.679042981018354E-1   -1.909376549919163E-1    2.313172886721829E-2    6.334975878200101E-2    2.484865832133852E-2    6.287510864362902E-2    9.689136721421278E-1   -1.849504044021142E-1
 6.848331368487169E7     9.675321104688270E-1   -1.923905749589375E-1    2.331911869097192E-2    6.387905011861914E-2    2.507429775058335E-2    6.339160245744649E-2    9.685684660179513E-1   -1.864310620617470E-1
 6.900583196187538E7     9.670839256139194E-1   -1.935068538178803E-1    2.355814459558582E-2    6.440622919150826E-2    2.458927818242428E-2    6.393299042956260E-2    9.682370134990399E-1   -1.878462200564526E-1
 6.953233698156311E7     9.667080132398008E-1   -1.949997449382775E-1    2.376916015407860E-2    6.493180070088474E-2    2.481426405591274E-2    6.445467715991668E-2    9.679134307197784E-1   -1.892487566216964E-1
 7.006285916223384E7     9.663780777825052E-1   -1.965004686844145E-1    2.399441043049337E-2    6.545395034995025E-2    2.503194501722249E-2    6.498137475523273E-2    9.675755777400871E-1   -1.906848208483110E-1
 7.059742915427396E7     9.660402390766024E-1   -1.979616774208314E-1    2.421972449029725E-2    6.598297289414076E-2    2.525931367662927E-2    6.550816307766510E-2    9.671904739167823E-1   -1.921993780771017E-1
 7.113607784192866E7     9.656860052198125E-1   -1.994460085644336E-1    2.443968834710450E-2    6.651739185640651E-2    2.550509666634093E-2    6.603201460509014E-2    9.668100118148002E-1   -1.937518037441458E-1
 7.167883634508467E7     9.652915778855515E-1   -2.010340915844274E-1    2.466391726595256E-2    6.705450620335224E-2    2.575216750116740E-2    6.656229611308222E-2    9.664222459774340E-1   -1.952764193712266E-1
 7.222573602107021E7     9.648990093724426E-1   -2.026512489497993E-1    2.488782527257103E-2    6.759657092822671E-2    2.599263399066492E-2    6.709369062887631E-2    9.660423078819544E-1   -1.968236105390068E-1
 7.277680846646504E7     9.644657739452169E-1   -2.042265988796409E-1    2.509978772902701E-2    6.814722983086097E-2    2.622966716824176E-2    6.763481789204369E-2    9.656405104261125E-1   -1.983432781514987E-1
 7.333208551892644E7     9.640373369650935E-1   -2.058044636190731E-1    2.532079024706267E-2    6.871137854956079E-2    2.646943896619561E-2    6.819128401777262E-2    9.652609295984178E-1   -1.998485764253681E-1
 7.389159925902925E7     9.636558486134442E-1   -2.073551911129340E-1    2.557516815177778E-2    6.927438644754677E-2    2.670855252416142E-2    6.876574892854839E-2    9.648890514572116E-1   -2.013658165826789E-1
 7.445538201211768E7     9.632955849435048E-1   -2.088630478273974E-1    2.583419422053295E-2    6.984536573370646E-2    2.696694161883920E-2    6.933102414887803E-2    9.644453118848293E-1   -2.029312456657093E-1
 7.502346635017487E7     9.628755639223897E-1   -2.104639504813859E-1    2.609170002082847E-2    7.041390187291983E-2    2.723765968729787E-2    6.989549744634722E-2    9.640264448248383E-1   -2.045352412899795E-1
 7.559588509370317E7     9.624398539141771E-1   -2.121565081817103E-1    2.634534373377709E-2    7.098500976102688E-2    2.751756608317395E-2    7.046091358683555E-2    9.636020458160410E-1   -2.061652602756413E-1
 7.617267131362079E7     9.620026228170849E-1   -2.138196134535340E-1    2.660041766262139E-2    7.156564880686832E-2    2.779150930605613E-2    7.103325012714336E-2    9.631932213401014E-1   -2.078174615746666E-1
 7.675385833317320E7     9.615276888890675E-1   -2.154843349351581E-1    2.685116789313322E-2    7.215373466524493E-2    2.806647771457980E-2    7.161748054376492E-2    9.627283716036780E-1   -2.094079551306519E-1
 7.733947972985649E7     9.610862689047617E-1   -2.171762372747926E-1    2.711960879524006E-2    7.274572120733365E-2    2.834343380508023E-2    7.221741911280494E-2    9.623260958487615E-1   -2.109392500137600E-1
 7.792956933735959E7     9.606664557554040E-1   -2.187829762992999E-1    2.740864481793132E-2    7.333942460220291E-2    2.863135261347266E-2    7.281805569423891E-2    9.619081753254436E-1   -2.125890951218827E-1
 7.852416124751715E7     9.602260620162607E-1   -2.204090861932865E-1    2.769586189223823E-2    7.393934000599958E-2    2.892876301395746E-2    7.341613874021344E-2    9.614321360222935E-1   -2.142787027081369E-1
 7.912328981227988E7     9.597403730180372E-1   -2.220594857486073E-1    2.797988046014659E-2    7.454390037311080E-2    2.923985570767857E-2    7.401199401746007E-2    9.609824791557882E-1   -2.159723347587755E-1
 7.972698964569975E7     9.592585072353286E-1   -2.238215828656752E-1    2.827339216936860E-2    7.515263272412691E-2    2.954484744882233E-2    7.461724372021007E-2    9.604897750213329E-1   -2.176461855763707E-1
 8.033529562592810E7     9.587680226247743E-1   -2.255657923538161E-1    2.857597108932148E-2    7.576489753782445E-2    2.986472417053322E-2    7.523411243951360E-2    9.600258133188979E-1   -2.193059290960843E-1
 8.094824289723292E7     9.582751325912034E-1   -2.273073793311225E-1    2.889077203522031E-2    7.638031718657287E-2    3.018734402919595E-2    7.585203492241553E-2    9.595441390998517E-1   -2.209895749555740E-1
 8.156586687202743E7     9.577886168299312E-1   -2.290319164345226E-1    2.920269949024146E-2    7.699937206535579E-2    3.051479751674453E-2    7.647260348362055E-2    9.590779924804711E-1   -2.227331687781948E-1
 8.218820323291673E7     9.572734160311462E-1   -2.307973542553646E-1    2.952181579521113E-2    7.762111282030648E-2    3.084928307931921E-2    7.709317016363169E-2    9.585814728496531E-1   -2.244761822587258E-1
 8.281528793475981E7     9.567332836525624E-1   -2.325654959322134E-1    2.984095498857775E-2    7.825144164249348E-2    3.118506631236205E-2    7.771725906391111E-2    9.580755944675602E-1   -2.262338618358617E-1
 8.344715720674579E7     9.562258504747780E-1   -2.343881018553199E-1    3.016794919870467E-2    7.888879714423921E-2    3.153414522848325E-2    7.835351270399482E-2    9.575612973064208E-1   -2.280067668752891E-1
 8.408384755448765E7     9.557062754026060E-1   -2.361991672054981E-1    3.049973945017797E-2    7.953429425394218E-2    3.187996595248770E-2    7.899128246508735E-2    9.570718769562314E-1   -2.298171223262247E-1
 8.472539576213124E7     9.551546712782416E-1   -2.380196337327337E-1    3.083170459021586E-2    8.018253542966326E-2    3.223201544744814E-2    7.964168635131183E-2    9.565323319680278E-1   -2.316069524003129E-1
 8.537183889448020E7     9.545885399552216E-1   -2.398302998793912E-1    3.117814412076704E-2    8.084314763406740E-2    3.259473180773657E-2    8.030063463505220E-2    9.560075575933425E-1   -2.334127894343707E-1
 8.602321429913802E7     9.540347410500324E-1   -2.416785036562733E-1    3.153731790596069E-2    8.150676313860775E-2    3.297643873694667E-2    8.096092991947937E-2    9.554827985813611E-1   -2.352511557319593E-1
 8.667955960866481E7     9.534578772237294E-1   -2.435346067739705E-1    3.189676551092428E-2    8.216990692830126E-2    3.335408628971503E-2    8.161988887799054E-2    9.549441301613576E-1   -2.370915835020432E-1
 8.734091274275188E7     9.528688821944379E-1   -2.454186351726499E-1    3.225727718091415E-2    8.284154200675241E-2    3.373291724589744E-2    8.229026217666063E-2    9.543722795798931E-1   -2.389406108472736E-1
 8.800731191041334E7     9.522870434950689E-1   -2.472979904418398E-1    3.263165249575099E-2    8.352860267399043E-2    3.412821731246884E-2    8.296998491733568E-2    9.538064597371404E-1   -2.407908707068457E-1
 8.867879561219153E7     9.517043074903024E-1   -2.491889468341228E-1    3.301908854988972E-2    8.421702819786218E-2    3.453306734650477E-2    8.364889357026656E-2    9.532369808388944E-1   -2.426842907890403E-1
 8.935540264238395E7     9.511126238075195E-1   -2.511221174197407E-1    3.342351842078861E-2    8.491039736818225E-2    3.494863472741972E-2    8.432751638478291E-2    9.526531838237472E-1   -2.445723435866205E-1
 9.003717209128250E7     9.504917229568276E-1   -2.530196363184289E-1    3.381349114374072E-2    8.557976390154298E-2    3.533766211006888E-2    8.499300627413892E-2    9.520880011499191E-1   -2.464747162163243E-1
 9.072414334743266E7     9.498473535106875E-1   -2.549783768443882E-1    3.422323781265603E-2    8.627225520379626E-2    3.576208614298346E-2    8.568155648549100E-2    9.515076267537620E-1   -2.484267660800128E-1
 9.141635609990983E7     9.491816897176326E-1   -2.569749731444103E-1    3.463693662508143E-2    8.697344697362597E-2    3.619378282628395E-2    8.638141871241387E-2    9.508970062532829E-1   -2.503725259065462E-1
 9.211385034061028E7     9.485609046335942E-1   -2.589552558226596E-1    3.506227917979834E-2    8.768779228998436E-2    3.663211427893528E-2    8.708429031674046E-2    9.502627589208607E-1   -2.523400143614936E-1
 9.281666636656430E7     9.478943094804150E-1   -2.609505239999407E-1    3.550466723467354E-2    8.840783722480210E-2    3.708284741747470E-2    8.779153077470914E-2    9.496294860607744E-1   -2.543299854305480E-1
 9.352484478226222E7     9.472213536282433E-1   -2.629876790903837E-1    3.595538561403758E-2    8.911739062310112E-2    3.753402391344471E-2    8.849598759033903E-2    9.489962854329169E-1   -2.563162541786646E-1
 9.423842650200106E7     9.465404738081067E-1   -2.650350801226243E-1    3.640702094951522E-2    8.982991225238628E-2    3.799551822750667E-2    8.920455523536727E-2    9.482788202124215E-1   -2.583126546181646E-1
 9.495745275224906E7     9.458166238876295E-1   -2.670765408890101E-1    3.686357128191673E-2    9.054657041614490E-2    3.846630422248198E-2    8.992358113130842E-2    9.476391463156908E-1   -2.603635737242649E-1
 9.568196507402541E7     9.450669673292414E-1   -2.691549135514074E-1    3.732733660079807E-2    9.127661131403601E-2    3.894008033107400E-2    9.064417847942170E-2    9.468995447769436E-1   -2.623782729479117E-1
 9.641200532530291E7     9.442864355059140E-1   -2.712639966635690E-1    3.779917913608779E-2    9.201558265390117E-2    3.941880306255046E-2    9.136983482967737E-2    9.461890297519905E-1   -2.644301339554772E-1
 9.714761568342420E7     9.435737052889076E-1   -2.733725885855223E-1    3.827935590964858E-2    9.276255960245262E-2    3.990327867341850E-2    9.210963650507531E-2    9.454657277938336E-1   -2.664939595394456E-1
 9.788883864753923E7     9.427378645565281E-1   -2.754909368303328E-1    3.876973285453356E-2    9.351222684993478E-2    4.040418385809443E-2    9.285626365836488E-2    9.447222835349509E-1   -2.685691414991169E-1
 9.863571704106140E7     9.419307467774973E-1   -2.776327558385782E-1    3.926863635363284E-2    9.427172792179543E-2    4.091146737650842E-2    9.360495794779859E-2    9.439694827311930E-1   -2.706704143019474E-1
 9.938829401413949E7     9.411040564736168E-1   -2.797768235380079E-1    3.977585161990836E-2    9.503923252087623E-2    4.142343582953855E-2    9.436307311544054E-2    9.431856986659846E-1   -2.727823341979231E-1
 1.001466130461536E8     9.402643638628306E-1   -2.819654646842496E-1    4.029795720365609E-2    9.582226954468466E-2    4.194815050867953E-2    9.513990186281428E-2    9.423937911692127E-1   -2.749001353950816E-1
 1.009107179482240E8     9.393861255940110E-1   -2.841422329944930E-1    4.083307347694288E-2    9.660888847099834E-2    4.248993231405242E-2    9.592693443791858E-2    9.415714172039753E-1   -2.770427053757722E-1
 1.016806528657447E8     9.384777672166755E-1   -2.863512313814037E-1    4.138818158672495E-2    9.740355758637446E-2    4.305094607094220E-2    9.671284722979544E-2    9.407712252959680E-1   -2.792027293170526E-1
 1.024564622809335E8     9.375343006655436E-1   -2.885851548291531E-1    4.195617282862894E-2    9.820558145794404E-2    4.362576686719219E-2    9.750806436849591E-2    9.399451521973318E-1   -2.813899899211608E-1
 1.032381910153997E8     9.366041503449855E-1   -2.908293079109877E-1    4.254687763360046E-2    9.901323083880087E-2    4.422039620418081E-2    9.830519874693239E-2    9.390897660427995E-1   -2.835801793385845E-1
 1.040258842327368E8     9.356537645493100E-1   -2.930904224765307E-1    4.316435145198617E-2    9.981442203437897E-2    4.484033916412980E-2    9.909750910017710E-2    9.382101351843007E-1   -2.857714078340655E-1
 1.048195874411304E8     9.346702315295508E-1   -2.953741135061008E-1    4.378770977709386E-2    1.006076170008363E-1    4.546830751335144E-2    9.987825076994050E-2    9.372961192054319E-1   -2.879668634717374E-1
 1.056193464959857E8     9.336195315684647E-1   -2.976300567085761E-1    4.441983430082522E-2    1.013943117176045E-1    4.609415635847947E-2    1.006537967275023E-1    9.363944461543839E-1   -2.901953786955572E-1
 1.064252076025801E8     9.325914381669376E-1   -2.998944750443442E-1    4.504702258769225E-2    1.021826138782031E-1    4.672055062865248E-2    1.014278496108370E-1    9.354987311429365E-1   -2.924185838410634E-1
 1.072372173187304E8     9.315471763821823E-1   -3.021764714524013E-1    4.568120942334650E-2    1.029877061074027E-1    4.734349658207303E-2    1.022336625472949E-1    9.345654806234625E-1   -2.946935446446067E-1
 1.080554225574824E8     9.304441662942328E-1   -3.045100519148740E-1    4.634145259520599E-2    1.037975612574838E-1    4.799820563058239E-2    1.030453562135410E-1    9.336462606180844E-1   -2.969771263084665E-1
 1.088798705898232E8     9.293628173117445E-1   -3.067939729310377E-1    4.701468475984923E-2    1.046092094351009E-1    4.867157965466332E-2    1.038598511556167E-1    9.327032046124907E-1   -2.992800725308121E-1
 1.097106090474096E8     9.282412753729232E-1   -3.091130512664019E-1    4.770821697830894E-2    1.054182103036780E-1    4.935865151324063E-2    1.046734711287099E-1    9.316798444549595E-1   -3.016240925120547E-1
 1.105476859253232E8     9.271351676898614E-1   -3.114273303892505E-1    4.842138122333117E-2    1.062175924434525E-1    5.007714473075201E-2    1.054732957557408E-1    9.306787208559255E-1   -3.039552209392317E-1
 1.113911495848395E8     9.260622536130274E-1   -3.137735554278377E-1    4.913011046894689E-2    1.070113518348490E-1    5.078723365832098E-2    1.062617784611536E-1    9.296194657898400E-1   -3.063010937547332E-1
 1.122410487562254E8     9.249643897196914E-1   -3.161557824115990E-1    4.982725642153411E-2    1.078112538607140E-1    5.149203417555873E-2    1.070523068059765E-1    9.285635618305469E-1   -3.086583900000083E-1
 1.130974325415529E8     9.238727157550486E-1   -3.185862551072721E-1    5.053803591212651E-2    1.086298148081120E-1    5.220006716064655E-2    1.078633463900522E-1    9.274763656672860E-1   -3.110189616748814E-1
 1.139603504175348E8     9.227520539483752E-1   -3.210531943209759E-1    5.126857834502158E-2    1.094486104135049E-1    5.293628082109928E-2    1.086768036627159E-1    9.263774664924472E-1   -3.133714401959519E-1
 1.148298522383858E8     9.215604096918550E-1   -3.235353985957388E-1    5.200026979241354E-2    1.102618442541548E-1    5.367170324514230E-2    1.094839477569043E-1    9.252798507251765E-1   -3.157482798840637E-1
 1.157059882387014E8     9.203753370201281E-1   -3.260276689397443E-1    5.272459976159589E-2    1.110841180012384E-1    5.440716007124188E-2    1.102966521439929E-1    9.241786383592916E-1   -3.181336454716782E-1
 1.165888090363587E8     9.191513407033850E-1   -3.285874634814426E-1    5.346485206694475E-2    1.119137302064960E-1    5.514277776821335E-2    1.111146412408229E-1    9.230492460634100E-1   -3.205660859268569E-1
 1.174783656354443E8     9.179095174176622E-1   -3.311582734564192E-1    5.420963310773846E-2    1.127431470584280E-1    5.588530783184942E-2    1.119262527706912E-1    9.219070260800197E-1   -3.229864157522462E-1
 1.183747094291968E8     9.166569112437284E-1   -3.337123459848071E-1    5.493621190943365E-2    1.135840672996765E-1    5.660631943763835E-2    1.127605386899307E-1    9.208224343850170E-1   -3.254603716629301E-1
 1.192778922029803E8     9.154478336540087E-1   -3.363424229315833E-1    5.565511877256538E-2    1.144868552004110E-1    5.732746434190004E-2    1.136467522851414E-1    9.197069718175015E-1   -3.279975296510584E-1
 1.201879661372721E8     9.141716742722942E-1   -3.390553219478082E-1    5.644419869449242E-2    1.154275691402533E-1    5.810589332567363E-2    1.145782943837665E-1    9.185337999967286E-1   -3.305794526071610E-1
 1.211049838106809E8     9.128259955086946E-1   -3.417691514774569E-1    5.728309674695323E-2    1.163461795057739E-1    5.894613010503593E-2    1.154837964676487E-1    9.173039534470299E-1   -3.331400720548501E-1
 1.220289982029829E8     9.114838573335242E-1   -3.444818137896814E-1    5.811363347053534E-2    1.172435856491333E-1    5.977901051698158E-2    1.163634939194788E-1    9.160737520530218E-1   -3.357128425179681E-1
 1.229600626981811E8     9.101166153380932E-1   -3.472493756860064E-1    5.894026694417800E-2    1.181562061323000E-1    6.060258370300934E-2    1.172613903520421E-1    9.148275029206308E-1   -3.383142640162957E-1
 1.238982310875929E8     9.087254193344957E-1   -3.500459683361358E-1    5.978511698976755E-2    1.190990698045485E-1    6.143554951301038E-2    1.181901246395693E-1    9.135616916858662E-1   -3.409591892328055E-1
 1.248435575729559E8     9.072815126561722E-1   -3.529003726963669E-1    6.067309455505279E-2    1.200586425709414E-1    6.231140860737500E-2    1.191448981681615E-1    9.122374719421567E-1   -3.436303728426529E-1
 1.257960967695579E8     9.057522101958068E-1   -3.557374587381847E-1    6.158007314071439E-2    1.209770014776999E-1    6.320403500635664E-2    1.200600870750624E-1    9.108682254032520E-1   -3.462508049005342E-1
 1.267559037093956E8     9.042168600839000E-1   -3.585865740221799E-1    6.248800230878675E-2    1.218784591923272E-1    6.411297380391358E-2    1.209540977500283E-1    9.095404407344794E-1   -3.488665865822569E-1
 1.277230338443520E8     9.026978270076741E-1   -3.614916947283039E-1    6.336079143551838E-2    1.228371622522688E-1    6.498733335611542E-2    1.219013850544187E-1    9.082607310261903E-1   -3.515972687642791E-1
 1.286975430493991E8     9.011432190635679E-1   -3.644536424638417E-1    6.428326205867210E-2    1.238497566604527E-1    6.591106969174905E-2    1.229010086461749E-1    9.068990681054250E-1   -3.544025005758349E-1
 1.296794876258291E8     8.995043320454418E-1   -3.674166706089674E-1    6.527001746625298E-2    1.248585259471762E-1    6.689275060957073E-2    1.238982867540248E-1    9.054520449867715E-1   -3.572172211341468E-1
 1.306689243045034E8     8.978437168189669E-1   -3.703582070475953E-1    6.627530628788499E-2    1.258496783050360E-1    6.790110548090326E-2    1.248704494913239E-1    9.039730961121848E-1   -3.600115286834789E-1
 1.316659102491341E8     8.961726451414943E-1   -3.733294938070790E-1    6.729390885326444E-2    1.268393218223640E-1    6.891647169411209E-2    1.258409423654470E-1    9.024781387325631E-1   -3.628316154875421E-1
 1.326705030595824E8     8.944988018426265E-1   -3.763245690286389E-1    6.832649115039217E-2    1.278360255203367E-1    6.994520949944032E-2    1.268221479838494E-1    9.009511944829790E-1   -3.656551583427819E-1
 1.336827607751903E8     8.927967869029647E-1   -3.793748999846149E-1    6.938601483411978E-2    1.288329626260797E-1    7.100206622157185E-2    1.278095414107227E-1    8.993967199418246E-1   -3.684877399297079E-1
 1.347027418781318E8     8.910263619864113E-1   -3.824392282788462E-1    7.045732957429626E-2    1.298149682222019E-1    7.207566848037018E-2    1.287824172652792E-1    8.978334420686022E-1   -3.713419812365741E-1
 1.357305052967905E8     8.892584473449999E-1   -3.855211962664806E-1    7.152468280144919E-2    1.308032518050942E-1    7.313833646302315E-2    1.297518102371265E-1    8.962314992870545E-1   -3.742068309860166E-1
 1.367661104091667E8     8.874547405501471E-1   -3.886701966902676E-1    7.260022052622161E-2    1.318209154955794E-1    7.421243742572246E-2    1.307618944282745E-1    8.945916495067837E-1   -3.770926000625898E-1
 1.378096170463071E8     8.855787356606541E-1   -3.918389003273934E-1    7.370605987881870E-2    1.328381186940577E-1    7.532478820862609E-2    1.317698309368670E-1    8.929364060178145E-1   -3.799824315327108E-1
 1.388610854957592E8     8.836802674296204E-1   -3.950124889780404E-1    7.481290175068024E-2    1.338593176721407E-1    7.643927724809366E-2    1.327875695906952E-1    8.913190967630649E-1   -3.828696202024709E-1
 1.399205765050585E8     8.817260508008959E-1   -3.982092677990912E-1    7.592432649100590E-2    1.349077405419081E-1    7.756058743321992E-2    1.338228272885575E-1    8.896940835617557E-1   -3.858314090389016E-1
 1.409881512852336E8     8.797415694138193E-1   -4.014346791544905E-1    7.705756548507103E-2    1.359923329018059E-1    7.870941577805116E-2    1.348887784621962E-1    8.879896971499655E-1   -3.888861868011256E-1
 1.420638715143470E8     8.777121926186270E-1   -4.046713753083959E-1    7.822634069807756E-2    1.371005988024865E-1    7.989413814505995E-2    1.359831576371001E-1    8.862555461474647E-1   -3.919613340773762E-1
 1.431477993410541E8     8.756504141599765E-1   -4.079308624131559E-1    7.942687753236316E-2    1.382184136564741E-1    8.110679752768435E-2    1.370872573949939E-1    8.844568262343117E-1   -3.950401989073472E-1
 1.442399973881980E8     8.735343171921387E-1   -4.112377346059549E-1    8.065613923932935E-2    1.393600037648139E-1    8.235453234667828E-2    1.382167228079317E-1    8.826136142505904E-1   -3.981988283997998E-1
 1.453405287564251E8     8.713506392173781E-1   -4.145822864212449E-1    8.194586445314966E-2    1.405333441379579E-1    8.365682959250377E-2    1.393682417848408E-1    8.806822737826333E-1   -4.013606426674478E-1
 1.464494570278296E8     8.691025972786627E-1   -4.179048148500814E-1    8.328833178933541E-2    1.416878175753080E-1    8.501277707134515E-2    1.405017104320382E-1    8.787068123547351E-1   -4.044953330488041E-1
 1.475668462696298E8     8.668127437647748E-1   -4.212598906515282E-1    8.465906824754911E-2    1.428230947102228E-1    8.639360646478425E-2    1.416198120928117E-1    8.766824397082857E-1   -4.076586592614793E-1
 1.486927610378684E8     8.644299558455498E-1   -4.246385565696552E-1    8.606442827562306E-2    1.439486700382072E-1    8.780564982077964E-2    1.427335714725726E-1    8.746234045442429E-1   -4.108178895954744E-1
 1.498272663811400E8     8.620311604043905E-1   -4.280085282516222E-1    8.747927707851404E-2    1.450731497399796E-1    8.923907061894683E-2    1.438425405462277E-1    8.724904795181007E-1   -4.140331255967390E-1
 1.509704278443526E8     8.595767422658736E-1   -4.314049948194383E-1    8.891063259739450E-2    1.462015878491048E-1    9.068924435219736E-2    1.449580499021540E-1    8.702891261254816E-1   -4.172252281640570E-1
 1.521223114725131E8     8.570740885504612E-1   -4.347562240422859E-1    9.034077437499227E-2    1.473387290195841E-1    9.215897454202014E-2    1.460764961676027E-1    8.680495823300007E-1   -4.203442227378164E-1
 1.532829838145407E8     8.545243376617179E-1   -4.381760823429978E-1    9.181137668217851E-2    1.484798566039479E-1    9.364482562206108E-2    1.472142466262972E-1    8.658643438472124E-1   -4.234874271648573E-1
 1.544525119271165E8     8.518957524070673E-1   -4.416189052587685E-1    9.330518430086367E-2    1.496439811168744E-1    9.516441944474723E-2    1.483652279375826E-1    8.636771169086663E-1   -4.266689685362232E-1
 1.556309633785520E8     8.492112393007456E-1   -4.450405517539481E-1    9.482037015433037E-2    1.508051706269341E-1    9.671490098408624E-2    1.495236975462862E-1    8.614542906659717E-1   -4.299686770681663E-1
 1.568184062526983E8     8.464795039129110E-1   -4.484992817071219E-1    9.634869233355797E-2    1.519956172596054E-1    9.828975613644207E-2    1.507000570865352E-1    8.591462712851936E-1   -4.332991427637560E-1
 1.580149091528745E8     8.436960303938709E-1   -4.520349685569163E-1    9.792162542574782E-2    1.532321190511083E-1    9.990284105521033E-2    1.519150023794436E-1    8.567680253530697E-1   -4.366669196019156E-1
 1.592205412058353E8     8.408360642018649E-1   -4.555465371102713E-1    9.955266028506253E-2    1.544689877717183E-1    1.015885621640000E-1    1.531352541024188E-1    8.543342892497713E-1   -4.400710491125436E-1
 1.604353720657634E8     8.378542231414563E-1   -4.590805970277301E-1    1.012359977876496E-1    1.557120491898240E-1    1.033346066767856E-1    1.543442519039989E-1    8.518064073349532E-1   -4.435602606454045E-1
 1.616594719182909E8     8.348127773161926E-1   -4.626221690422657E-1    1.029704368894124E-1    1.569497883949525E-1    1.051074782172123E-1    1.555261788542052E-1    8.491801507029747E-1   -4.470092366303123E-1
 1.628929114845590E8     8.316748630586684E-1   -4.661415303976230E-1    1.047455190253984E-1    1.581715592872460E-1    1.069170038672567E-1    1.567095810027309E-1    8.464715584437016E-1   -4.505283152757569E-1
 1.641357620253014E8     8.285037441537209E-1   -4.696198317071333E-1    1.065230448602218E-1    1.593789450445791E-1    1.087414189196558E-1    1.578723687487400E-1    8.436961172738426E-1   -4.540196774124667E-1
 1.653880953449593E8     8.252546617218021E-1   -4.731535278069183E-1    1.083288915923857E-1    1.605828089497583E-1    1.105732181857869E-1    1.590406786019099E-1    8.408871336689261E-1   -4.575073695902191E-1
 1.666499837958347E8     8.219394652140033E-1   -4.767165803912038E-1    1.101631087178179E-1    1.617955821816678E-1    1.124317960800175E-1    1.602093511540568E-1    8.379981502973211E-1   -4.609861209902647E-1
 1.679215002822650E8     8.185267218224508E-1   -4.802936364674068E-1    1.120312315847568E-1    1.630274712009098E-1    1.143028888459826E-1    1.614225746913855E-1    8.350685970482358E-1   -4.645280923016266E-1
 1.692027182648404E8     8.150000428461976E-1   -4.839132192791080E-1    1.139443314716505E-1    1.642798523360116E-1    1.162409127890166E-1    1.626554740837815E-1    8.320431771224746E-1   -4.680874642374717E-1
 1.704937117646426E8     8.113442937659989E-1   -4.875175345950016E-1    1.158664706936487E-1    1.655592738927284E-1    1.182115784428672E-1    1.639001292378456E-1    8.289813935146627E-1   -4.717017008963579E-1
 1.717945553675260E8     8.076148230063945E-1   -4.911089362136936E-1    1.178350366859882E-1    1.668444041058792E-1    1.202254484151424E-1    1.651488858017436E-1    8.257785178549018E-1   -4.753002085722227E-1
 1.731053242284249E8     8.037463658965442E-1   -4.946674252317106E-1    1.198056541046114E-1    1.681404320493330E-1    1.222408615277435E-1    1.664202568126951E-1    8.225222826585090E-1   -4.789204395876169E-1
 1.744260940756933E8     7.997785274099944E-1   -4.982633262359115E-1    1.218378959128305E-1    1.694886261788980E-1    1.243070201434338E-1    1.677311576525507E-1    8.191695546719825E-1   -4.825766536355363E-1
 1.757569412154842E8     7.956852130581947E-1   -5.018473924557822E-1    1.238797435453289E-1    1.708517059358401E-1    1.263628616947950E-1    1.690639046471598E-1    8.156771773121722E-1   -4.861379583335323E-1
 1.770979425361561E8     7.913837333318429E-1   -5.053956911963214E-1    1.259657525308471E-1    1.723035999742496E-1    1.284800152444050E-1    1.704830176059662E-1    8.121813719538848E-1   -4.897412825307182E-1
 1.784491755127131E8     7.868954764767171E-1   -5.088615429288063E-1    1.281668666266282E-1    1.738136691013764E-1    1.306972075134192E-1    1.719672418810229E-1    8.086289048007180E-1   -4.934134577471916E-1
 1.798107182112848E8     7.823083782224491E-1   -5.121962036540871E-1    1.304751172194276E-1    1.753301688867846E-1    1.330159039436898E-1    1.734617196581558E-1    8.049155062305448E-1   -4.970929541324745E-1
 1.811826492936349E8     7.775999732832878E-1   -5.154590716920039E-1    1.328444349093655E-1    1.768392492656308E-1    1.353831175441114E-1    1.749598504069088E-1    8.010808433771736E-1   -5.007477475064678E-1
 1.825650480217040E8     7.727319089421246E-1   -5.185646806282873E-1    1.353090416112480E-1    1.783391493116949E-1    1.378774884567877E-1    1.764496135318133E-1    7.971632837663393E-1   -5.044736355493945E-1
 1.839579942621904E8     7.678142658349753E-1   -5.215579085894709E-1    1.378469325598217E-1    1.798485686173882E-1    1.404261387002393E-1    1.779426660710709E-1    7.930770957164381E-1   -5.080988934456618E-1
 1.853615684911660E8     7.628783448576991E-1   -5.244660517542603E-1    1.404381061068083E-1    1.813515270244055E-1    1.430275981948647E-1    1.794370122778146E-1    7.889287144905158E-1   -5.116947022994868E-1
 1.867758517987237E8     7.578610275528267E-1   -5.272844483017246E-1    1.430512261199323E-1    1.828827611683303E-1    1.456516403368456E-1    1.809559535606125E-1    7.846763218292881E-1   -5.153774167844101E-1
 1.882009258936609E8     7.527850382088227E-1   -5.300201727327448E-1    1.457390839279861E-1    1.844666401604935E-1    1.483790344664405E-1    1.825419214569875E-1    7.803143214372297E-1   -5.189773359457707E-1
 1.896368731082037E8     7.475761645837893E-1   -5.327018695413228E-1    1.484878317833293E-1    1.860622729649260E-1    1.511596115235517E-1    1.841407017384902E-1    7.757763430794203E-1   -5.225553672456250E-1
 1.910837764027621E8     7.422863207359243E-1   -5.353848807434761E-1    1.513074676990352E-1    1.877328658430916E-1    1.540096599061624E-1    1.857966401965417E-1    7.712431901910632E-1   -5.260612283331080E-1
 1.925417193707203E8     7.367808033634250E-1   -5.379732967285378E-1    1.542169606713704E-1    1.894716356505732E-1    1.569495789520478E-1    1.875179863311274E-1    7.665682885885405E-1   -5.296006224462371E-1
 1.940107862432706E8     7.310617312722540E-1   -5.403386527715026E-1    1.572104185255105E-1    1.912740731556507E-1    1.599786787600862E-1    1.893198099185842E-1    7.617621562762719E-1   -5.331523207570117E-1
 1.954910618942780E8     7.252598394913256E-1   -5.424205819265367E-1    1.603347974206776E-1    1.932307664838325E-1    1.631537105720998E-1    1.912715078009857E-1    7.568140807658911E-1   -5.365967959539373E-1
 1.969826318451810E8     7.195428577994626E-1   -5.442922098310194E-1    1.637466379867210E-1    1.952326890506233E-1    1.666297497476368E-1    1.932298234082871E-1    7.518657495544792E-1   -5.400454756502774E-1
 1.984855822699381E8     7.138345266094793E-1   -5.459218188635971E-1    1.672415107246888E-1    1.972076640817024E-1    1.701805213205861E-1    1.951593806621076E-1    7.467559695996271E-1   -5.435243521968434E-1
 2.000000000000000E8     7.082623238277346E-1   -5.474167685474164E-1    1.709111822817242E-1    1.993141711980896E-1    1.738994258118902E-1    1.971890833272358E-1    7.414686002436066E-1   -5.469516957072822E-1
